
     Program PWSCF v.7.5 starts on 21May2026 at  0:14:18 

     This program is part of the open-source Quantum ESPRESSO suite
     for quantum simulation of materials; please cite
         "P. Giannozzi et al., J. Phys.:Condens. Matter 21 395502 (2009);
         "P. Giannozzi et al., J. Phys.:Condens. Matter 29 465901 (2017);
         "P. Giannozzi et al., J. Chem. Phys. 152 154105 (2020);
          URL http://www.quantum-espresso.org", 
     in publications or presentations arising from this work. More details at
     http://www.quantum-espresso.org/quote

     Parallel version (MPI & OpenMP), running on     192 processor cores
     Number of MPI processes:               192
     Threads/MPI process:                     1

     MPI processes distributed on     1 nodes
     560530 MiB available memory on the printing compute node when the environment starts

     Waiting for input...
     Reading input from standard input

     Current dimensions of program PWSCF are:
     Max number of different atomic species (ntypx) = 10
     Max number of k-points (npk) =  40000
     Max angular momentum in pseudopotentials (lmaxx) =  4
     file Ba.pbe-spn-kjpaw_psl.1.0.0.UPF: wavefunction(s)  5S 6S renormalized
     file Ti.pbe-spn-kjpaw_psl.1.0.0.UPF: wavefunction(s)  3S 3P 3D renormalized
     file O.pbe-n-kjpaw_psl.1.0.0.UPF: wavefunction(s)  2S 2P renormalized

     IMPORTANT: XC functional enforced from input :
     Exchange-correlation= PBE
                           (   1   4   3   4   0   0   0)
     Any further DFT definition will be discarded
     Please, verify this is what you really want

     Found identity + ( -0.5000 -0.5000  0.0000) symmetry
     This is a supercell, fractional translations are disabled

     K-points division:     npool     =       8
     R & G space division:  proc/nbgrp/npool/nimage =      24
     Subspace diagonalization in iterative solution of the eigenvalue problem:
     one sub-group per band group will be used
     ELPA distributed-memory algorithm (size of sub-group:  2*  2 procs)


     Parallelization info
     --------------------
     sticks:   dense  smooth     PW     G-vecs:    dense   smooth      PW
     Min         362     181     50                25696     9081    1304
     Max         363     182     51                25701     9084    1307
     Sum        8693    4349   1201               616735   217983   31311

     Using Slab Decomposition



     bravais-lattice index     =            6
     lattice parameter (alat)  =      15.0876  a.u.
     unit-cell volume          =    3472.3239 (a.u.)^3
     number of atoms/cell      =           40
     number of atomic types    =            3
     number of electrons       =       320.00
     number of Kohn-Sham states=          200
     kinetic-energy cutoff     =      60.0000  Ry
     charge density cutoff     =     480.0000  Ry
     scf convergence threshold =      1.0E-10
     mixing beta               =       0.3000
     number of iterations used =           16  plain     mixing
     Exchange-correlation= PBE
                           (   1   4   3   4   0   0   0)

     celldm(1)=  15.087600  celldm(2)=   0.000000  celldm(3)=   1.011020
     celldm(4)=   0.000000  celldm(5)=   0.000000  celldm(6)=   0.000000

     crystal axes: (cart. coord. in units of alat)
               a(1) = (   1.000000   0.000000   0.000000 )  
               a(2) = (   0.000000   1.000000   0.000000 )  
               a(3) = (   0.000000   0.000000   1.011020 )  

     reciprocal axes: (cart. coord. in units 2 pi/alat)
               b(1) = (  1.000000  0.000000  0.000000 )  
               b(2) = (  0.000000  1.000000  0.000000 )  
               b(3) = (  0.000000  0.000000  0.989100 )  


     PseudoPot. # 1 for Ba read from file:
     /home/kylay/scratch/BTO/pseuds/Ba.pbe-spn-kjpaw_psl.1.0.0.UPF
     MD5 check sum: 7cfe25f1fe7574a4710541d5a11d6531
     Pseudo is Projector augmented-wave + core cor, Zval = 10.0
     Generated using &quot;atomic&quot; code by A. Dal Corso  v.6.2.2
     Shape of augmentation charge: PSQ
     Using radial grid of 1251 points,  7 beta functions with: 
                l(1) =   0
                l(2) =   0
                l(3) =   0
                l(4) =   1
                l(5) =   1
                l(6) =   2
                l(7) =   2
     Q(r) pseudized with 0 coefficients 


     PseudoPot. # 2 for Ti read from file:
     /home/kylay/scratch/BTO/pseuds/Ti.pbe-spn-kjpaw_psl.1.0.0.UPF
     MD5 check sum: 01f69b0d8ba4438b2e03ac6ea4af1c0b
     Pseudo is Projector augmented-wave + core cor, Zval = 12.0
     Generated using &quot;atomic&quot; code by A. Dal Corso  v.6.2.2
     Shape of augmentation charge: PSQ
     Using radial grid of 1177 points,  6 beta functions with: 
                l(1) =   0
                l(2) =   0
                l(3) =   1
                l(4) =   1
                l(5) =   2
                l(6) =   2
     Q(r) pseudized with 0 coefficients 


     PseudoPot. # 3 for O  read from file:
     /home/kylay/scratch/BTO/pseuds/O.pbe-n-kjpaw_psl.1.0.0.UPF
     MD5 check sum: e99d9cef9b487d1ca56f5b95ecd0fd7a
     Pseudo is Projector augmented-wave + core cor, Zval =  6.0
     Generated using &quot;atomic&quot; code by A. Dal Corso  v.6.3
     Shape of augmentation charge: PSQ
     Using radial grid of 1095 points,  4 beta functions with: 
                l(1) =   0
                l(2) =   0
                l(3) =   1
                l(4) =   1
     Q(r) pseudized with 0 coefficients 


     atomic species   valence    mass     pseudopotential
     Ba               10.00   137.32700     Ba( 1.00)
     Ti               12.00    47.86700     Ti( 1.00)
     O                 6.00    15.99900     O ( 1.00)

      8 Sym. Ops. (no inversion) found



   Cartesian axes

     site n.     atom                  positions (alat units)
         1        Ba     tau(   1) = (   0.0000000   0.0000000  -0.0010787  )
         2        Ba     tau(   2) = (   0.0000000   0.0000000   0.5044220  )
         3        Ba     tau(   3) = (   0.0000000   0.5000000  -0.0010832  )
         4        Ba     tau(   4) = (   0.0000000   0.5000000   0.5044235  )
         5        Ba     tau(   5) = (   0.5000000   0.0000000  -0.0010832  )
         6        Ba     tau(   6) = (   0.5000000   0.0000000   0.5044235  )
         7        Ba     tau(   7) = (   0.5000000   0.5000000  -0.0010766  )
         8        Ba     tau(   8) = (   0.5000000   0.5000000   0.5044202  )
         9        Ti     tau(   9) = (   0.2500002   0.2500002   0.2436990  )
        10        Ti     tau(  10) = (   0.2500007   0.2500007   0.7492042  )
        11        Ti     tau(  11) = (   0.2500002   0.7499998   0.2436990  )
        12        Ti     tau(  12) = (   0.2500007   0.7499993   0.7492042  )
        13        Ti     tau(  13) = (   0.7499998   0.2500002   0.2436990  )
        14        Ti     tau(  14) = (   0.7499993   0.2500007   0.7492042  )
        15        Ti     tau(  15) = (   0.7499998   0.7499998   0.2436990  )
        16        Ti     tau(  16) = (   0.7499993   0.7499993   0.7492042  )
        17        O      tau(  17) = (   0.2500011   0.2500011   0.0113903  )
        18        O      tau(  18) = (   0.2500007   0.2500007   0.5168954  )
        19        O      tau(  19) = (   0.2500011   0.7499989   0.0113903  )
        20        O      tau(  20) = (   0.2500007   0.7499993   0.5168954  )
        21        O      tau(  21) = (   0.7499989   0.2500011   0.0113903  )
        22        O      tau(  22) = (   0.7499993   0.2500007   0.5168954  )
        23        O      tau(  23) = (   0.7499989   0.7499989   0.0113903  )
        24        O      tau(  24) = (   0.7499993   0.7499993   0.5168954  )
        25        O      tau(  25) = (   0.2500005   0.0000000   0.2592128  )
        26        O      tau(  26) = (   0.2500020   0.0000000   0.7647195  )
        27        O      tau(  27) = (   0.2499999   0.5000000   0.2592107  )
        28        O      tau(  28) = (   0.2499998   0.5000000   0.7647148  )
        29        O      tau(  29) = (   0.7499995   0.0000000   0.2592128  )
        30        O      tau(  30) = (   0.7499980   0.0000000   0.7647195  )
        31        O      tau(  31) = (   0.7500001   0.5000000   0.2592107  )
        32        O      tau(  32) = (   0.7500002   0.5000000   0.7647148  )
        33        O      tau(  33) = (   0.0000000   0.2500005   0.2592128  )
        34        O      tau(  34) = (   0.0000000   0.2500020   0.7647195  )
        35        O      tau(  35) = (   0.0000000   0.7499995   0.2592128  )
        36        O      tau(  36) = (   0.0000000   0.7499980   0.7647195  )
        37        O      tau(  37) = (   0.5000000   0.2499999   0.2592107  )
        38        O      tau(  38) = (   0.5000000   0.2499998   0.7647148  )
        39        O      tau(  39) = (   0.5000000   0.7500001   0.2592107  )
        40        O      tau(  40) = (   0.5000000   0.7500002   0.7647148  )

     number of k points=    18
                       cart. coord. in units 2pi/alat
        k(    1) = (   0.0000000   0.0000000   0.0000000), wk =   0.0312500
        k(    2) = (   0.0000000   0.0000000   0.2472750), wk =   0.0625000
        k(    3) = (   0.0000000   0.0000000  -0.4945501), wk =   0.0312500
        k(    4) = (   0.0000000   0.2500000   0.0000000), wk =   0.1250000
        k(    5) = (   0.0000000   0.2500000   0.2472750), wk =   0.2500000
        k(    6) = (   0.0000000   0.2500000  -0.4945501), wk =   0.1250000
        k(    7) = (   0.0000000  -0.5000000   0.0000000), wk =   0.0625000
        k(    8) = (   0.0000000  -0.5000000   0.2472750), wk =   0.1250000
        k(    9) = (   0.0000000  -0.5000000  -0.4945501), wk =   0.0625000
        k(   10) = (   0.2500000   0.2500000   0.0000000), wk =   0.1250000
        k(   11) = (   0.2500000   0.2500000   0.2472750), wk =   0.2500000
        k(   12) = (   0.2500000   0.2500000  -0.4945501), wk =   0.1250000
        k(   13) = (   0.2500000  -0.5000000   0.0000000), wk =   0.1250000
        k(   14) = (   0.2500000  -0.5000000   0.2472750), wk =   0.2500000
        k(   15) = (   0.2500000  -0.5000000  -0.4945501), wk =   0.1250000
        k(   16) = (  -0.5000000  -0.5000000   0.0000000), wk =   0.0312500
        k(   17) = (  -0.5000000  -0.5000000   0.2472750), wk =   0.0625000
        k(   18) = (  -0.5000000  -0.5000000  -0.4945501), wk =   0.0312500

     Dense  grid:   616735 G-vectors     FFT dimensions: ( 108, 108, 108)

     Smooth grid:   217983 G-vectors     FFT dimensions: (  75,  75,  75)

     Estimated max dynamical RAM per process >      75.85 MB

     Estimated total dynamical RAM >      12.16 GB

     Check: negative core charge=   -0.000002

     The initial density is read from file :
     ./tmp/60_ecut_4_kmesh_PBE.save/charge-density

     Starting wfcs from file
     Checking if some PAW data can be deallocated... 

     total cpu time spent up to now is        3.9 secs

     per-process dynamical memory:   122.3 Mb

     Self-consistent Calculation

     iteration #  1     ecut=    60.00 Ry     beta= 0.30
     Davidson diagonalization with overlap
     ethr =  1.00E-05,  avg # of iterations =  1.1

     Threshold (ethr) on eigenvalues was too large:
     Diagonalizing with lowered threshold

     Davidson diagonalization with overlap
     ethr =  4.17E-13,  avg # of iterations =  5.0

     total cpu time spent up to now is        7.5 secs

     total energy              =   -5964.60371538 Ry
     estimated scf accuracy    <          3.1E-09 Ry

     iteration #  2     ecut=    60.00 Ry     beta= 0.30
     Davidson diagonalization with overlap
     ethr =  9.58E-13,  avg # of iterations =  2.0

     total cpu time spent up to now is        8.9 secs

     total energy              =   -5964.60371538 Ry
     estimated scf accuracy    <          6.2E-10 Ry

     iteration #  3     ecut=    60.00 Ry     beta= 0.30
     Davidson diagonalization with overlap
     ethr =  1.93E-13,  avg # of iterations =  7.6

     total cpu time spent up to now is       11.6 secs

     total energy              =   -5964.60371538 Ry
     estimated scf accuracy    <          1.2E-10 Ry

     iteration #  4     ecut=    60.00 Ry     beta= 0.30
     Davidson diagonalization with overlap
     ethr =  1.00E-13,  avg # of iterations =  1.6

     total cpu time spent up to now is       12.9 secs

     End of self-consistent calculation

          k = 0.0000 0.0000 0.0000 ( 27305 PWs)   bands (ev):

   -46.1123 -46.1114 -46.1113 -46.1113 -46.1104 -46.1104 -46.1102 -46.1094
   -22.4474 -22.4439 -22.4439 -22.4413 -22.3992 -22.3971 -22.3971 -22.3950
   -22.3934 -22.3934 -22.3901 -22.3901 -22.3899 -22.3899 -22.3875 -22.3875
   -22.3392 -22.3392 -22.3374 -22.3374 -22.3371 -22.3371 -22.3354 -22.3354
   -14.4575 -14.3460 -14.3365 -14.3365 -14.2671 -14.2670 -14.2591 -14.1986
    -6.7748  -6.7748  -6.7224  -6.5321  -6.2538  -6.1408  -6.1408  -5.9064
    -5.9064  -5.9055  -5.8449  -5.8449  -5.8110  -5.7788  -5.7471  -5.7471
    -5.7441  -5.7441  -5.7356  -5.6697  -5.5764  -5.5764  -5.5148  -5.5148
    -0.3536  -0.3536  -0.2915   0.2992   0.2992   0.3153   0.3153   0.3654
     0.3709   0.3709   0.3749   0.3749   0.5281   0.5281   0.5329   0.5330
     0.5498   0.5498   0.7386   0.7428   0.7428   0.7629   0.7629   0.8067
     5.9196   6.0778   6.1027   6.1027   6.2954   6.2954   6.3342   6.3500
     6.4070   6.4070   6.5594   6.5594   6.5598   6.5816   6.5973   7.5261
     7.5261   7.5772   7.5772   7.6245   7.6245   7.6256   7.6256   7.6393
     7.6393   7.7384   7.7384   7.9239   7.9239   7.9535   8.0513   8.0859
     8.0859   8.0913   8.0913   8.3856   8.3856   8.4545   8.4581   8.4703
     8.4703   8.5510   8.5510   8.6151   8.6908   8.6908   8.7154   8.7154
     9.0502   9.0502   9.2288   9.3435   9.3435   9.3766   9.3766   9.4733
     9.4733   9.4819   9.4819   9.5004   9.5004   9.7146   9.7146   9.9949
    10.0596  10.0596  10.1764  10.1764  10.2466  10.2466  10.3379  10.4084
    12.2307  12.3769  12.5489  12.5489  12.6652  12.6652  13.9460  13.9460
    13.9745  13.9745  14.0021  14.0021  14.0082  14.0082  14.0228  14.0228
    14.0248  14.0248  14.3660  14.3660  14.3951  14.4643  14.4646  14.5513
    14.5513  14.6116  14.6116  14.6167  14.6198  15.1000  15.3002  15.3002
    15.3439  15.4903  16.2958  16.2958  16.4926  16.8978  17.1086  17.1087

          k = 0.0000 0.0000 0.2473 ( 27286 PWs)   bands (ev):

   -46.1122 -46.1116 -46.1112 -46.1112 -46.1105 -46.1105 -46.1101 -46.1095
   -22.4405 -22.4371 -22.4371 -22.4345 -22.4064 -22.4040 -22.4040 -22.4019
   -22.3929 -22.3929 -22.3906 -22.3906 -22.3895 -22.3895 -22.3879 -22.3879
   -22.3390 -22.3390 -22.3376 -22.3376 -22.3369 -22.3369 -22.3356 -22.3356
   -14.4416 -14.3627 -14.3265 -14.3265 -14.2774 -14.2774 -14.2503 -14.2076
    -6.7014  -6.7014  -6.6753  -6.5311  -6.2759  -6.2759  -6.1823  -5.9061
    -5.8582  -5.8582  -5.8374  -5.8374  -5.8163  -5.8063  -5.7836  -5.7298
    -5.7209  -5.7209  -5.7128  -5.7127  -5.6024  -5.6024  -5.5484  -5.5484
    -0.2626  -0.2626  -0.1638   0.1982   0.1982   0.3754   0.3754   0.3895
     0.3895   0.3965   0.3965   0.4310   0.5036   0.5036   0.5047   0.5047
     0.5577   0.5767   0.5767   0.6918   0.6918   0.7131   0.7131   0.7427
     6.0029   6.0802   6.2099   6.2099   6.3809   6.3809   6.4543   6.4543
     6.5702   6.5839   6.5951   6.6138   6.6990   6.6990   6.7471   7.5362
     7.5362   7.5555   7.5555   7.5594   7.5594   7.5719   7.5719   7.7124
     7.7124   7.7128   7.7128   7.7410   7.7842   7.8508   7.8508   7.9086
     7.9086   8.0412   8.0412   8.2080   8.4242   8.4242   8.4396   8.4396
     8.5524   8.6185   8.6186   8.6277   8.7641   8.7641   8.8941   8.8941
     9.0962   9.2187   9.2187   9.2266   9.2266   9.2855   9.2855   9.3513
     9.3513   9.3706   9.3706   9.4600   9.4600   9.6788   9.7603   9.7603
    10.0063  10.0063  10.0758  10.0758  10.0867  10.0867  10.3481  10.3980
    12.2514  12.3547  12.7901  12.7901  12.8838  12.8838  13.8118  13.8118
    13.8356  13.8356  13.9507  13.9507  13.9707  13.9707  14.0162  14.0162
    14.1019  14.1019  14.2726  14.2726  14.4267  14.4634  14.4639  14.5113
    14.5113  14.5856  14.8146  14.8146  14.9936  15.2769  15.2769  15.5506
    15.6293  15.7784  16.2845  16.4848  16.4848  16.8648  17.0284  17.4557

          k = 0.0000 0.0000-0.4946 ( 27198 PWs)   bands (ev):

   -46.1119 -46.1119 -46.1108 -46.1108 -46.1108 -46.1108 -46.1098 -46.1098
   -22.4235 -22.4235 -22.4206 -22.4206 -22.4206 -22.4206 -22.4182 -22.4182
   -22.3918 -22.3918 -22.3917 -22.3917 -22.3887 -22.3887 -22.3887 -22.3887
   -22.3383 -22.3383 -22.3383 -22.3383 -22.3362 -22.3362 -22.3362 -22.3362
   -14.4025 -14.4024 -14.3022 -14.3021 -14.3021 -14.3021 -14.2291 -14.2290
    -6.5794  -6.5792  -6.5094  -6.5094  -6.5092  -6.5092  -6.0039  -6.0038
    -5.8482  -5.8481  -5.8302  -5.8302  -5.8301  -5.8301  -5.7950  -5.7949
    -5.6631  -5.6631  -5.6630  -5.6630  -5.6303  -5.6303  -5.6302  -5.6301
    -0.0371  -0.0371  -0.0370  -0.0370   0.1714   0.1715   0.4411   0.4412
     0.4412   0.4413   0.4497   0.4497   0.4497   0.4497   0.5281   0.5281
     0.5282   0.5282   0.5876   0.5877   0.6434   0.6434   0.6435   0.6435
     6.0722   6.0724   6.3208   6.3208   6.3209   6.3209   6.5894   6.5895
     6.9030   6.9030   6.9032   6.9032   7.1612   7.1614   7.1710   7.1710
     7.1712   7.1712   7.2019   7.2020   7.3855   7.3857   7.5563   7.5563
     7.5564   7.5564   7.8402   7.8402   7.8402   7.8402   7.8996   7.8996
     7.8998   7.8998   8.1303   8.1303   8.1305   8.1305   8.6166   8.6166
     8.6167   8.6167   8.8075   8.8077   8.9670   8.9670   8.9670   8.9670
     8.9883   8.9884   8.9884   8.9884   9.0890   9.0890   9.1959   9.1959
     9.1960   9.1960   9.7244   9.7244   9.7244   9.7244   9.7772   9.7772
     9.7772   9.7772   9.8785   9.8785   9.8786   9.8786  10.3728  10.3730
    12.3022  12.3023  13.3216  13.3216  13.3216  13.3216  13.3739  13.3739
    13.3740  13.3740  13.9611  13.9611  13.9612  13.9612  14.1051  14.1051
    14.1051  14.1051  14.2965  14.2965  14.2965  14.2965  14.4632  14.4632
    14.5049  14.5049  15.1517  15.1517  15.1518  15.1518  15.7149  15.7150
    16.3165  16.3167  16.4206  16.4208  16.5396  16.5398  17.0770  17.0770

          k = 0.0000 0.2500 0.0000 ( 27273 PWs)   bands (ev):

   -46.1122 -46.1115 -46.1113 -46.1112 -46.1106 -46.1104 -46.1102 -46.1095
   -22.4469 -22.4444 -22.4435 -22.4417 -22.3989 -22.3974 -22.3968 -22.3954
   -22.3929 -22.3904 -22.3898 -22.3879 -22.3855 -22.3825 -22.3822 -22.3799
   -22.3472 -22.3451 -22.3449 -22.3430 -22.3389 -22.3374 -22.3370 -22.3356
   -14.4402 -14.3547 -14.3346 -14.3254 -14.2788 -14.2706 -14.2571 -14.2088
    -6.7243  -6.7056  -6.6489  -6.5441  -6.3402  -6.2452  -6.0636  -5.8936
    -5.8823  -5.8730  -5.8506  -5.8264  -5.8008  -5.7658  -5.7631  -5.7523
    -5.7343  -5.7235  -5.7098  -5.7039  -5.6636  -5.6029  -5.5831  -5.5476
    -0.2607  -0.2346  -0.1829   0.2115   0.2661   0.3280   0.3404   0.3609
     0.3887   0.3994   0.4288   0.4331   0.4902   0.4987   0.5072   0.5230
     0.5513   0.5578   0.5684   0.6888   0.7071   0.7080   0.7095   0.7371
     6.0101   6.1026   6.1895   6.1960   6.3130   6.3762   6.4119   6.5135
     6.5602   6.5669   6.5670   6.6404   6.7224   6.7651   6.7702   7.4629
     7.5415   7.5978   7.6243   7.6315   7.6346   7.6351   7.6701   7.6763
     7.7084   7.7087   7.7378   7.7387   7.7503   7.7983   7.8238   7.9057
     7.9468   8.0180   8.0433   8.1675   8.2054   8.2556   8.2944   8.5779
     8.5976   8.6099   8.6877   8.6933   8.8019   8.8118   8.8326   8.9194
     8.9680   9.1387   9.1830   9.2391   9.3026   9.3038   9.3237   9.4208
     9.4244   9.4743   9.5148   9.5241   9.5548   9.5582   9.5951   9.6826
     9.9080  10.0080  10.0838  10.0934  10.1866  10.2223  10.2395  10.2523
    12.5170  12.5914  12.6450  12.6574  12.7002  12.7998  13.7318  13.7631
    13.7669  13.7871  13.9677  13.9822  14.0076  14.0099  14.0203  14.0205
    14.0567  14.0700  14.2555  14.2867  14.4021  14.4965  14.5036  14.5637
    14.5701  14.5772  14.7641  14.8138  14.9369  15.1251  15.2716  15.6453
    15.7650  15.7850  16.1357  16.5239  16.6829  16.9827  17.1481  17.3515

          k = 0.0000 0.2500 0.2473 ( 27257 PWs)   bands (ev):

   -46.1121 -46.1114 -46.1113 -46.1110 -46.1107 -46.1104 -46.1103 -46.1097
   -22.4400 -22.4376 -22.4367 -22.4349 -22.4060 -22.4044 -22.4037 -22.4022
   -22.3924 -22.3902 -22.3900 -22.3883 -22.3850 -22.3829 -22.3819 -22.3803
   -22.3469 -22.3454 -22.3446 -22.3433 -22.3386 -22.3373 -22.3372 -22.3359
   -14.4251 -14.3504 -14.3438 -14.3155 -14.2901 -14.2673 -14.2617 -14.2179
    -6.6579  -6.6321  -6.6104  -6.5291  -6.3168  -6.2678  -6.2053  -5.9012
    -5.8750  -5.8718  -5.8468  -5.8298  -5.8173  -5.7962  -5.7781  -5.7534
    -5.7324  -5.7119  -5.6968  -5.6944  -5.6548  -5.6187  -5.6117  -5.5724
    -0.2164  -0.1745  -0.0086   0.2093   0.2602   0.2642   0.2758   0.3442
     0.3680   0.3968   0.4217   0.4584   0.4641   0.4845   0.5153   0.5336
     0.5490   0.5896   0.5913   0.6133   0.6307   0.6795   0.6808   0.7117
     6.1080   6.1907   6.2083   6.3427   6.3549   6.5405   6.5650   6.6052
     6.6622   6.6913   6.7010   6.7092   6.7259   6.8050   6.8690   7.4293
     7.5088   7.5256   7.5416   7.5633   7.5883   7.6259   7.6361   7.6542
     7.6658   7.6712   7.7204   7.7747   7.7927   7.8491   7.8646   7.8707
     7.8760   7.9139   7.9149   8.0093   8.0097   8.3064   8.3208   8.3709
     8.4422   8.5831   8.7098   8.7230   8.7651   8.7935   8.8825   9.1307
     9.1433   9.1523   9.1738   9.1934   9.3002   9.3096   9.3687   9.3690
     9.3700   9.4343   9.4499   9.4766   9.4879   9.4996   9.5652   9.5758
     9.8435   9.9026   9.9327  10.0259  10.0602  10.0843  10.2405  10.2593
    12.5510  12.6390  12.8107  12.8660  12.8798  13.0014  13.7381  13.7521
    13.7887  13.7903  13.8152  13.8409  13.8869  13.8892  13.9830  14.0314
    14.0448  14.0897  14.1365  14.3075  14.3173  14.3797  14.4624  14.4849
    14.7038  14.7625  14.8190  15.1438  15.1909  15.2492  15.5743  15.7505
    15.9013  16.0672  16.3226  16.4711  16.6399  17.0278  17.1909  17.2806

          k = 0.0000 0.2500-0.4946 ( 27256 PWs)   bands (ev):

   -46.1117 -46.1117 -46.1110 -46.1110 -46.1107 -46.1107 -46.1100 -46.1100
   -22.4231 -22.4231 -22.4210 -22.4210 -22.4202 -22.4202 -22.4186 -22.4186
   -22.3913 -22.3913 -22.3892 -22.3892 -22.3840 -22.3840 -22.3811 -22.3811
   -22.3462 -22.3462 -22.3440 -22.3440 -22.3380 -22.3380 -22.3365 -22.3365
   -14.3881 -14.3880 -14.3172 -14.3171 -14.2916 -14.2915 -14.2400 -14.2399
    -6.5417  -6.5416  -6.4914  -6.4913  -6.4399  -6.4397  -6.0836  -6.0835
    -5.8659  -5.8658  -5.8512  -5.8512  -5.8058  -5.8057  -5.7824  -5.7823
    -5.6868  -5.6867  -5.6691  -5.6689  -5.6568  -5.6567  -5.6336  -5.6335
    -0.0363  -0.0363   0.0396   0.0397   0.2942   0.2943   0.3015   0.3015
     0.3879   0.3880   0.3979   0.3979   0.4390   0.4390   0.4767   0.4767
     0.5925   0.5925   0.6136   0.6136   0.6310   0.6311   0.6424   0.6425
     6.1829   6.1830   6.3070   6.3071   6.5174   6.5175   6.7329   6.7330
     6.9634   6.9634   7.0030   7.0032   7.1003   7.1004   7.1551   7.1552
     7.1827   7.1829   7.2855   7.2856   7.3333   7.3334   7.5778   7.5779
     7.6563   7.6564   7.6872   7.6873   7.8633   7.8633   7.8941   7.8942
     7.9345   7.9346   7.9855   7.9856   8.1341   8.1343   8.1937   8.1938
     8.4827   8.4828   8.5460   8.5461   8.8938   8.8939   8.9806   8.9807
     9.0754   9.0754   9.2336   9.2336   9.2801   9.2801   9.2884   9.2885
     9.3231   9.3233   9.6038   9.6038   9.6970   9.6971   9.7049   9.7050
     9.7481   9.7481   9.7561   9.7562   9.8022   9.8022  10.2475  10.2477
    12.5953  12.5954  13.3284  13.3284  13.3310  13.3311  13.3600  13.3601
    13.4544  13.4545  13.7537  13.7537  13.9171  13.9172  14.0149  14.0150
    14.1252  14.1253  14.1345  14.1346  14.2682  14.2682  14.3934  14.3934
    14.7529  14.7529  15.1348  15.1348  15.6018  15.6018  15.8914  15.8915
    16.4789  16.4791  16.5212  16.5213  16.8229  16.8230  16.9097  16.9098

          k = 0.0000-0.5000 0.0000 ( 27234 PWs)   bands (ev):

   -46.1118 -46.1118 -46.1109 -46.1109 -46.1108 -46.1108 -46.1099 -46.1099
   -22.4457 -22.4457 -22.4426 -22.4426 -22.3982 -22.3982 -22.3961 -22.3961
   -22.3916 -22.3916 -22.3889 -22.3889 -22.3664 -22.3664 -22.3638 -22.3638
   -22.3636 -22.3636 -22.3616 -22.3616 -22.3382 -22.3382 -22.3363 -22.3363
   -14.3979 -14.3979 -14.3069 -14.3069 -14.2982 -14.2982 -14.2331 -14.2331
    -6.6159  -6.6159  -6.5308  -6.5308  -6.4602  -6.4602  -5.8727  -5.8727
    -5.8670  -5.8670  -5.8203  -5.8203  -5.7895  -5.7895  -5.7850  -5.7849
    -5.7386  -5.7386  -5.7221  -5.7221  -5.6646  -5.6646  -5.6280  -5.6280
    -0.0300  -0.0300   0.0193   0.0193   0.1478   0.1478   0.4064   0.4064
     0.4089   0.4089   0.4467   0.4468   0.4600   0.4600   0.5187   0.5187
     0.5712   0.5713   0.5772   0.5772   0.6319   0.6319   0.6364   0.6365
     6.0893   6.0893   6.2690   6.2690   6.3091   6.3091   6.5635   6.5635
     6.8552   6.8552   6.9789   6.9790   7.1661   7.1662   7.1988   7.1989
     7.2196   7.2196   7.2926   7.2926   7.3727   7.3727   7.6198   7.6198
     7.6589   7.6589   7.8516   7.8516   7.8888   7.8888   7.8905   7.8905
     7.8976   7.8976   7.9564   7.9564   8.0086   8.0086   8.4783   8.4783
     8.6942   8.6942   8.7794   8.7794   8.8773   8.8774   8.9134   8.9134
     8.9726   8.9726   9.1286   9.1286   9.1563   9.1563   9.2971   9.2971
     9.3126   9.3126   9.6383   9.6384   9.7626   9.7626   9.7647   9.7647
     9.7841   9.7841   9.8788   9.8788   9.9053   9.9053  10.2118  10.2118
    12.5983  12.5983  13.1835  13.1835  13.2121  13.2121  13.2436  13.2436
    13.2622  13.2622  14.0092  14.0092  14.0147  14.0147  14.0628  14.0628
    14.0896  14.0896  14.2580  14.2580  14.2663  14.2663  14.4894  14.4894
    14.5740  14.5740  15.0833  15.0833  15.1283  15.1283  15.6455  15.6456
    16.3977  16.3978  16.5418  16.5418  16.6285  16.6285  17.1794  17.1794

          k = 0.0000-0.5000 0.2473 ( 27230 PWs)   bands (ev):

   -46.1117 -46.1117 -46.1110 -46.1110 -46.1106 -46.1106 -46.1100 -46.1100
   -22.4388 -22.4388 -22.4358 -22.4358 -22.4052 -22.4052 -22.4029 -22.4029
   -22.3912 -22.3912 -22.3893 -22.3893 -22.3660 -22.3660 -22.3642 -22.3642
   -22.3633 -22.3633 -22.3619 -22.3619 -22.3379 -22.3379 -22.3366 -22.3366
   -14.3848 -14.3848 -14.3205 -14.3205 -14.2888 -14.2888 -14.2428 -14.2427
    -6.5709  -6.5709  -6.4574  -6.4574  -6.4550  -6.4550  -6.0351  -6.0351
    -5.8739  -5.8739  -5.8376  -5.8376  -5.7712  -5.7712  -5.7533  -5.7533
    -5.7328  -5.7328  -5.7321  -5.7320  -5.6579  -5.6579  -5.6321  -5.6321
    -0.0102  -0.0102   0.0449   0.0449   0.2724   0.2724   0.2992   0.2992
     0.3790   0.3790   0.3962   0.3962   0.4325   0.4325   0.4841   0.4841
     0.6056   0.6056   0.6137   0.6137   0.6193   0.6193   0.6360   0.6360
     6.1943   6.1943   6.2994   6.2994   6.4742   6.4742   6.7075   6.7075
     6.9699   6.9699   7.0104   7.0105   7.1300   7.1300   7.1479   7.1479
     7.2104   7.2104   7.3358   7.3358   7.3735   7.3735   7.6076   7.6076
     7.6757   7.6757   7.7328   7.7328   7.8790   7.8790   7.9019   7.9019
     7.9214   7.9214   7.9334   7.9334   8.0100   8.0100   8.1575   8.1575
     8.5024   8.5024   8.5436   8.5436   8.9007   8.9007   9.0025   9.0025
     9.1905   9.1905   9.1975   9.1975   9.2061   9.2061   9.2750   9.2750
     9.3340   9.3340   9.5476   9.5476   9.6491   9.6491   9.7165   9.7165
     9.7959   9.7959   9.8547   9.8547   9.8849   9.8849  10.0929  10.0929
    12.8219  12.8219  13.1986  13.1986  13.2306  13.2306  13.2879  13.2879
    13.4117  13.4117  13.8250  13.8250  13.8950  13.8950  14.0572  14.0572
    14.1054  14.1054  14.1164  14.1164  14.2388  14.2388  14.3924  14.3924
    14.8084  14.8084  15.1147  15.1147  15.5112  15.5112  15.8294  15.8295
    16.5727  16.5728  16.6482  16.6483  16.8322  17.0112  17.0113  17.1885

          k = 0.0000-0.5000-0.4946 ( 27248 PWs)   bands (ev):

   -46.1114 -46.1114 -46.1114 -46.1114 -46.1103 -46.1103 -46.1103 -46.1103
   -22.4221 -22.4220 -22.4220 -22.4220 -22.4194 -22.4194 -22.4194 -22.4194
   -22.3902 -22.3902 -22.3902 -22.3902 -22.3651 -22.3651 -22.3651 -22.3651
   -22.3626 -22.3626 -22.3626 -22.3626 -22.3373 -22.3373 -22.3372 -22.3372
   -14.3529 -14.3529 -14.3529 -14.3528 -14.2660 -14.2660 -14.2659 -14.2659
    -6.4861  -6.4861  -6.4860  -6.4860  -6.2666  -6.2666  -6.2664  -6.2664
    -5.8823  -5.8823  -5.8822  -5.8822  -5.7462  -5.7462  -5.7461  -5.7461
    -5.7372  -5.7372  -5.7371  -5.7370  -5.6437  -5.6437  -5.6436  -5.6436
     0.0768   0.0768   0.0769   0.0769   0.2331   0.2331   0.2332   0.2332
     0.3591   0.3591   0.3591   0.3591   0.5155   0.5155   0.5155   0.5155
     0.5437   0.5437   0.5437   0.5438   0.6470   0.6470   0.6470   0.6470
     6.2755   6.2755   6.2756   6.2756   6.9013   6.9013   6.9013   6.9014
     7.0666   7.0667   7.0667   7.0667   7.1753   7.1753   7.1754   7.1754
     7.2494   7.2494   7.2495   7.2495   7.3251   7.3251   7.3252   7.3252
     7.6968   7.6968   7.6969   7.6969   7.8357   7.8357   7.8358   7.8358
     7.8883   7.8883   7.8883   7.8884   8.1165   8.1165   8.1165   8.1165
     8.2305   8.2305   8.2306   8.2306   8.8745   8.8745   8.8745   8.8745
     9.3155   9.3155   9.3155   9.3156   9.3555   9.3555   9.3555   9.3555
     9.3886   9.3886   9.3887   9.3887   9.6950   9.6951   9.6951   9.6951
     9.7978   9.7978   9.7979   9.7979   9.8720   9.8720   9.8722   9.8722
    13.1833  13.1833  13.1834  13.1834  13.3713  13.3713  13.3714  13.3714
    13.5457  13.5457  13.5457  13.5457  13.7566  13.7566  13.7566  13.7567
    14.1685  14.1685  14.1685  14.1686  14.2093  14.2093  14.2093  14.2093
    15.0442  15.0442  15.0442  15.0442  16.3176  16.3176  16.3177  16.3177
    16.4230  16.4230  16.4231  16.4231  17.0232  17.2810  17.2828  17.2837

          k = 0.2500 0.2500 0.0000 ( 27250 PWs)   bands (ev):

   -46.1120 -46.1113 -46.1113 -46.1111 -46.1106 -46.1104 -46.1104 -46.1097
   -22.4464 -22.4440 -22.4440 -22.4420 -22.3986 -22.3971 -22.3971 -22.3957
   -22.3850 -22.3850 -22.3829 -22.3825 -22.3821 -22.3821 -22.3804 -22.3802
   -22.3471 -22.3466 -22.3452 -22.3452 -22.3449 -22.3447 -22.3434 -22.3434
   -14.4238 -14.3426 -14.3426 -14.3235 -14.2832 -14.2687 -14.2687 -14.2192
    -6.6639  -6.6639  -6.5751  -6.5424  -6.3876  -6.1694  -6.1694  -5.8765
    -5.8567  -5.8567  -5.8318  -5.8318  -5.8023  -5.7841  -5.7645  -5.7550
    -5.7510  -5.7292  -5.7154  -5.7117  -5.7117  -5.6135  -5.6135  -5.6079
    -0.2390  -0.1218  -0.0290   0.2153   0.2153   0.3110   0.3296   0.3297
     0.3653   0.3821   0.4130   0.4481   0.4590   0.4591   0.5224   0.5379
     0.5379   0.5852   0.5853   0.6190   0.6633   0.6786   0.6818   0.6819
     6.1086   6.1987   6.1987   6.2992   6.3290   6.5704   6.5704   6.6001
     6.6001   6.6824   6.7031   6.8020   6.8020   6.8071   6.8129   7.3158
     7.5382   7.5693   7.5693   7.6124   7.6413   7.6491   7.6491   7.6601
     7.6895   7.7095   7.7095   7.7889   7.7889   7.8054   7.8678   7.8679
     7.9045   7.9145   7.9605   7.9902   8.0225   8.2438   8.2438   8.4268
     8.4268   8.6085   8.6916   8.6916   8.6999   8.7635   9.0108   9.0108
     9.1108   9.1136   9.1337   9.2070   9.2171   9.2733   9.3322   9.4169
     9.4169   9.4434   9.4434   9.4754   9.5158   9.5158   9.6060   9.6060
     9.9387   9.9422  10.0399  10.0778  10.0848  10.0848  10.1501  10.1721
    12.6325  12.7671  12.7760  12.7802  12.7802  12.8799  13.7261  13.7527
    13.7527  13.7794  13.7794  13.8412  13.8597  13.8597  13.9834  14.0163
    14.0595  14.0595  14.1559  14.2917  14.2917  14.3731  14.4582  14.4683
    14.8044  14.8311  14.8311  15.1155  15.1393  15.1429  15.7447  15.7447
    15.9476  16.0376  16.3535  16.3535  16.8075  17.2385  17.2706  17.3226

          k = 0.2500 0.2500 0.2473 ( 27249 PWs)   bands (ev):

   -46.1119 -46.1113 -46.1112 -46.1112 -46.1105 -46.1105 -46.1104 -46.1098
   -22.4395 -22.4372 -22.4372 -22.4353 -22.4057 -22.4040 -22.4040 -22.4025
   -22.3846 -22.3846 -22.3825 -22.3825 -22.3825 -22.3821 -22.3808 -22.3806
   -22.3467 -22.3464 -22.3452 -22.3450 -22.3450 -22.3450 -22.3436 -22.3436
   -14.4094 -14.3385 -14.3320 -14.3319 -14.2797 -14.2797 -14.2739 -14.2287
    -6.5966  -6.5966  -6.5445  -6.5170  -6.3160  -6.2463  -6.2463  -5.9248
    -5.8899  -5.8503  -5.8503  -5.8264  -5.8264  -5.7948  -5.7817  -5.7586
    -5.7344  -5.7090  -5.7084  -5.6985  -5.6985  -5.6345  -5.6345  -5.6305
    -0.1613  -0.1259   0.1468   0.2272   0.2530   0.2530   0.2874   0.3134
     0.3134   0.3682   0.3745   0.3801   0.3926   0.3926   0.4850   0.4850
     0.5035   0.6151   0.6358   0.6412   0.6412   0.7179   0.7179   0.7317
     6.2394   6.3309   6.3420   6.3420   6.5158   6.5674   6.5674   6.6681
     6.6681   6.7915   6.8069   6.8112   6.8345   6.9026   6.9026   7.3640
     7.4070   7.4070   7.4808   7.4971   7.6537   7.6537   7.6590   7.6635
     7.6635   7.7045   7.7941   7.7941   7.8126   7.8298   7.8402   7.8599
     7.8599   7.8819   7.8979   7.9099   8.0638   8.0638   8.0765   8.3547
     8.4557   8.4557   8.5018   8.5274   8.7307   8.7307   8.9639   9.1459
     9.1729   9.1994   9.1994   9.2290   9.3020   9.3020   9.3098   9.3867
     9.3867   9.4249   9.4372   9.5032   9.5032   9.5353   9.5534   9.5534
     9.8104   9.8623   9.9006   9.9589  10.0136  10.0136  10.1566  10.1646
    12.7421  12.8602  12.9017  12.9240  12.9816  12.9816  13.7743  13.7743
    13.7897  13.8126  13.8126  13.8271  13.8288  13.8288  13.8319  13.8937
    13.8937  13.9160  14.1737  14.1737  14.1874  14.3223  14.3430  14.3657
    15.1204  15.1353  15.1585  15.1585  15.2031  15.5900  15.7287  15.7287
    16.1706  16.2988  16.4631  16.4632  16.5878  17.1583  17.3600  17.4086

          k = 0.2500 0.2500-0.4946 ( 27298 PWs)   bands (ev):

   -46.1116 -46.1116 -46.1109 -46.1109 -46.1109 -46.1109 -46.1101 -46.1101
   -22.4227 -22.4227 -22.4207 -22.4207 -22.4207 -22.4207 -22.4190 -22.4189
   -22.3836 -22.3836 -22.3835 -22.3835 -22.3817 -22.3816 -22.3814 -22.3813
   -22.3460 -22.3460 -22.3457 -22.3457 -22.3443 -22.3443 -22.3443 -22.3443
   -14.3743 -14.3742 -14.3061 -14.3060 -14.3060 -14.3059 -14.2515 -14.2514
    -6.5005  -6.5004  -6.4271  -6.4271  -6.4270  -6.4270  -6.1339  -6.1338
    -5.8711  -5.8711  -5.8282  -5.8282  -5.8281  -5.8281  -5.7769  -5.7767
    -5.6988  -5.6987  -5.6836  -5.6834  -5.6740  -5.6740  -5.6738  -5.6738
     0.0263   0.0263   0.0299   0.0300   0.3050   0.3050   0.3051   0.3051
     0.3746   0.3746   0.3798   0.3799   0.3799   0.3799   0.3975   0.3976
     0.4297   0.4297   0.7137   0.7137   0.7137   0.7137   0.7185   0.7185
     6.3312   6.3313   6.4905   6.4905   6.4906   6.4906   6.8081   6.8082
     7.0092   7.0092   7.0093   7.0093   7.0267   7.0268   7.1061   7.1061
     7.2971   7.2971   7.2972   7.2972   7.4144   7.4145   7.5662   7.5663
     7.6826   7.6826   7.6827   7.6827   7.7790   7.7791   7.8725   7.8725
     7.9342   7.9343   8.0072   8.0072   8.0073   8.0073   8.1852   8.1852
     8.2370   8.2371   8.5185   8.5185   8.5185   8.5185   8.9312   8.9312
     9.2531   9.2531   9.2531   9.2531   9.2945   9.2946   9.4562   9.4562
     9.4563   9.4563   9.5534   9.5534   9.6450   9.6450   9.6904   9.6905
     9.6956   9.6956   9.7622   9.7622   9.7622   9.7622  10.1556  10.1557
    12.8103  12.8104  13.3403  13.3404  13.3667  13.3668  13.4340  13.4340
    13.4341  13.4341  13.8156  13.8156  13.8156  13.8156  13.9516  13.9516
    13.9516  13.9516  14.0791  14.0791  14.1112  14.1112  14.2657  14.2657
    15.1283  15.1284  15.5957  15.5957  15.5957  15.5957  15.9782  15.9784
    16.5111  16.5113  16.7289  16.7291  16.9224  16.9224  17.0144  17.0146

          k = 0.2500-0.5000 0.0000 ( 27244 PWs)   bands (ev):

   -46.1117 -46.1117 -46.1109 -46.1109 -46.1108 -46.1108 -46.1100 -46.1100
   -22.4452 -22.4452 -22.4430 -22.4430 -22.3979 -22.3979 -22.3964 -22.3964
   -22.3838 -22.3838 -22.3812 -22.3812 -22.3660 -22.3660 -22.3640 -22.3640
   -22.3635 -22.3635 -22.3619 -22.3619 -22.3460 -22.3460 -22.3441 -22.3441
   -14.3836 -14.3836 -14.3131 -14.3131 -14.2963 -14.2963 -14.2441 -14.2441
    -6.5815  -6.5815  -6.5203  -6.5203  -6.3856  -6.3855  -5.9790  -5.9790
    -5.8455  -5.8455  -5.8173  -5.8173  -5.7923  -5.7923  -5.7874  -5.7874
    -5.7443  -5.7443  -5.7213  -5.7212  -5.6793  -5.6793  -5.6570  -5.6570
    -0.0453  -0.0453   0.0995   0.0995   0.2661   0.2661   0.2865   0.2865
     0.3603   0.3603   0.3908   0.3908   0.4731   0.4731   0.4901   0.4901
     0.5715   0.5715   0.6177   0.6177   0.6269   0.6269   0.6315   0.6315
     6.1864   6.1864   6.2712   6.2712   6.5053   6.5053   6.7061   6.7061
     6.8727   6.8727   7.1090   7.1090   7.1174   7.1174   7.1406   7.1406
     7.2759   7.2759   7.2946   7.2947   7.3530   7.3531   7.6234   7.6234
     7.7090   7.7090   7.7185   7.7185   7.8659   7.8659   7.8865   7.8865
     7.9244   7.9244   8.0070   8.0070   8.0568   8.0568   8.2487   8.2487
     8.4635   8.4635   8.6042   8.6042   8.7049   8.7049   8.8246   8.8246
     9.1207   9.1207   9.1339   9.1339   9.2430   9.2430   9.3385   9.3385
     9.3936   9.3936   9.6805   9.6805   9.7463   9.7463   9.7486   9.7486
     9.7603   9.7603   9.7881   9.7881   9.9219   9.9219  10.0963  10.0963
    12.7305  12.7306  13.2227  13.2228  13.2428  13.2428  13.2684  13.2685
    13.3829  13.3829  13.7842  13.7842  13.9118  13.9118  14.0274  14.0274
    14.0988  14.0988  14.1011  14.1012  14.2327  14.2327  14.3775  14.3775
    14.8460  14.8460  15.0971  15.0971  15.5807  15.5807  15.8395  15.8396
    16.6439  16.6439  16.6556  16.6556  16.7706  16.7706  16.9876  16.9876

          k = 0.2500-0.5000 0.2473 ( 27256 PWs)   bands (ev):

   -46.1115 -46.1115 -46.1109 -46.1109 -46.1108 -46.1108 -46.1102 -46.1102
   -22.4383 -22.4383 -22.4363 -22.4363 -22.4049 -22.4049 -22.4033 -22.4033
   -22.3835 -22.3835 -22.3816 -22.3816 -22.3656 -22.3656 -22.3639 -22.3639
   -22.3637 -22.3637 -22.3622 -22.3622 -22.3458 -22.3458 -22.3444 -22.3444
   -14.3710 -14.3710 -14.3093 -14.3093 -14.3031 -14.3031 -14.2543 -14.2543
    -6.5324  -6.5324  -6.4508  -6.4508  -6.3866  -6.3866  -6.0773  -6.0772
    -5.8538  -5.8538  -5.8322  -5.8322  -5.7921  -5.7921  -5.7765  -5.7765
    -5.7489  -5.7489  -5.7242  -5.7242  -5.6842  -5.6842  -5.6651  -5.6651
     0.0128   0.0128   0.0694   0.0694   0.2798   0.2798   0.2814   0.2814
     0.3767   0.3767   0.3818   0.3818   0.3893   0.3893   0.4111   0.4112
     0.4300   0.4300   0.7064   0.7064   0.7145   0.7145   0.7148   0.7148
     6.3352   6.3352   6.4622   6.4622   6.4834   6.4834   6.7718   6.7718
     6.9529   6.9529   7.0544   7.0544   7.0792   7.0792   7.0999   7.0999
     7.3043   7.3043   7.3636   7.3637   7.4078   7.4078   7.5967   7.5967
     7.7081   7.7082   7.7122   7.7122   7.7739   7.7739   7.8794   7.8794
     7.9639   7.9639   7.9664   7.9664   7.9871   7.9871   8.1995   8.1995
     8.2546   8.2546   8.4169   8.4169   8.6276   8.6276   8.7466   8.7466
     9.2565   9.2565   9.2667   9.2667   9.2983   9.2983   9.3574   9.3574
     9.4743   9.4743   9.6111   9.6111   9.6189   9.6189   9.7156   9.7156
     9.7591   9.7591   9.8079   9.8079   9.8931   9.8931  10.0116  10.0116
    12.9288  12.9288  13.2759  13.2760  13.3235  13.3235  13.3625  13.3625
    13.3888  13.3888  13.8428  13.8428  13.8446  13.8446  13.9343  13.9343
    13.9422  13.9422  14.0525  14.0525  14.0974  14.0974  14.2611  14.2611
    15.1777  15.1777  15.5256  15.5257  15.5768  15.5768  15.9245  15.9246
    16.6565  16.6565  16.8093  16.8094  16.9865  16.9865  16.9932  16.9933

          k = 0.2500-0.5000-0.4946 ( 27252 PWs)   bands (ev):

   -46.1112 -46.1112 -46.1112 -46.1112 -46.1105 -46.1105 -46.1105 -46.1105
   -22.4217 -22.4217 -22.4217 -22.4217 -22.4198 -22.4198 -22.4198 -22.4198
   -22.3825 -22.3825 -22.3825 -22.3825 -22.3648 -22.3648 -22.3647 -22.3647
   -22.3630 -22.3630 -22.3629 -22.3629 -22.3451 -22.3451 -22.3451 -22.3451
   -14.3404 -14.3404 -14.3404 -14.3403 -14.2789 -14.2789 -14.2789 -14.2788
    -6.4342  -6.4342  -6.4340  -6.4340  -6.2744  -6.2744  -6.2743  -6.2742
    -5.8685  -5.8685  -5.8684  -5.8684  -5.7677  -5.7677  -5.7677  -5.7676
    -5.7403  -5.7403  -5.7402  -5.7402  -5.6838  -5.6838  -5.6837  -5.6837
     0.1173   0.1173   0.1174   0.1174   0.1875   0.1875   0.1875   0.1875
     0.3158   0.3158   0.3158   0.3159   0.3636   0.3636   0.3636   0.3637
     0.6301   0.6302   0.6302   0.6302   0.7691   0.7691   0.7691   0.7691
     6.4476   6.4476   6.4477   6.4477   6.8141   6.8142   6.8142   6.8142
     7.0097   7.0097   7.0098   7.0098   7.2492   7.2492   7.2493   7.2493
     7.2649   7.2649   7.2650   7.2650   7.4850   7.4850   7.4850   7.4850
     7.5696   7.5696   7.5697   7.5697   7.8992   7.8992   7.8993   7.8993
     7.9087   7.9087   7.9088   7.9088   8.0515   8.0515   8.0515   8.0515
     8.1189   8.1189   8.1190   8.1190   8.5532   8.5532   8.5532   8.5532
     9.3743   9.3743   9.3744   9.3744   9.4410   9.4410   9.4411   9.4411
     9.5382   9.5382   9.5383   9.5383   9.6853   9.6853   9.6853   9.6853
     9.7379   9.7379   9.7380   9.7380   9.8639   9.8639   9.8640   9.8640
    13.2894  13.2895  13.2895  13.2895  13.4276  13.4276  13.4277  13.4277
    13.5839  13.5839  13.5839  13.5839  13.7266  13.7266  13.7267  13.7267
    13.9932  13.9932  13.9932  13.9932  14.0411  14.0411  14.0412  14.0412
    15.5193  15.5193  15.5193  15.5193  16.3434  16.3434  16.3435  16.3435
    16.4153  16.4153  16.4154  16.4154  17.0656  17.0656  17.0656  17.0656

          k =-0.5000-0.5000 0.0000 ( 27260 PWs)   bands (ev):

   -46.1113 -46.1113 -46.1113 -46.1113 -46.1104 -46.1104 -46.1104 -46.1104
   -22.4441 -22.4441 -22.4441 -22.4441 -22.3972 -22.3972 -22.3972 -22.3972
   -22.3654 -22.3654 -22.3654 -22.3654 -22.3646 -22.3646 -22.3646 -22.3646
   -22.3629 -22.3629 -22.3629 -22.3629 -22.3625 -22.3625 -22.3625 -22.3625
   -14.3487 -14.3486 -14.3486 -14.3486 -14.2704 -14.2703 -14.2703 -14.2703
    -6.5271  -6.5271  -6.5271  -6.5271  -6.1950  -6.1950  -6.1950  -6.1950
    -5.8033  -5.8033  -5.8033  -5.8033  -5.7797  -5.7797  -5.7797  -5.7797
    -5.7771  -5.7770  -5.7770  -5.7770  -5.6812  -5.6812  -5.6812  -5.6812
     0.0561   0.0561   0.0561   0.0561   0.2895   0.2895   0.2895   0.2895
     0.3392   0.3392   0.3392   0.3393   0.5052   0.5052   0.5052   0.5052
     0.5345   0.5345   0.5345   0.5345   0.6468   0.6468   0.6468   0.6469
     6.2605   6.2605   6.2605   6.2605   6.8943   6.8943   6.8943   6.8943
     6.9116   6.9116   6.9116   6.9116   7.3039   7.3040   7.3040   7.3040
     7.3169   7.3169   7.3169   7.3169   7.3705   7.3705   7.3705   7.3705
     7.6964   7.6964   7.6964   7.6965   7.8495   7.8495   7.8495   7.8495
     7.9075   7.9075   7.9075   7.9076   8.2219   8.2219   8.2219   8.2219
     8.2426   8.2426   8.2426   8.2426   8.5217   8.5217   8.5217   8.5217
     9.2568   9.2568   9.2568   9.2568   9.4842   9.4842   9.4842   9.4842
     9.5184   9.5184   9.5184   9.5185   9.6888   9.6888   9.6888   9.6888
     9.7772   9.7772   9.7772   9.7772   9.8992   9.8992   9.8992   9.8992
    13.1237  13.1237  13.1237  13.1237  13.3432  13.3432  13.3432  13.3432
    13.5387  13.5387  13.5387  13.5387  13.7331  13.7331  13.7331  13.7331
    14.1476  14.1476  14.1476  14.1476  14.1826  14.1826  14.1826  14.1826
    15.0683  15.0683  15.0683  15.0683  16.3616  16.3616  16.3616  16.3616
    16.4429  16.4430  16.4430  16.4430  17.1351  17.1351  17.1352  17.3267

          k =-0.5000-0.5000 0.2473 ( 27236 PWs)   bands (ev):

   -46.1112 -46.1112 -46.1112 -46.1112 -46.1105 -46.1105 -46.1105 -46.1105
   -22.4373 -22.4373 -22.4373 -22.4373 -22.4041 -22.4041 -22.4041 -22.4041
   -22.3650 -22.3650 -22.3650 -22.3650 -22.3643 -22.3643 -22.3643 -22.3643
   -22.3633 -22.3633 -22.3633 -22.3633 -22.3628 -22.3628 -22.3628 -22.3628
   -14.3374 -14.3374 -14.3373 -14.3373 -14.2820 -14.2820 -14.2820 -14.2820
    -6.4675  -6.4675  -6.4675  -6.4675  -6.2225  -6.2224  -6.2224  -6.2224
    -5.8234  -5.8234  -5.8234  -5.8234  -5.7943  -5.7942  -5.7942  -5.7942
    -5.7657  -5.7657  -5.7657  -5.7657  -5.6961  -5.6961  -5.6961  -5.6961
     0.0978   0.0978   0.0978   0.0978   0.2238   0.2238   0.2238   0.2238
     0.2980   0.2980   0.2980   0.2980   0.3660   0.3660   0.3660   0.3660
     0.6317   0.6317   0.6317   0.6317   0.7642   0.7642   0.7642   0.7642
     6.4379   6.4379   6.4379   6.4379   6.8111   6.8111   6.8111   6.8111
     6.9226   6.9226   6.9226   6.9226   7.3101   7.3102   7.3102   7.3102
     7.3586   7.3586   7.3586   7.3586   7.4812   7.4812   7.4812   7.4812
     7.5479   7.5479   7.5479   7.5479   7.9227   7.9228   7.9228   7.9228
     7.9231   7.9231   7.9231   7.9231   8.1344   8.1344   8.1344   8.1344
     8.1346   8.1346   8.1346   8.1346   8.3446   8.3446   8.3446   8.3446
     9.4076   9.4076   9.4076   9.4076   9.4431   9.4431   9.4431   9.4431
     9.5513   9.5513   9.5513   9.5513   9.6786   9.6786   9.6786   9.6786
     9.7801   9.7801   9.7801   9.7801   9.8499   9.8499   9.8499   9.8499
    13.2777  13.2777  13.2777  13.2777  13.4242  13.4242  13.4242  13.4242
    13.5731  13.5731  13.5731  13.5731  13.7024  13.7024  13.7024  13.7025
    13.9880  13.9880  13.9880  13.9880  14.0276  14.0276  14.0276  14.0276
    15.4992  15.4992  15.4992  15.4992  16.3797  16.3797  16.3797  16.3797
    16.4354  16.4355  16.4355  16.4355  17.0881  17.0881  17.0881  17.0882

          k =-0.5000-0.5000-0.4946 ( 27256 PWs)   bands (ev):

   -46.1109 -46.1109 -46.1109 -46.1109 -46.1109 -46.1109 -46.1109 -46.1109
   -22.4207 -22.4207 -22.4207 -22.4207 -22.4207 -22.4207 -22.4207 -22.4207
   -22.3642 -22.3642 -22.3642 -22.3642 -22.3641 -22.3641 -22.3641 -22.3641
   -22.3636 -22.3636 -22.3636 -22.3636 -22.3635 -22.3635 -22.3635 -22.3635
   -14.3099 -14.3099 -14.3099 -14.3099 -14.3099 -14.3098 -14.3098 -14.3098
    -6.3306  -6.3306  -6.3306  -6.3306  -6.3305  -6.3305  -6.3305  -6.3305
    -5.8259  -5.8259  -5.8259  -5.8259  -5.8258  -5.8258  -5.8258  -5.8258
    -5.7314  -5.7314  -5.7314  -5.7314  -5.7313  -5.7312  -5.7312  -5.7312
     0.1981   0.1981   0.1982   0.1982   0.1982   0.1982   0.1982   0.1982
     0.2270   0.2270   0.2270   0.2270   0.2271   0.2271   0.2271   0.2271
     0.7706   0.7706   0.7706   0.7707   0.7707   0.7707   0.7707   0.7707
     6.6561   6.6561   6.6561   6.6561   6.6562   6.6562   6.6562   6.6562
     7.2417   7.2417   7.2417   7.2418   7.2419   7.2419   7.2419   7.2419
     7.3314   7.3314   7.3314   7.3314   7.3315   7.3315   7.3315   7.3315
     7.8479   7.8480   7.8480   7.8480   7.8480   7.8480   7.8480   7.8480
     7.9853   7.9853   7.9853   7.9853   7.9853   7.9854   7.9854   7.9854
     7.9908   7.9909   7.9909   7.9909   7.9909   7.9909   7.9909   7.9909
     9.5771   9.5771   9.5771   9.5771   9.5772   9.5772   9.5772   9.5772
     9.5824   9.5824   9.5824   9.5824   9.5824   9.5824   9.5824   9.5825
     9.7730   9.7730   9.7730   9.7730   9.7731   9.7731   9.7732   9.7732
    13.5934  13.5934  13.5934  13.5934  13.5934  13.5934  13.5934  13.5934
    13.6668  13.6668  13.6668  13.6668  13.6668  13.6668  13.6668  13.6668
    13.6967  13.6967  13.6967  13.6967  13.6967  13.6967  13.6967  13.6967
    16.3808  16.3808  16.3808  16.3808  16.3809  16.3809  16.3809  16.3809
    16.4124  16.4124  16.4124  16.4124  16.4124  16.4125  16.4125  16.4125

     highest occupied, lowest unoccupied level (ev):    10.4084   12.2307

!    total energy              =   -5964.60371538 Ry
     total all-electron energy =   -147449.057288 Ry
     estimated scf accuracy    <          3.8E-11 Ry

     The total energy is the sum of the following terms:
     one-electron contribution =    -550.43487965 Ry
     hartree contribution      =     483.85695114 Ry
     xc contribution           =    -491.50430438 Ry
     ewald contribution        =   -1653.96634398 Ry
     one-center paw contrib.   =   -3752.55513851 Ry

     convergence has been achieved in   4 iterations

     Forces acting on atoms (cartesian axes, Ry/au):

     atom    1 type  1   force =     0.00000000    0.00000000   -0.00095871
     atom    2 type  1   force =     0.00000000    0.00000000   -0.00092767
     atom    3 type  1   force =     0.00000000    0.00000000   -0.00094763
     atom    4 type  1   force =     0.00000000    0.00000000   -0.00093369
     atom    5 type  1   force =     0.00000000    0.00000000   -0.00094763
     atom    6 type  1   force =     0.00000000    0.00000000   -0.00093369
     atom    7 type  1   force =     0.00000000    0.00000000   -0.00096324
     atom    8 type  1   force =     0.00000000    0.00000000   -0.00092516
     atom    9 type  2   force =    -0.00000081   -0.00000081    0.00015800
     atom   10 type  2   force =    -0.00000134   -0.00000134    0.00016683
     atom   11 type  2   force =    -0.00000081    0.00000081    0.00015800
     atom   12 type  2   force =    -0.00000134    0.00000134    0.00016683
     atom   13 type  2   force =     0.00000081   -0.00000081    0.00015800
     atom   14 type  2   force =     0.00000134   -0.00000134    0.00016683
     atom   15 type  2   force =     0.00000081    0.00000081    0.00015800
     atom   16 type  2   force =     0.00000134    0.00000134    0.00016683
     atom   17 type  3   force =    -0.00000142   -0.00000142   -0.00004640
     atom   18 type  3   force =    -0.00000237   -0.00000237   -0.00003705
     atom   19 type  3   force =    -0.00000142    0.00000142   -0.00004640
     atom   20 type  3   force =    -0.00000237    0.00000237   -0.00003705
     atom   21 type  3   force =     0.00000142   -0.00000142   -0.00004640
     atom   22 type  3   force =     0.00000237   -0.00000237   -0.00003705
     atom   23 type  3   force =     0.00000142    0.00000142   -0.00004640
     atom   24 type  3   force =     0.00000237    0.00000237   -0.00003705
     atom   25 type  3   force =    -0.00000192    0.00000000    0.00040493
     atom   26 type  3   force =    -0.00000559    0.00000000    0.00040962
     atom   27 type  3   force =     0.00000068    0.00000000    0.00040944
     atom   28 type  3   force =     0.00000306    0.00000000    0.00041899
     atom   29 type  3   force =     0.00000192    0.00000000    0.00040493
     atom   30 type  3   force =     0.00000559    0.00000000    0.00040962
     atom   31 type  3   force =    -0.00000068    0.00000000    0.00040944
     atom   32 type  3   force =    -0.00000306    0.00000000    0.00041899
     atom   33 type  3   force =     0.00000000   -0.00000192    0.00040493
     atom   34 type  3   force =     0.00000000   -0.00000559    0.00040962
     atom   35 type  3   force =     0.00000000    0.00000192    0.00040493
     atom   36 type  3   force =     0.00000000    0.00000559    0.00040962
     atom   37 type  3   force =     0.00000000    0.00000068    0.00040944
     atom   38 type  3   force =     0.00000000    0.00000306    0.00041899
     atom   39 type  3   force =     0.00000000   -0.00000068    0.00040944
     atom   40 type  3   force =     0.00000000   -0.00000306    0.00041899

     Total force =     0.003167     Total SCF correction =     0.000005


     Computing stress (Cartesian axis) and pressure

          total   stress  (Ry/bohr**3)                   (kbar)     P=       38.94
   0.00023514   0.00000000   0.00000000           34.59        0.00        0.00
   0.00000000   0.00023514   0.00000000            0.00       34.59        0.00
   0.00000000   0.00000000   0.00032386            0.00        0.00       47.64


     Writing all to output data dir ./tmp/60_ecut_4_kmesh_PBE.save/ :
     XML data file, charge density, pseudopotentials, collected wavefunctions

     init_run     :      1.47s CPU      2.61s WALL (       1 calls)
     electrons    :      8.71s CPU      9.09s WALL (       1 calls)
     forces       :      0.40s CPU      0.43s WALL (       1 calls)
     stress       :      0.92s CPU      0.95s WALL (       1 calls)

     Called by init_run:
     wfcinit      :      0.44s CPU      1.37s WALL (       1 calls)
     potinit      :      0.46s CPU      0.55s WALL (       1 calls)
     hinit0       :      0.41s CPU      0.50s WALL (       1 calls)

     Called by electrons:
     c_bands      :      7.21s CPU      7.45s WALL (       5 calls)
     sum_band     :      0.90s CPU      0.94s WALL (       5 calls)
     v_of_rho     :      0.10s CPU      0.13s WALL (       5 calls)
     newd         :      0.09s CPU      0.09s WALL (       5 calls)
     PAW_pot      :      0.21s CPU      0.23s WALL (       5 calls)
     mix_rho      :      0.01s CPU      0.01s WALL (       5 calls)

     Called by c_bands:
     init_us_2    :      0.16s CPU      0.17s WALL (      36 calls)
     cegterg      :      6.20s CPU      6.42s WALL (      15 calls)

     Called by *egterg:
     cdiaghg      :      1.04s CPU      1.12s WALL (      57 calls)
     h_psi        :      3.16s CPU      3.24s WALL (      63 calls)
     s_psi        :      0.45s CPU      0.45s WALL (      63 calls)
     g_psi        :      0.00s CPU      0.01s WALL (      48 calls)

     Called by h_psi:
     h_psi:calbec :      0.57s CPU      0.60s WALL (      63 calls)
     vloc_psi     :      2.12s CPU      2.15s WALL (      63 calls)
                                        0.00s GPU  (      63 calls)
     add_vuspsi   :      0.45s CPU      0.45s WALL (      63 calls)

     General routines
     calbec       :      1.58s CPU      1.65s WALL (     129 calls)
     fft          :      0.44s CPU      0.50s WALL (      89 calls)
     ffts         :      0.12s CPU      0.12s WALL (      10 calls)
     fftw         :      2.42s CPU      2.46s WALL (   17594 calls)
     interpolate  :      0.13s CPU      0.13s WALL (       5 calls)

     Parallel routines

     PWSCF        :     12.72s CPU     15.68s WALL


   This run was terminated on:   0:14:34  21May2026            

=------------------------------------------------------------------------------=
   JOB DONE.
=------------------------------------------------------------------------------=
