
     Program PWSCF v.7.5 starts on 21May2026 at  0:14:18 

     This program is part of the open-source Quantum ESPRESSO suite
     for quantum simulation of materials; please cite
         "P. Giannozzi et al., J. Phys.:Condens. Matter 21 395502 (2009);
         "P. Giannozzi et al., J. Phys.:Condens. Matter 29 465901 (2017);
         "P. Giannozzi et al., J. Chem. Phys. 152 154105 (2020);
          URL http://www.quantum-espresso.org", 
     in publications or presentations arising from this work. More details at
     http://www.quantum-espresso.org/quote

     Parallel version (MPI & OpenMP), running on     192 processor cores
     Number of MPI processes:               192
     Threads/MPI process:                     1

     MPI processes distributed on     1 nodes
     614416 MiB available memory on the printing compute node when the environment starts

     Waiting for input...
     Reading input from standard input

     Current dimensions of program PWSCF are:
     Max number of different atomic species (ntypx) = 10
     Max number of k-points (npk) =  40000
     Max angular momentum in pseudopotentials (lmaxx) =  4
     file Ba.pbe-spn-kjpaw_psl.1.0.0.UPF: wavefunction(s)  5S 6S renormalized
     file Ti.pbe-spn-kjpaw_psl.1.0.0.UPF: wavefunction(s)  3S 3P 3D renormalized
     file O.pbe-n-kjpaw_psl.1.0.0.UPF: wavefunction(s)  2S 2P renormalized

     IMPORTANT: XC functional enforced from input :
     Exchange-correlation= PBE
                           (   1   4   3   4   0   0   0)
     Any further DFT definition will be discarded
     Please, verify this is what you really want

     Found identity + ( -0.5000 -0.5000  0.0000) symmetry
     This is a supercell, fractional translations are disabled

     K-points division:     npool     =       8
     R & G space division:  proc/nbgrp/npool/nimage =      24
     Subspace diagonalization in iterative solution of the eigenvalue problem:
     one sub-group per band group will be used
     ELPA distributed-memory algorithm (size of sub-group:  2*  2 procs)


     Parallelization info
     --------------------
     sticks:   dense  smooth     PW     G-vecs:    dense   smooth      PW
     Min         362     181     50                25696     9081    1304
     Max         363     182     51                25701     9084    1307
     Sum        8693    4349   1201               616735   217983   31311

     Using Slab Decomposition



     bravais-lattice index     =            6
     lattice parameter (alat)  =      15.0876  a.u.
     unit-cell volume          =    3472.3239 (a.u.)^3
     number of atoms/cell      =           40
     number of atomic types    =            3
     number of electrons       =       320.00
     number of Kohn-Sham states=          200
     kinetic-energy cutoff     =      60.0000  Ry
     charge density cutoff     =     480.0000  Ry
     scf convergence threshold =      1.0E-10
     mixing beta               =       0.3000
     number of iterations used =           16  plain     mixing
     Exchange-correlation= PBE
                           (   1   4   3   4   0   0   0)

     celldm(1)=  15.087600  celldm(2)=   0.000000  celldm(3)=   1.011020
     celldm(4)=   0.000000  celldm(5)=   0.000000  celldm(6)=   0.000000

     crystal axes: (cart. coord. in units of alat)
               a(1) = (   1.000000   0.000000   0.000000 )  
               a(2) = (   0.000000   1.000000   0.000000 )  
               a(3) = (   0.000000   0.000000   1.011020 )  

     reciprocal axes: (cart. coord. in units 2 pi/alat)
               b(1) = (  1.000000  0.000000  0.000000 )  
               b(2) = (  0.000000  1.000000  0.000000 )  
               b(3) = (  0.000000  0.000000  0.989100 )  


     PseudoPot. # 1 for Ba read from file:
     /home/kylay/scratch/BTO/pseuds/Ba.pbe-spn-kjpaw_psl.1.0.0.UPF
     MD5 check sum: 7cfe25f1fe7574a4710541d5a11d6531
     Pseudo is Projector augmented-wave + core cor, Zval = 10.0
     Generated using &quot;atomic&quot; code by A. Dal Corso  v.6.2.2
     Shape of augmentation charge: PSQ
     Using radial grid of 1251 points,  7 beta functions with: 
                l(1) =   0
                l(2) =   0
                l(3) =   0
                l(4) =   1
                l(5) =   1
                l(6) =   2
                l(7) =   2
     Q(r) pseudized with 0 coefficients 


     PseudoPot. # 2 for Ti read from file:
     /home/kylay/scratch/BTO/pseuds/Ti.pbe-spn-kjpaw_psl.1.0.0.UPF
     MD5 check sum: 01f69b0d8ba4438b2e03ac6ea4af1c0b
     Pseudo is Projector augmented-wave + core cor, Zval = 12.0
     Generated using &quot;atomic&quot; code by A. Dal Corso  v.6.2.2
     Shape of augmentation charge: PSQ
     Using radial grid of 1177 points,  6 beta functions with: 
                l(1) =   0
                l(2) =   0
                l(3) =   1
                l(4) =   1
                l(5) =   2
                l(6) =   2
     Q(r) pseudized with 0 coefficients 


     PseudoPot. # 3 for O  read from file:
     /home/kylay/scratch/BTO/pseuds/O.pbe-n-kjpaw_psl.1.0.0.UPF
     MD5 check sum: e99d9cef9b487d1ca56f5b95ecd0fd7a
     Pseudo is Projector augmented-wave + core cor, Zval =  6.0
     Generated using &quot;atomic&quot; code by A. Dal Corso  v.6.3
     Shape of augmentation charge: PSQ
     Using radial grid of 1095 points,  4 beta functions with: 
                l(1) =   0
                l(2) =   0
                l(3) =   1
                l(4) =   1
     Q(r) pseudized with 0 coefficients 


     atomic species   valence    mass     pseudopotential
     Ba               10.00   137.32700     Ba( 1.00)
     Ti               12.00    47.86700     Ti( 1.00)
     O                 6.00    15.99900     O ( 1.00)

      8 Sym. Ops. (no inversion) found



   Cartesian axes

     site n.     atom                  positions (alat units)
         1        Ba     tau(   1) = (   0.0000000   0.0000000  -0.0010787  )
         2        Ba     tau(   2) = (   0.0000000   0.0000000   0.5044220  )
         3        Ba     tau(   3) = (   0.0000000   0.5000000  -0.0010832  )
         4        Ba     tau(   4) = (   0.0000000   0.5000000   0.5044235  )
         5        Ba     tau(   5) = (   0.5000000   0.0000000  -0.0010832  )
         6        Ba     tau(   6) = (   0.5000000   0.0000000   0.5044235  )
         7        Ba     tau(   7) = (   0.5000000   0.5000000  -0.0010766  )
         8        Ba     tau(   8) = (   0.5000000   0.5000000   0.5044202  )
         9        Ti     tau(   9) = (   0.2500002   0.2500002   0.2436990  )
        10        Ti     tau(  10) = (   0.2500007   0.2500007   0.7492042  )
        11        Ti     tau(  11) = (   0.2500002   0.7499998   0.2436990  )
        12        Ti     tau(  12) = (   0.2500007   0.7499993   0.7492042  )
        13        Ti     tau(  13) = (   0.7499998   0.2500002   0.2436990  )
        14        Ti     tau(  14) = (   0.7499993   0.2500007   0.7492042  )
        15        Ti     tau(  15) = (   0.7499998   0.7499998   0.2436990  )
        16        Ti     tau(  16) = (   0.7499993   0.7499993   0.7492042  )
        17        O      tau(  17) = (   0.2500011   0.2500011   0.0113903  )
        18        O      tau(  18) = (   0.2500007   0.2500007   0.5168954  )
        19        O      tau(  19) = (   0.2500011   0.7499989   0.0113903  )
        20        O      tau(  20) = (   0.2500007   0.7499993   0.5168954  )
        21        O      tau(  21) = (   0.7499989   0.2500011   0.0113903  )
        22        O      tau(  22) = (   0.7499993   0.2500007   0.5168954  )
        23        O      tau(  23) = (   0.7499989   0.7499989   0.0113903  )
        24        O      tau(  24) = (   0.7499993   0.7499993   0.5168954  )
        25        O      tau(  25) = (   0.2500005   0.0000000   0.2592128  )
        26        O      tau(  26) = (   0.2500020   0.0000000   0.7647195  )
        27        O      tau(  27) = (   0.2499999   0.5000000   0.2592107  )
        28        O      tau(  28) = (   0.2499998   0.5000000   0.7647148  )
        29        O      tau(  29) = (   0.7499995   0.0000000   0.2592128  )
        30        O      tau(  30) = (   0.7499980   0.0000000   0.7647195  )
        31        O      tau(  31) = (   0.7500001   0.5000000   0.2592107  )
        32        O      tau(  32) = (   0.7500002   0.5000000   0.7647148  )
        33        O      tau(  33) = (   0.0000000   0.2500005   0.2592128  )
        34        O      tau(  34) = (   0.0000000   0.2500020   0.7647195  )
        35        O      tau(  35) = (   0.0000000   0.7499995   0.2592128  )
        36        O      tau(  36) = (   0.0000000   0.7499980   0.7647195  )
        37        O      tau(  37) = (   0.5000000   0.2499999   0.2592107  )
        38        O      tau(  38) = (   0.5000000   0.2499998   0.7647148  )
        39        O      tau(  39) = (   0.5000000   0.7500001   0.2592107  )
        40        O      tau(  40) = (   0.5000000   0.7500002   0.7647148  )

     number of k points=    75
                       cart. coord. in units 2pi/alat
        k(    1) = (   0.0000000   0.0000000   0.0000000), wk =   0.0039062
        k(    2) = (   0.0000000   0.0000000   0.1236375), wk =   0.0078125
        k(    3) = (   0.0000000   0.0000000   0.2472750), wk =   0.0078125
        k(    4) = (   0.0000000   0.0000000   0.3709125), wk =   0.0078125
        k(    5) = (   0.0000000   0.0000000  -0.4945501), wk =   0.0039062
        k(    6) = (   0.0000000   0.1250000   0.0000000), wk =   0.0156250
        k(    7) = (   0.0000000   0.1250000   0.1236375), wk =   0.0312500
        k(    8) = (   0.0000000   0.1250000   0.2472750), wk =   0.0312500
        k(    9) = (   0.0000000   0.1250000   0.3709125), wk =   0.0312500
        k(   10) = (   0.0000000   0.1250000  -0.4945501), wk =   0.0156250
        k(   11) = (   0.0000000   0.2500000   0.0000000), wk =   0.0156250
        k(   12) = (   0.0000000   0.2500000   0.1236375), wk =   0.0312500
        k(   13) = (   0.0000000   0.2500000   0.2472750), wk =   0.0312500
        k(   14) = (   0.0000000   0.2500000   0.3709125), wk =   0.0312500
        k(   15) = (   0.0000000   0.2500000  -0.4945501), wk =   0.0156250
        k(   16) = (   0.0000000   0.3750000   0.0000000), wk =   0.0156250
        k(   17) = (   0.0000000   0.3750000   0.1236375), wk =   0.0312500
        k(   18) = (   0.0000000   0.3750000   0.2472750), wk =   0.0312500
        k(   19) = (   0.0000000   0.3750000   0.3709125), wk =   0.0312500
        k(   20) = (   0.0000000   0.3750000  -0.4945501), wk =   0.0156250
        k(   21) = (   0.0000000  -0.5000000   0.0000000), wk =   0.0078125
        k(   22) = (   0.0000000  -0.5000000   0.1236375), wk =   0.0156250
        k(   23) = (   0.0000000  -0.5000000   0.2472750), wk =   0.0156250
        k(   24) = (   0.0000000  -0.5000000   0.3709125), wk =   0.0156250
        k(   25) = (   0.0000000  -0.5000000  -0.4945501), wk =   0.0078125
        k(   26) = (   0.1250000   0.1250000   0.0000000), wk =   0.0156250
        k(   27) = (   0.1250000   0.1250000   0.1236375), wk =   0.0312500
        k(   28) = (   0.1250000   0.1250000   0.2472750), wk =   0.0312500
        k(   29) = (   0.1250000   0.1250000   0.3709125), wk =   0.0312500
        k(   30) = (   0.1250000   0.1250000  -0.4945501), wk =   0.0156250
        k(   31) = (   0.1250000   0.2500000   0.0000000), wk =   0.0312500
        k(   32) = (   0.1250000   0.2500000   0.1236375), wk =   0.0625000
        k(   33) = (   0.1250000   0.2500000   0.2472750), wk =   0.0625000
        k(   34) = (   0.1250000   0.2500000   0.3709125), wk =   0.0625000
        k(   35) = (   0.1250000   0.2500000  -0.4945501), wk =   0.0312500
        k(   36) = (   0.1250000   0.3750000   0.0000000), wk =   0.0312500
        k(   37) = (   0.1250000   0.3750000   0.1236375), wk =   0.0625000
        k(   38) = (   0.1250000   0.3750000   0.2472750), wk =   0.0625000
        k(   39) = (   0.1250000   0.3750000   0.3709125), wk =   0.0625000
        k(   40) = (   0.1250000   0.3750000  -0.4945501), wk =   0.0312500
        k(   41) = (   0.1250000  -0.5000000   0.0000000), wk =   0.0156250
        k(   42) = (   0.1250000  -0.5000000   0.1236375), wk =   0.0312500
        k(   43) = (   0.1250000  -0.5000000   0.2472750), wk =   0.0312500
        k(   44) = (   0.1250000  -0.5000000   0.3709125), wk =   0.0312500
        k(   45) = (   0.1250000  -0.5000000  -0.4945501), wk =   0.0156250
        k(   46) = (   0.2500000   0.2500000   0.0000000), wk =   0.0156250
        k(   47) = (   0.2500000   0.2500000   0.1236375), wk =   0.0312500
        k(   48) = (   0.2500000   0.2500000   0.2472750), wk =   0.0312500
        k(   49) = (   0.2500000   0.2500000   0.3709125), wk =   0.0312500
        k(   50) = (   0.2500000   0.2500000  -0.4945501), wk =   0.0156250
        k(   51) = (   0.2500000   0.3750000   0.0000000), wk =   0.0312500
        k(   52) = (   0.2500000   0.3750000   0.1236375), wk =   0.0625000
        k(   53) = (   0.2500000   0.3750000   0.2472750), wk =   0.0625000
        k(   54) = (   0.2500000   0.3750000   0.3709125), wk =   0.0625000
        k(   55) = (   0.2500000   0.3750000  -0.4945501), wk =   0.0312500
        k(   56) = (   0.2500000  -0.5000000   0.0000000), wk =   0.0156250
        k(   57) = (   0.2500000  -0.5000000   0.1236375), wk =   0.0312500
        k(   58) = (   0.2500000  -0.5000000   0.2472750), wk =   0.0312500
        k(   59) = (   0.2500000  -0.5000000   0.3709125), wk =   0.0312500
        k(   60) = (   0.2500000  -0.5000000  -0.4945501), wk =   0.0156250
        k(   61) = (   0.3750000   0.3750000   0.0000000), wk =   0.0156250
        k(   62) = (   0.3750000   0.3750000   0.1236375), wk =   0.0312500
        k(   63) = (   0.3750000   0.3750000   0.2472750), wk =   0.0312500
        k(   64) = (   0.3750000   0.3750000   0.3709125), wk =   0.0312500
        k(   65) = (   0.3750000   0.3750000  -0.4945501), wk =   0.0156250
        k(   66) = (   0.3750000  -0.5000000   0.0000000), wk =   0.0156250
        k(   67) = (   0.3750000  -0.5000000   0.1236375), wk =   0.0312500
        k(   68) = (   0.3750000  -0.5000000   0.2472750), wk =   0.0312500
        k(   69) = (   0.3750000  -0.5000000   0.3709125), wk =   0.0312500
        k(   70) = (   0.3750000  -0.5000000  -0.4945501), wk =   0.0156250
        k(   71) = (  -0.5000000  -0.5000000   0.0000000), wk =   0.0039062
        k(   72) = (  -0.5000000  -0.5000000   0.1236375), wk =   0.0078125
        k(   73) = (  -0.5000000  -0.5000000   0.2472750), wk =   0.0078125
        k(   74) = (  -0.5000000  -0.5000000   0.3709125), wk =   0.0078125
        k(   75) = (  -0.5000000  -0.5000000  -0.4945501), wk =   0.0039062

     Dense  grid:   616735 G-vectors     FFT dimensions: ( 108, 108, 108)

     Smooth grid:   217983 G-vectors     FFT dimensions: (  75,  75,  75)

     Estimated max dynamical RAM per process >     100.09 MB

     Estimated total dynamical RAM >      16.71 GB

     Check: negative core charge=   -0.000002

     The initial density is read from file :
     ./tmp/60_ecut_8_kmesh_PBE.save/charge-density

     Starting wfcs from file
     Checking if some PAW data can be deallocated... 

     total cpu time spent up to now is        6.2 secs

     per-process dynamical memory:   150.6 Mb

     Self-consistent Calculation

     iteration #  1     ecut=    60.00 Ry     beta= 0.30
     Davidson diagonalization with overlap
     ethr =  1.00E-05,  avg # of iterations =  1.0

     Threshold (ethr) on eigenvalues was too large:
     Diagonalizing with lowered threshold

     Davidson diagonalization with overlap
     ethr =  4.08E-12,  avg # of iterations =  4.9

     total cpu time spent up to now is       16.1 secs

     total energy              =   -5964.60370333 Ry
     estimated scf accuracy    <       0.00000002 Ry

     iteration #  2     ecut=    60.00 Ry     beta= 0.30
     Davidson diagonalization with overlap
     c_bands:  1 eigenvalues not converged
     ethr =  5.37E-12,  avg # of iterations =  2.2

     total cpu time spent up to now is       21.0 secs

     total energy              =   -5964.60370333 Ry
     estimated scf accuracy    <          3.3E-09 Ry

     iteration #  3     ecut=    60.00 Ry     beta= 0.30
     Davidson diagonalization with overlap
     ethr =  1.03E-12,  avg # of iterations =  5.0

     total cpu time spent up to now is       27.2 secs

     total energy              =   -5964.60370333 Ry
     estimated scf accuracy    <          2.6E-10 Ry

     iteration #  4     ecut=    60.00 Ry     beta= 0.30
     Davidson diagonalization with overlap
     ethr =  1.00E-13,  avg # of iterations =  5.3

     total cpu time spent up to now is       34.1 secs

     total energy              =   -5964.60370333 Ry
     estimated scf accuracy    <          1.3E-10 Ry

     iteration #  5     ecut=    60.00 Ry     beta= 0.30
     Davidson diagonalization with overlap
     ethr =  1.00E-13,  avg # of iterations =  1.4

     total cpu time spent up to now is       38.6 secs

     total energy              =   -5964.60370333 Ry
     estimated scf accuracy    <          1.0E-10 Ry

     iteration #  6     ecut=    60.00 Ry     beta= 0.30
     Davidson diagonalization with overlap
     ethr =  1.00E-13,  avg # of iterations =  1.1

     total cpu time spent up to now is       42.8 secs

     End of self-consistent calculation

          k = 0.0000 0.0000 0.0000 ( 27305 PWs)   bands (ev):

   -46.1123 -46.1114 -46.1113 -46.1113 -46.1104 -46.1104 -46.1102 -46.1094
   -22.4474 -22.4439 -22.4439 -22.4413 -22.3992 -22.3971 -22.3971 -22.3950
   -22.3934 -22.3934 -22.3901 -22.3901 -22.3899 -22.3899 -22.3875 -22.3875
   -22.3392 -22.3392 -22.3373 -22.3373 -22.3371 -22.3371 -22.3354 -22.3353
   -14.4575 -14.3460 -14.3365 -14.3365 -14.2671 -14.2670 -14.2591 -14.1986
    -6.7748  -6.7748  -6.7224  -6.5321  -6.2538  -6.1408  -6.1408  -5.9064
    -5.9064  -5.9055  -5.8449  -5.8449  -5.8110  -5.7788  -5.7471  -5.7471
    -5.7441  -5.7441  -5.7357  -5.6698  -5.5764  -5.5764  -5.5148  -5.5147
    -0.3536  -0.3536  -0.2915   0.2992   0.2992   0.3153   0.3153   0.3654
     0.3709   0.3709   0.3749   0.3749   0.5281   0.5281   0.5329   0.5330
     0.5498   0.5498   0.7386   0.7428   0.7428   0.7629   0.7629   0.8067
     5.9196   6.0778   6.1027   6.1027   6.2954   6.2954   6.3342   6.3500
     6.4070   6.4070   6.5594   6.5594   6.5598   6.5816   6.5974   7.5261
     7.5261   7.5772   7.5772   7.6245   7.6245   7.6256   7.6256   7.6393
     7.6393   7.7384   7.7384   7.9239   7.9239   7.9535   8.0512   8.0859
     8.0859   8.0913   8.0913   8.3856   8.3856   8.4545   8.4581   8.4703
     8.4703   8.5510   8.5510   8.6151   8.6908   8.6909   8.7154   8.7154
     9.0502   9.0502   9.2288   9.3435   9.3435   9.3766   9.3766   9.4733
     9.4733   9.4819   9.4819   9.5004   9.5004   9.7146   9.7146   9.9949
    10.0596  10.0596  10.1764  10.1764  10.2466  10.2466  10.3379  10.4085
    12.2307  12.3769  12.5489  12.5489  12.6652  12.6652  13.9460  13.9460
    13.9745  13.9745  14.0021  14.0021  14.0082  14.0082  14.0228  14.0228
    14.0248  14.0248  14.3660  14.3661  14.3951  14.4643  14.4646  14.5513
    14.5513  14.6116  14.6116  14.6167  14.6198  15.1000  15.3002  15.3002
    15.3439  15.4903  16.2958  16.2958  16.4926  16.8978  17.1086  17.3385

          k = 0.0000 0.0000 0.1236 ( 27265 PWs)   bands (ev):

   -46.1123 -46.1115 -46.1113 -46.1113 -46.1104 -46.1104 -46.1102 -46.1094
   -22.4456 -22.4421 -22.4421 -22.4395 -22.4011 -22.3989 -22.3989 -22.3968
   -22.3932 -22.3932 -22.3902 -22.3902 -22.3898 -22.3898 -22.3876 -22.3876
   -22.3392 -22.3392 -22.3374 -22.3374 -22.3371 -22.3371 -22.3354 -22.3354
   -14.4534 -14.3503 -14.3339 -14.3339 -14.2697 -14.2697 -14.2568 -14.2009
    -6.7560  -6.7560  -6.7099  -6.5305  -6.2353  -6.1816  -6.1816  -5.9071
    -5.8883  -5.8883  -5.8428  -5.8428  -5.8098  -5.7801  -5.7568  -5.7382
    -5.7382  -5.7381  -5.7381  -5.6859  -5.5832  -5.5832  -5.5235  -5.5235
    -0.3301  -0.3301  -0.2589   0.2728   0.2728   0.3307   0.3307   0.3756
     0.3756   0.3805   0.3805   0.3825   0.5220   0.5220   0.5251   0.5251
     0.5567   0.5567   0.6901   0.7350   0.7350   0.7442   0.7442   0.7901
     5.9463   6.0786   6.1361   6.1361   6.3356   6.3356   6.3951   6.3999
     6.3999   6.4199   6.5821   6.5900   6.5900   6.5968   6.6025   7.5289
     7.5289   7.5759   7.5759   7.6143   7.6143   7.6485   7.6485   7.6596
     7.6596   7.7675   7.7675   7.8969   7.8969   7.8988   7.9206   7.9206
     7.9813   8.0750   8.0750   8.3988   8.3988   8.4796   8.5013   8.5043
     8.5053   8.5054   8.5178   8.5178   8.7094   8.7094   8.9076   8.9076
     9.0067   9.0067   9.1935   9.3096   9.3096   9.3968   9.3968   9.4192
     9.4192   9.4456   9.4456   9.4617   9.4617   9.7263   9.7263   9.9067
    10.0459  10.0459  10.1549  10.1549  10.2008  10.2008  10.3405  10.4058
    12.2360  12.3711  12.6132  12.6132  12.7233  12.7233  13.9472  13.9472
    13.9574  13.9574  13.9736  13.9736  13.9744  13.9744  14.0044  14.0044
    14.0446  14.0446  14.3404  14.3404  14.4032  14.4642  14.4642  14.5847
    14.5847  14.6109  14.6291  14.6291  14.7210  15.2228  15.2953  15.2953
    15.4184  15.5640  16.3408  16.3408  16.4398  16.8955  17.2048  17.2485

          k = 0.0000 0.0000 0.2473 ( 27286 PWs)   bands (ev):

   -46.1122 -46.1116 -46.1112 -46.1112 -46.1105 -46.1105 -46.1101 -46.1095
   -22.4405 -22.4371 -22.4371 -22.4345 -22.4064 -22.4040 -22.4040 -22.4019
   -22.3929 -22.3929 -22.3906 -22.3906 -22.3895 -22.3895 -22.3879 -22.3879
   -22.3389 -22.3389 -22.3376 -22.3376 -22.3369 -22.3369 -22.3356 -22.3356
   -14.4416 -14.3627 -14.3265 -14.3265 -14.2774 -14.2774 -14.2503 -14.2076
    -6.7014  -6.7014  -6.6753  -6.5311  -6.2759  -6.2759  -6.1823  -5.9061
    -5.8582  -5.8582  -5.8374  -5.8374  -5.8163  -5.8063  -5.7836  -5.7299
    -5.7209  -5.7209  -5.7128  -5.7127  -5.6024  -5.6024  -5.5484  -5.5484
    -0.2626  -0.2626  -0.1638   0.1982   0.1982   0.3754   0.3754   0.3895
     0.3895   0.3965   0.3965   0.4310   0.5036   0.5036   0.5047   0.5047
     0.5577   0.5767   0.5767   0.6918   0.6918   0.7131   0.7131   0.7427
     6.0029   6.0802   6.2099   6.2099   6.3809   6.3809   6.4543   6.4543
     6.5702   6.5839   6.5951   6.6138   6.6990   6.6990   6.7471   7.5362
     7.5362   7.5555   7.5555   7.5594   7.5594   7.5719   7.5719   7.7124
     7.7124   7.7128   7.7128   7.7410   7.7842   7.8509   7.8509   7.9086
     7.9086   8.0412   8.0412   8.2080   8.4242   8.4242   8.4396   8.4396
     8.5524   8.6185   8.6186   8.6278   8.7641   8.7641   8.8940   8.8940
     9.0962   9.2187   9.2187   9.2266   9.2266   9.2855   9.2855   9.3513
     9.3514   9.3706   9.3706   9.4600   9.4600   9.6788   9.7603   9.7603
    10.0063  10.0063  10.0758  10.0758  10.0867  10.0867  10.3481  10.3980
    12.2514  12.3547  12.7901  12.7901  12.8838  12.8838  13.8118  13.8118
    13.8356  13.8356  13.9507  13.9507  13.9707  13.9707  14.0162  14.0162
    14.1020  14.1020  14.2726  14.2726  14.4267  14.4635  14.4639  14.5113
    14.5113  14.5856  14.8146  14.8146  14.9936  15.2769  15.2769  15.5506
    15.6293  15.7784  16.2845  16.4848  16.4848  16.8648  17.0284  17.4538

          k = 0.0000 0.0000 0.3709 ( 27278 PWs)   bands (ev):

   -46.1121 -46.1117 -46.1110 -46.1110 -46.1107 -46.1107 -46.1100 -46.1097
   -22.4327 -22.4295 -22.4295 -22.4271 -22.4142 -22.4116 -22.4116 -22.4094
   -22.3924 -22.3924 -22.3911 -22.3911 -22.3891 -22.3891 -22.3883 -22.3883
   -22.3386 -22.3386 -22.3379 -22.3379 -22.3366 -22.3366 -22.3359 -22.3359
   -14.4237 -14.3810 -14.3154 -14.3153 -14.2888 -14.2887 -14.2406 -14.2175
    -6.6273  -6.6164  -6.6164  -6.5452  -6.3913  -6.3913  -6.1015  -5.9036
    -5.8891  -5.8378  -5.8378  -5.8317  -5.8317  -5.8011  -5.7896  -5.7888
    -5.6947  -5.6947  -5.6748  -5.6748  -5.6306  -5.6306  -5.5858  -5.5858
    -0.1602  -0.1602  -0.0151   0.0889   0.0889   0.3728   0.4119   0.4120
     0.4207   0.4207   0.4441   0.4441   0.4735   0.4736   0.4792   0.4792
     0.5031   0.6070   0.6070   0.6154   0.6154   0.6717   0.6808   0.6808
     6.0491   6.0798   6.2759   6.2759   6.3541   6.3541   6.5864   6.5925
     6.6464   6.6464   6.8376   6.8910   6.9056   6.9056   7.0145   7.2122
     7.2122   7.4123   7.4123   7.4944   7.4987   7.5460   7.5460   7.5653
     7.5653   7.7797   7.7797   7.8031   7.8031   7.8070   7.8833   7.8833
     7.9776   7.9776   7.9824   7.9824   8.2874   8.2874   8.5112   8.5112
     8.6660   8.7514   8.7514   8.7891   8.7891   8.8286   8.8522   8.8522
     8.9589   9.0958   9.0958   9.1856   9.1856   9.1912   9.1912   9.2735
     9.2735   9.3854   9.5279   9.5279   9.5703   9.5703   9.8131   9.8131
     9.9039   9.9039   9.9468   9.9468   9.9633   9.9633  10.3594  10.3864
    12.2744  12.3305  13.0410  13.0410  13.1139  13.1139  13.5903  13.5903
    13.6260  13.6260  13.9555  13.9555  13.9664  13.9664  14.0474  14.0474
    14.1859  14.1859  14.1895  14.1895  14.4090  14.4090  14.4623  14.4631
    14.4635  14.5482  15.0099  15.0099  15.2347  15.2347  15.3502  15.9436
    15.9884  16.0367  16.1142  16.6967  16.7299  16.7386  16.7386  17.0076

          k = 0.0000 0.0000-0.4946 ( 27198 PWs)   bands (ev):

   -46.1119 -46.1119 -46.1108 -46.1108 -46.1108 -46.1108 -46.1098 -46.1098
   -22.4235 -22.4235 -22.4206 -22.4206 -22.4206 -22.4206 -22.4182 -22.4182
   -22.3917 -22.3917 -22.3917 -22.3917 -22.3887 -22.3887 -22.3887 -22.3887
   -22.3383 -22.3383 -22.3383 -22.3383 -22.3362 -22.3362 -22.3362 -22.3362
   -14.4025 -14.4024 -14.3022 -14.3021 -14.3021 -14.3020 -14.2291 -14.2290
    -6.5794  -6.5792  -6.5094  -6.5094  -6.5092  -6.5092  -6.0039  -6.0038
    -5.8482  -5.8481  -5.8302  -5.8302  -5.8301  -5.8301  -5.7950  -5.7949
    -5.6631  -5.6631  -5.6630  -5.6630  -5.6303  -5.6303  -5.6302  -5.6301
    -0.0371  -0.0371  -0.0370  -0.0370   0.1714   0.1715   0.4411   0.4412
     0.4412   0.4413   0.4497   0.4497   0.4497   0.4497   0.5281   0.5281
     0.5282   0.5282   0.5876   0.5877   0.6434   0.6434   0.6435   0.6435
     6.0723   6.0724   6.3208   6.3208   6.3209   6.3209   6.5895   6.5895
     6.9030   6.9030   6.9032   6.9032   7.1612   7.1614   7.1710   7.1710
     7.1712   7.1712   7.2019   7.2020   7.3855   7.3857   7.5563   7.5563
     7.5564   7.5564   7.8402   7.8402   7.8402   7.8402   7.8997   7.8997
     7.8998   7.8998   8.1303   8.1303   8.1305   8.1305   8.6166   8.6166
     8.6167   8.6167   8.8075   8.8077   8.9670   8.9670   8.9670   8.9671
     8.9883   8.9884   8.9884   8.9885   9.0890   9.0890   9.1960   9.1960
     9.1960   9.1960   9.7244   9.7244   9.7244   9.7244   9.7772   9.7772
     9.7772   9.7772   9.8785   9.8785   9.8786   9.8786  10.3728  10.3730
    12.3023  12.3023  13.3216  13.3216  13.3217  13.3217  13.3739  13.3739
    13.3740  13.3740  13.9611  13.9611  13.9612  13.9612  14.1051  14.1051
    14.1051  14.1051  14.2965  14.2965  14.2966  14.2966  14.4632  14.4632
    14.5049  14.5049  15.1517  15.1517  15.1518  15.1518  15.7149  15.7150
    16.3165  16.3167  16.4206  16.4208  16.5396  16.5398  17.0769  17.0770

          k = 0.0000 0.1250 0.0000 ( 27301 PWs)   bands (ev):

   -46.1123 -46.1114 -46.1114 -46.1113 -46.1104 -46.1104 -46.1103 -46.1094
   -22.4473 -22.4440 -22.4438 -22.4413 -22.3992 -22.3972 -22.3970 -22.3951
   -22.3932 -22.3913 -22.3900 -22.3900 -22.3881 -22.3879 -22.3877 -22.3856
   -22.3413 -22.3394 -22.3392 -22.3391 -22.3374 -22.3373 -22.3372 -22.3354
   -14.4531 -14.3430 -14.3413 -14.3336 -14.2701 -14.2645 -14.2621 -14.2013
    -6.7615  -6.7570  -6.7035  -6.5340  -6.2768  -6.1693  -6.1208  -5.9027
    -5.9002  -5.8980  -5.8464  -5.8401  -5.8095  -5.7753  -5.7458  -5.7428
    -5.7422  -5.7410  -5.7352  -5.6787  -5.5993  -5.5833  -5.5330  -5.5233
    -0.3296  -0.3221  -0.2646   0.2881   0.3065   0.3150   0.3217   0.3435
     0.3713   0.3812   0.3858   0.3901   0.5180   0.5262   0.5279   0.5357
     0.5428   0.5505   0.6914   0.7306   0.7341   0.7434   0.7484   0.7884
     5.9483   6.1028   6.1123   6.1337   6.3207   6.3284   6.3676   6.3912
     6.3985   6.4673   6.5596   6.5653   6.6100   6.6126   6.6327   7.5473
     7.5538   7.5697   7.6024   7.6033   7.6280   7.6332   7.6371   7.6466
     7.6682   7.7356   7.7551   7.8671   7.9198   7.9537   8.0115   8.0269
     8.0354   8.0493   8.0759   8.1215   8.1871   8.3515   8.4959   8.5033
     8.5571   8.5805   8.6369   8.6855   8.7219   8.7352   8.8156   8.9294
     8.9850   9.0141   9.1888   9.2101   9.3409   9.3544   9.3642   9.4325
     9.4806   9.4950   9.5013   9.5237   9.5404   9.6407   9.6594   9.8880
    10.0163  10.0712  10.1541  10.1791  10.2053  10.2432  10.3142  10.3637
    12.3154  12.4531  12.5543  12.5793  12.6599  12.6932  13.8908  13.9209
    13.9387  13.9506  13.9611  13.9937  13.9957  14.0034  14.0087  14.0222
    14.0237  14.0316  14.3356  14.3653  14.3754  14.5351  14.5555  14.5577
    14.5806  14.5862  14.6045  14.6331  14.6690  15.1093  15.2940  15.4215
    15.4291  15.5667  16.2563  16.3509  16.5390  16.9367  17.1633  17.2062

          k = 0.0000 0.1250 0.1236 ( 27298 PWs)   bands (ev):

   -46.1122 -46.1114 -46.1113 -46.1112 -46.1105 -46.1104 -46.1102 -46.1095
   -22.4455 -22.4423 -22.4420 -22.4396 -22.4010 -22.3990 -22.3988 -22.3969
   -22.3931 -22.3912 -22.3902 -22.3899 -22.3883 -22.3878 -22.3877 -22.3857
   -22.3412 -22.3395 -22.3391 -22.3391 -22.3374 -22.3373 -22.3371 -22.3355
   -14.4490 -14.3473 -14.3386 -14.3310 -14.2729 -14.2672 -14.2598 -14.2036
    -6.7431  -6.7382  -6.6915  -6.5316  -6.2583  -6.2024  -6.1625  -5.9048
    -5.8867  -5.8814  -5.8445  -5.8378  -5.8082  -5.7767  -5.7666  -5.7400
    -5.7338  -5.7326  -5.7297  -5.6945  -5.6033  -5.5894  -5.5415  -5.5314
    -0.3090  -0.3064  -0.2232   0.2785   0.2888   0.3038   0.3306   0.3462
     0.3694   0.3869   0.3957   0.4131   0.5013   0.5111   0.5172   0.5296
     0.5497   0.5737   0.6868   0.6889   0.7245   0.7264   0.7330   0.7747
     5.9764   6.1131   6.1362   6.1694   6.3614   6.3887   6.3918   6.4032
     6.4564   6.4597   6.5901   6.6003   6.6132   6.6375   6.6377   7.5490
     7.5564   7.5636   7.6020   7.6208   7.6290   7.6300   7.6509   7.6554
     7.6868   7.7648   7.7817   7.8307   7.8577   7.9179   7.9351   7.9354
     7.9495   8.0302   8.0657   8.0672   8.1812   8.3644   8.5232   8.5259
     8.5278   8.5380   8.5985   8.7403   8.8303   8.8326   8.9171   8.9236
     8.9637   8.9710   9.1461   9.2019   9.3310   9.3641   9.3737   9.3759
     9.4435   9.4676   9.4760   9.4856   9.4886   9.6546   9.6713   9.8251
    10.0017  10.0356  10.1347  10.1566  10.1602  10.1964  10.3162  10.3645
    12.3203  12.4475  12.6184  12.6388  12.7181  12.7503  13.8922  13.9187
    13.9421  13.9430  13.9526  13.9579  13.9746  13.9829  13.9832  13.9942
    14.0065  14.0430  14.3080  14.3496  14.3734  14.5456  14.5523  14.5573
    14.5710  14.5838  14.6327  14.7156  14.7632  15.2316  15.2891  15.4250
    15.4941  15.6398  16.3011  16.3906  16.4859  16.9463  17.2421  17.2984

          k = 0.0000 0.1250 0.2473 ( 27275 PWs)   bands (ev):

   -46.1122 -46.1115 -46.1112 -46.1111 -46.1106 -46.1105 -46.1102 -46.1095
   -22.4403 -22.4372 -22.4370 -22.4346 -22.4063 -22.4041 -22.4039 -22.4019
   -22.3928 -22.3908 -22.3905 -22.3896 -22.3886 -22.3880 -22.3875 -22.3859
   -22.3410 -22.3397 -22.3389 -22.3388 -22.3376 -22.3375 -22.3369 -22.3357
   -14.4373 -14.3595 -14.3310 -14.3237 -14.2807 -14.2748 -14.2533 -14.2103
    -6.6898  -6.6836  -6.6585  -6.5294  -6.2850  -6.2576  -6.2051  -5.9053
    -5.8644  -5.8510  -5.8398  -5.8321  -5.8310  -5.8045  -5.7806  -5.7377
    -5.7235  -5.7140  -5.7115  -5.7086  -5.6168  -5.6066  -5.5654  -5.5546
    -0.2564  -0.2398  -0.1182   0.2002   0.2152   0.3492   0.3536   0.3549
     0.3792   0.4030   0.4275   0.4629   0.4641   0.4917   0.4925   0.5122
     0.5668   0.5694   0.6022   0.6712   0.6813   0.6895   0.7046   0.7354
     6.0362   6.1147   6.2095   6.2494   6.3737   6.4391   6.4825   6.5093
     6.5621   6.6148   6.6241   6.6372   6.6994   6.7378   6.7515   7.5262
     7.5346   7.5353   7.5537   7.5635   7.5982   7.6056   7.6402   7.6737
     7.6938   7.6985   7.7144   7.7348   7.7579   7.8485   7.8565   7.9107
     7.9115   7.9905   8.0341   8.1563   8.1921   8.2402   8.4045   8.4279
     8.6143   8.6456   8.6507   8.7816   8.7946   8.8587   8.8861   8.8950
     9.0386   9.1529   9.1779   9.2204   9.2421   9.2567   9.3614   9.3668
     9.3897   9.3944   9.4239   9.4343   9.4354   9.6330   9.6947   9.7061
     9.9601   9.9728  10.0372  10.0724  10.0726  10.0858  10.3220  10.3613
    12.3345  12.4320  12.7946  12.8042  12.8791  12.9083  13.7982  13.8126
    13.8320  13.8455  13.8959  13.9193  13.9563  13.9582  13.9897  14.0200
    14.0447  14.0988  14.2352  14.2817  14.3967  14.4757  14.5014  14.5520
    14.5550  14.5566  14.8163  14.9140  15.0312  15.2708  15.4081  15.5595
    15.6994  15.8527  16.3297  16.4448  16.5203  16.9202  17.0710  17.5164

          k = 0.0000 0.1250 0.3709 ( 27251 PWs)   bands (ev):

   -46.1120 -46.1117 -46.1110 -46.1110 -46.1107 -46.1106 -46.1100 -46.1097
   -22.4326 -22.4296 -22.4294 -22.4272 -22.4141 -22.4117 -22.4115 -22.4095
   -22.3922 -22.3910 -22.3903 -22.3893 -22.3891 -22.3884 -22.3872 -22.3863
   -22.3407 -22.3400 -22.3386 -22.3386 -22.3379 -22.3378 -22.3366 -22.3360
   -14.4197 -14.3776 -14.3196 -14.3126 -14.2924 -14.2861 -14.2435 -14.2202
    -6.6131  -6.6072  -6.5985  -6.5393  -6.3917  -6.3732  -6.1237  -5.9222
    -5.8910  -5.8453  -5.8353  -5.8309  -5.8260  -5.7990  -5.7975  -5.7848
    -5.6985  -5.6901  -5.6795  -5.6729  -5.6401  -5.6320  -5.6007  -5.5895
    -0.1631  -0.1388   0.0317   0.0863   0.1071   0.3711   0.3846   0.3977
     0.4015   0.4192   0.4274   0.4275   0.4580   0.4635   0.4820   0.4865
     0.5294   0.5935   0.5995   0.6255   0.6280   0.6683   0.6726   0.6757
     6.0842   6.1146   6.2739   6.3227   6.3484   6.4099   6.6172   6.6229
     6.6765   6.6834   6.8265   6.8967   6.9074   6.9344   7.0113   7.2097
     7.2328   7.4107   7.4424   7.4679   7.4736   7.5604   7.5731   7.5800
     7.5918   7.6907   7.7531   7.7944   7.8042   7.8860   7.8938   7.9111
     7.9272   7.9641   7.9759   7.9784   8.1645   8.2870   8.2890   8.4753
     8.6118   8.7159   8.7302   8.7521   8.7948   8.8818   8.9224   8.9614
     8.9846   9.0524   9.1095   9.1216   9.1913   9.2463   9.2664   9.3040
     9.3274   9.3779   9.5174   9.5410   9.5553   9.5559   9.7557   9.7604
     9.8680   9.8983   9.9014   9.9040   9.9586   9.9588  10.3310  10.3529
    12.3562  12.4090  13.0432  13.0444  13.1099  13.1343  13.5789  13.5918
    13.6230  13.6383  13.9013  13.9135  13.9660  13.9829  13.9913  14.0534
    14.1378  14.1417  14.1843  14.1944  14.3689  14.4003  14.4319  14.5175
    14.5538  14.5557  15.0091  15.1255  15.2293  15.3661  15.3889  16.0001
    16.0057  16.0804  16.1870  16.6983  16.7432  16.7564  16.7696  17.0787

          k = 0.0000 0.1250-0.4946 ( 27254 PWs)   bands (ev):

   -46.1119 -46.1119 -46.1109 -46.1109 -46.1108 -46.1108 -46.1099 -46.1099
   -22.4234 -22.4234 -22.4207 -22.4207 -22.4205 -22.4205 -22.4183 -22.4183
   -22.3916 -22.3916 -22.3897 -22.3897 -22.3888 -22.3888 -22.3867 -22.3867
   -22.3403 -22.3403 -22.3382 -22.3382 -22.3382 -22.3382 -22.3363 -22.3363
   -14.3988 -14.3987 -14.3061 -14.3060 -14.2994 -14.2993 -14.2319 -14.2318
    -6.5689  -6.5688  -6.5040  -6.5039  -6.4914  -6.4913  -6.0249  -6.0248
    -5.8530  -5.8529  -5.8358  -5.8358  -5.8239  -5.8238  -5.7924  -5.7922
    -5.6692  -5.6690  -5.6614  -5.6613  -5.6411  -5.6409  -5.6311  -5.6310
    -0.0423  -0.0423  -0.0174  -0.0173   0.2104   0.2105   0.3955   0.3956
     0.4202   0.4203   0.4315   0.4315   0.4566   0.4567   0.5047   0.5048
     0.5520   0.5520   0.6037   0.6038   0.6356   0.6357   0.6503   0.6504
     6.1074   6.1075   6.3169   6.3170   6.3730   6.3731   6.6201   6.6202
     6.9200   6.9201   6.9314   6.9315   7.1458   7.1459   7.1738   7.1740
     7.1887   7.1887   7.1960   7.1962   7.3695   7.3697   7.5685   7.5686
     7.5830   7.5831   7.8436   7.8437   7.8477   7.8477   7.8673   7.8673
     7.8987   7.8988   8.0787   8.0788   8.1300   8.1301   8.4426   8.4426
     8.5806   8.5807   8.8238   8.8238   8.9116   8.9117   8.9534   8.9535
     8.9950   8.9950   9.0895   9.0896   9.1461   9.1462   9.2275   9.2275
     9.2444   9.2444   9.6915   9.6916   9.7183   9.7184   9.7690   9.7690
     9.7851   9.7852   9.8277   9.8278   9.8289   9.8290  10.3418  10.3420
    12.3823  12.3823  13.3150  13.3151  13.3238  13.3239  13.3706  13.3706
    13.3900  13.3901  13.9073  13.9074  13.9746  13.9747  14.0544  14.0544
    14.1128  14.1128  14.2506  14.2506  14.2892  14.2893  14.4742  14.4743
    14.5547  14.5548  15.1481  15.1481  15.2788  15.2788  15.7562  15.7563
    16.3700  16.3702  16.4416  16.4418  16.6112  16.6114  17.0354  17.0355

          k = 0.0000 0.2500 0.0000 ( 27273 PWs)   bands (ev):

   -46.1122 -46.1114 -46.1113 -46.1112 -46.1106 -46.1104 -46.1102 -46.1095
   -22.4469 -22.4444 -22.4435 -22.4416 -22.3989 -22.3974 -22.3968 -22.3954
   -22.3928 -22.3904 -22.3897 -22.3879 -22.3855 -22.3825 -22.3822 -22.3799
   -22.3472 -22.3451 -22.3449 -22.3430 -22.3389 -22.3374 -22.3370 -22.3356
   -14.4402 -14.3547 -14.3346 -14.3254 -14.2788 -14.2706 -14.2571 -14.2088
    -6.7243  -6.7056  -6.6489  -6.5441  -6.3402  -6.2452  -6.0636  -5.8936
    -5.8823  -5.8730  -5.8506  -5.8264  -5.8008  -5.7658  -5.7631  -5.7523
    -5.7343  -5.7235  -5.7098  -5.7039  -5.6636  -5.6028  -5.5831  -5.5476
    -0.2607  -0.2346  -0.1829   0.2115   0.2661   0.3280   0.3404   0.3609
     0.3887   0.3994   0.4288   0.4331   0.4902   0.4987   0.5072   0.5230
     0.5513   0.5578   0.5684   0.6888   0.7071   0.7080   0.7095   0.7371
     6.0101   6.1026   6.1895   6.1960   6.3130   6.3762   6.4119   6.5135
     6.5602   6.5669   6.5670   6.6404   6.7224   6.7651   6.7702   7.4629
     7.5415   7.5978   7.6243   7.6315   7.6346   7.6351   7.6701   7.6763
     7.7084   7.7087   7.7378   7.7387   7.7503   7.7983   7.8238   7.9056
     7.9468   8.0179   8.0433   8.1675   8.2054   8.2556   8.2944   8.5780
     8.5977   8.6099   8.6877   8.6933   8.8019   8.8118   8.8326   8.9194
     8.9680   9.1387   9.1830   9.2390   9.3025   9.3038   9.3237   9.4208
     9.4244   9.4743   9.5148   9.5241   9.5548   9.5582   9.5951   9.6826
     9.9081  10.0080  10.0838  10.0934  10.1866  10.2223  10.2396  10.2523
    12.5170  12.5914  12.6450  12.6574  12.7002  12.7998  13.7318  13.7631
    13.7669  13.7871  13.9677  13.9822  14.0077  14.0099  14.0203  14.0205
    14.0567  14.0700  14.2555  14.2867  14.4021  14.4966  14.5036  14.5637
    14.5701  14.5772  14.7641  14.8138  14.9369  15.1251  15.2716  15.6453
    15.7650  15.7850  16.1357  16.5239  16.6829  16.9827  17.1481  17.3515

          k = 0.0000 0.2500 0.1236 ( 27257 PWs)   bands (ev):

   -46.1121 -46.1114 -46.1113 -46.1111 -46.1106 -46.1104 -46.1103 -46.1096
   -22.4451 -22.4426 -22.4417 -22.4399 -22.4008 -22.3992 -22.3986 -22.3971
   -22.3927 -22.3903 -22.3899 -22.3880 -22.3853 -22.3826 -22.3821 -22.3800
   -22.3471 -22.3452 -22.3448 -22.3431 -22.3388 -22.3373 -22.3371 -22.3357
   -14.4363 -14.3518 -14.3387 -14.3228 -14.2818 -14.2683 -14.2598 -14.2112
    -6.7072  -6.6868  -6.6385  -6.5391  -6.3216  -6.2634  -6.1081  -5.8967
    -5.8742  -5.8612  -5.8494  -5.8239  -5.7997  -5.7968  -5.7680  -5.7471
    -5.7274  -5.7184  -5.7165  -5.7058  -5.6569  -5.6070  -5.5907  -5.5540
    -0.2427  -0.2384  -0.1252   0.2280   0.2631   0.2961   0.3355   0.3398
     0.3758   0.4051   0.4447   0.4594   0.4620   0.4816   0.4951   0.5297
     0.5515   0.5631   0.5973   0.6690   0.6772   0.7006   0.7020   0.7310
     6.0416   6.1360   6.1899   6.2390   6.3704   6.3718   6.4500   6.5651
     6.5903   6.5906   6.5988   6.6311   6.7233   6.7729   6.7876   7.4790
     7.5339   7.5951   7.6148   7.6278   7.6390   7.6447   7.6578   7.6738
     7.6745   7.6750   7.7623   7.7661   7.7707   7.7889   7.8182   7.9085
     7.9359   7.9715   8.0352   8.0408   8.0736   8.2679   8.3145   8.5421
     8.5889   8.6333   8.6356   8.7515   8.8297   8.8594   8.8769   8.9191
     8.9519   9.1702   9.1773   9.2553   9.2720   9.2979   9.3179   9.3932
     9.4421   9.4743   9.5036   9.5118   9.5261   9.5277   9.5693   9.6351
     9.8911   9.9705  10.0503  10.0704  10.1617  10.1746  10.2397  10.2596
    12.5317  12.6440  12.6526  12.7037  12.7463  12.8535  13.7334  13.7645
    13.7690  13.8134  13.9317  13.9595  13.9719  13.9724  14.0128  14.0228
    14.0383  14.0536  14.2230  14.2946  14.3760  14.4652  14.4942  14.5508
    14.6251  14.6397  14.7638  14.9085  14.9886  15.2467  15.2667  15.7124
    15.7632  15.8567  16.1799  16.5501  16.6292  17.0205  17.1822  17.3794

          k = 0.0000 0.2500 0.2473 ( 27257 PWs)   bands (ev):

   -46.1120 -46.1114 -46.1113 -46.1110 -46.1107 -46.1104 -46.1103 -46.1096
   -22.4400 -22.4376 -22.4367 -22.4349 -22.4060 -22.4044 -22.4037 -22.4022
   -22.3924 -22.3902 -22.3900 -22.3883 -22.3850 -22.3829 -22.3819 -22.3803
   -22.3469 -22.3454 -22.3446 -22.3433 -22.3386 -22.3373 -22.3372 -22.3359
   -14.4251 -14.3504 -14.3438 -14.3155 -14.2901 -14.2673 -14.2617 -14.2179
    -6.6579  -6.6322  -6.6104  -6.5291  -6.3168  -6.2678  -6.2053  -5.9012
    -5.8750  -5.8718  -5.8468  -5.8298  -5.8173  -5.7962  -5.7781  -5.7535
    -5.7324  -5.7119  -5.6967  -5.6944  -5.6548  -5.6187  -5.6116  -5.5724
    -0.2164  -0.1745  -0.0086   0.2093   0.2602   0.2642   0.2758   0.3442
     0.3680   0.3968   0.4217   0.4584   0.4641   0.4845   0.5153   0.5336
     0.5490   0.5896   0.5913   0.6133   0.6307   0.6795   0.6808   0.7117
     6.1080   6.1907   6.2083   6.3427   6.3549   6.5405   6.5650   6.6052
     6.6622   6.6913   6.7010   6.7092   6.7259   6.8050   6.8690   7.4293
     7.5088   7.5256   7.5416   7.5633   7.5883   7.6259   7.6361   7.6542
     7.6658   7.6712   7.7204   7.7746   7.7927   7.8491   7.8646   7.8707
     7.8760   7.9139   7.9149   8.0093   8.0098   8.3063   8.3208   8.3709
     8.4422   8.5831   8.7098   8.7230   8.7651   8.7935   8.8825   9.1307
     9.1433   9.1523   9.1738   9.1934   9.3002   9.3096   9.3687   9.3689
     9.3700   9.4343   9.4500   9.4766   9.4879   9.4996   9.5652   9.5758
     9.8435   9.9026   9.9327  10.0259  10.0602  10.0843  10.2405  10.2593
    12.5510  12.6390  12.8107  12.8660  12.8798  13.0014  13.7381  13.7522
    13.7887  13.7903  13.8152  13.8409  13.8869  13.8892  13.9830  14.0314
    14.0448  14.0897  14.1365  14.3075  14.3173  14.3797  14.4624  14.4849
    14.7039  14.7625  14.8190  15.1438  15.1909  15.2492  15.5743  15.7505
    15.9013  16.0672  16.3226  16.4711  16.6399  17.0278  17.1909  17.5462

          k = 0.0000 0.2500 0.3709 ( 27250 PWs)   bands (ev):

   -46.1119 -46.1116 -46.1112 -46.1109 -46.1108 -46.1105 -46.1101 -46.1098
   -22.4322 -22.4300 -22.4292 -22.4274 -22.4139 -22.4120 -22.4113 -22.4097
   -22.3919 -22.3907 -22.3896 -22.3887 -22.3845 -22.3834 -22.3815 -22.3806
   -22.3465 -22.3458 -22.3443 -22.3436 -22.3383 -22.3376 -22.3369 -22.3362
   -14.4082 -14.3678 -14.3316 -14.3046 -14.3025 -14.2785 -14.2517 -14.2281
    -6.5826  -6.5737  -6.5470  -6.5264  -6.3975  -6.3215  -6.1852  -5.9756
    -5.8945  -5.8620  -5.8461  -5.8187  -5.8110  -5.8097  -5.7902  -5.7731
    -5.7108  -5.6927  -5.6771  -5.6675  -5.6660  -5.6402  -5.6362  -5.6002
    -0.1443  -0.0774   0.0896   0.1395   0.1598   0.2684   0.3386   0.3493
     0.3599   0.3761   0.4250   0.4278   0.4467   0.4583   0.5073   0.5319
     0.5369   0.5746   0.5783   0.6216   0.6424   0.6464   0.6497   0.6781
     6.1595   6.1900   6.2690   6.3336   6.4459   6.5674   6.7296   6.7316
     6.7547   6.7862   6.7957   6.9128   6.9182   7.0074   7.0388   7.1867
     7.2850   7.3819   7.4058   7.4110   7.5409   7.5809   7.5895   7.5978
     7.6075   7.6462   7.6650   7.7820   7.8068   7.8297   7.8904   7.9213
     7.9355   7.9636   7.9773   8.0038   8.0115   8.0356   8.2977   8.3762
     8.3900   8.4521   8.6208   8.6555   8.8132   8.8268   8.9668   9.0008
     9.1358   9.1905   9.1959   9.2017   9.2707   9.2920   9.3191   9.3556
     9.3741   9.4073   9.4641   9.4929   9.5197   9.6210   9.6239   9.6662
     9.7710   9.7745   9.8347   9.8955   9.9395   9.9477  10.2430  10.2538
    12.5719  12.6189  13.0553  13.0836  13.0984  13.2135  13.5764  13.5962
    13.6101  13.6904  13.7451  13.7653  13.8373  13.9957  13.9982  14.0241
    14.0313  14.0706  14.1693  14.2188  14.2595  14.3518  14.3742  14.4368
    14.7390  14.7594  15.0041  15.2102  15.4073  15.5260  15.7067  16.0197
    16.1829  16.2187  16.3997  16.5754  16.8208  16.8459  16.8739  17.2565

          k = 0.0000 0.2500-0.4946 ( 27256 PWs)   bands (ev):

   -46.1117 -46.1117 -46.1110 -46.1110 -46.1107 -46.1107 -46.1100 -46.1100
   -22.4231 -22.4230 -22.4210 -22.4210 -22.4202 -22.4202 -22.4186 -22.4186
   -22.3913 -22.3913 -22.3892 -22.3891 -22.3840 -22.3840 -22.3811 -22.3811
   -22.3462 -22.3461 -22.3440 -22.3440 -22.3380 -22.3380 -22.3365 -22.3365
   -14.3881 -14.3880 -14.3172 -14.3171 -14.2916 -14.2915 -14.2400 -14.2399
    -6.5417  -6.5416  -6.4914  -6.4913  -6.4399  -6.4397  -6.0837  -6.0835
    -5.8659  -5.8658  -5.8512  -5.8512  -5.8058  -5.8057  -5.7824  -5.7823
    -5.6868  -5.6866  -5.6690  -5.6689  -5.6568  -5.6567  -5.6336  -5.6335
    -0.0363  -0.0363   0.0396   0.0397   0.2943   0.2943   0.3015   0.3015
     0.3879   0.3880   0.3979   0.3979   0.4389   0.4390   0.4767   0.4767
     0.5925   0.5925   0.6136   0.6136   0.6310   0.6311   0.6424   0.6425
     6.1829   6.1830   6.3070   6.3071   6.5174   6.5175   6.7329   6.7330
     6.9634   6.9634   7.0030   7.0032   7.1003   7.1004   7.1551   7.1552
     7.1827   7.1828   7.2854   7.2856   7.3333   7.3334   7.5778   7.5779
     7.6563   7.6564   7.6872   7.6873   7.8633   7.8633   7.8941   7.8942
     7.9345   7.9346   7.9855   7.9856   8.1341   8.1343   8.1937   8.1938
     8.4827   8.4828   8.5461   8.5461   8.8938   8.8939   8.9806   8.9807
     9.0754   9.0754   9.2336   9.2336   9.2801   9.2801   9.2884   9.2885
     9.3231   9.3233   9.6038   9.6038   9.6970   9.6971   9.7049   9.7049
     9.7480   9.7481   9.7561   9.7562   9.8022   9.8022  10.2476  10.2477
    12.5953  12.5954  13.3284  13.3285  13.3310  13.3311  13.3600  13.3601
    13.4544  13.4545  13.7537  13.7537  13.9171  13.9172  14.0150  14.0150
    14.1252  14.1253  14.1345  14.1346  14.2682  14.2682  14.3934  14.3934
    14.7529  14.7529  15.1348  15.1348  15.6018  15.6018  15.8914  15.8915
    16.4789  16.4791  16.5212  16.5213  16.8228  16.8230  16.9097  16.9098

          k = 0.0000 0.3750 0.0000 ( 27233 PWs)   bands (ev):

   -46.1120 -46.1116 -46.1111 -46.1110 -46.1107 -46.1106 -46.1101 -46.1097
   -22.4464 -22.4450 -22.4431 -22.4421 -22.3986 -22.3978 -22.3965 -22.3957
   -22.3923 -22.3909 -22.3893 -22.3884 -22.3767 -22.3739 -22.3737 -22.3715
   -22.3560 -22.3537 -22.3535 -22.3515 -22.3386 -22.3378 -22.3367 -22.3359
   -14.4209 -14.3746 -14.3220 -14.3130 -14.2918 -14.2833 -14.2461 -14.2200
    -6.6716  -6.6270  -6.5707  -6.5646  -6.4302  -6.3484  -5.9765  -5.8798
    -5.8575  -5.8549  -5.8347  -5.8067  -5.7952  -5.7743  -5.7657  -5.7557
    -5.7554  -5.7393  -5.7324  -5.6968  -5.6721  -5.6522  -5.6315  -5.5843
    -0.1560  -0.1141  -0.0418   0.0992   0.1520   0.3571   0.3623   0.3703
     0.4150   0.4269   0.4317   0.4512   0.4546   0.4791   0.4938   0.4955
     0.4968   0.5914   0.5991   0.6092   0.6450   0.6624   0.6735   0.6748
     6.0620   6.0998   6.2406   6.2602   6.2923   6.3458   6.5616   6.5656
     6.5952   6.7120   6.8504   6.9033   6.9310   7.0100   7.0290   7.1640
     7.3035   7.4307   7.4655   7.5406   7.5434   7.6140   7.6218   7.6247
     7.6460   7.6656   7.7802   7.7963   7.8098   7.8512   7.8719   7.8793
     7.9294   7.9573   7.9657   7.9822   8.1156   8.1222   8.3278   8.6206
     8.6516   8.7322   8.7523   8.7623   8.7780   8.8003   8.8232   8.9377
     8.9516   9.0193   9.0871   9.1635   9.2681   9.3251   9.3346   9.3444
     9.4235   9.4239   9.5046   9.5185   9.6354   9.6479   9.6511   9.7158
     9.7734   9.8904   9.9410   9.9568  10.0630  10.1060  10.1980  10.2264
    12.5731  12.6232  12.8590  12.9249  12.9379  12.9995  13.4868  13.5076
    13.5317  13.5401  13.9966  14.0030  14.0119  14.0157  14.0177  14.0251
    14.1482  14.1505  14.1543  14.1851  14.3813  14.3899  14.4420  14.5369
    14.5703  14.5747  14.9738  14.9814  15.1242  15.2221  15.2987  15.9308
    15.9882  16.1189  16.2028  16.8031  16.8149  16.9124  16.9245  17.0230

          k = 0.0000 0.3750 0.1236 ( 27231 PWs)   bands (ev):

   -46.1120 -46.1116 -46.1111 -46.1109 -46.1107 -46.1105 -46.1101 -46.1097
   -22.4446 -22.4432 -22.4413 -22.4403 -22.4004 -22.3996 -22.3982 -22.3975
   -22.3922 -22.3908 -22.3894 -22.3884 -22.3766 -22.3740 -22.3736 -22.3716
   -22.3559 -22.3538 -22.3534 -22.3516 -22.3385 -22.3377 -22.3368 -22.3360
   -14.4172 -14.3715 -14.3258 -14.3105 -14.2950 -14.2809 -14.2487 -14.2224
    -6.6566  -6.6081  -6.5622  -6.5572  -6.4114  -6.3543  -6.0268  -5.8830
    -5.8574  -5.8519  -5.8451  -5.8286  -5.8037  -5.7748  -5.7685  -5.7612
    -5.7416  -5.7274  -5.7248  -5.6921  -5.6704  -5.6582  -5.6328  -5.5882
    -0.1351  -0.1347   0.0204   0.1170   0.1408   0.3254   0.3634   0.3883
     0.3973   0.4076   0.4118   0.4329   0.4411   0.4635   0.5003   0.5118
     0.5231   0.5848   0.5881   0.6205   0.6506   0.6620   0.6657   0.6663
     6.0956   6.1335   6.2593   6.2907   6.3414   6.3490   6.5920   6.5965
     6.6291   6.7440   6.8573   6.8905   6.9331   7.0265   7.0289   7.1892
     7.2866   7.4303   7.4405   7.5184   7.5621   7.5979   7.6251   7.6321
     7.6683   7.6806   7.7471   7.7786   7.8270   7.8622   7.8688   7.8896
     7.9107   7.9244   7.9770   7.9884   8.0482   8.1272   8.1913   8.5572
     8.5823   8.6586   8.7586   8.7641   8.7793   8.7864   8.8963   8.9687
     9.0290   9.0789   9.1080   9.1393   9.2719   9.3153   9.3393   9.3718
     9.3851   9.3964   9.4904   9.5443   9.6130   9.6190   9.6274   9.7013
     9.7529   9.8597   9.9009   9.9531  10.0541  10.1033  10.1702  10.1992
    12.6315  12.6826  12.8660  12.9339  12.9552  13.0468  13.4890  13.5176
    13.5289  13.5725  13.9542  13.9621  13.9691  14.0047  14.0310  14.0315
    14.1037  14.1152  14.1454  14.1926  14.3456  14.3813  14.4158  14.5102
    14.6429  14.6449  14.9726  15.0895  15.2177  15.2444  15.3408  15.9739
    16.0457  16.1905  16.2054  16.8266  16.8402  16.8699  16.9455  17.0980

          k = 0.0000 0.3750 0.2473 ( 27235 PWs)   bands (ev):

   -46.1119 -46.1115 -46.1112 -46.1108 -46.1108 -46.1104 -46.1102 -46.1098
   -22.4394 -22.4381 -22.4363 -22.4353 -22.4056 -22.4047 -22.4033 -22.4025
   -22.3918 -22.3905 -22.3898 -22.3887 -22.3763 -22.3743 -22.3734 -22.3718
   -22.3557 -22.3541 -22.3532 -22.3518 -22.3383 -22.3375 -22.3370 -22.3362
   -14.4067 -14.3627 -14.3367 -14.3041 -14.3033 -14.2742 -14.2561 -14.2294
    -6.6141  -6.5534  -6.5409  -6.5385  -6.3757  -6.3572  -6.1269  -5.9461
    -5.8902  -5.8637  -5.8584  -5.8031  -5.7964  -5.7956  -5.7745  -5.7488
    -5.7473  -5.7189  -5.7040  -5.6789  -5.6735  -5.6655  -5.6367  -5.5994
    -0.1315  -0.0751   0.1290   0.1372   0.1683   0.2320   0.3293   0.3399
     0.3532   0.3743   0.4169   0.4287   0.4500   0.4575   0.5189   0.5288
     0.5490   0.5663   0.5702   0.6161   0.6422   0.6459   0.6566   0.6702
     6.1660   6.2048   6.2568   6.3298   6.4246   6.5104   6.7039   6.7089
     6.7264   6.8338   6.8544   6.8822   6.9390   7.0234   7.0964   7.2255
     7.2578   7.3676   7.4287   7.4358   7.5632   7.5954   7.6073   7.6316
     7.6329   7.7110   7.7284   7.7691   7.7739   7.8643   7.8876   7.8889
     7.9109   7.9177   7.9528   7.9535   7.9604   8.0656   8.1649   8.3705
     8.4168   8.4765   8.6050   8.6470   8.8115   8.8440   9.0052   9.0187
     9.1501   9.1526   9.1691   9.2815   9.2920   9.2993   9.3013   9.3148
     9.3810   9.3960   9.4146   9.5326   9.5991   9.6088   9.6231   9.6645
     9.6964   9.7915   9.8185   9.9364  10.0114  10.0847  10.0967  10.1371
    12.7744  12.8464  12.9037  12.9225  13.0478  13.1773  13.4958  13.5200
    13.5524  13.6626  13.8178  13.8195  13.8314  13.9789  14.0104  14.0263
    14.0529  14.0756  14.1307  14.2143  14.2474  14.3463  14.3568  14.4393
    14.7808  14.8179  14.9678  15.2024  15.3701  15.4946  15.5687  16.1154
    16.1992  16.2072  16.4022  16.7096  16.8684  16.9477  16.9748  17.3108

          k = 0.0000 0.3750 0.3709 ( 27255 PWs)   bands (ev):

   -46.1117 -46.1114 -46.1113 -46.1110 -46.1107 -46.1103 -46.1103 -46.1099
   -22.4317 -22.4305 -22.4288 -22.4278 -22.4134 -22.4124 -22.4109 -22.4101
   -22.3914 -22.3902 -22.3901 -22.3891 -22.3759 -22.3748 -22.3730 -22.3722
   -22.3553 -22.3544 -22.3529 -22.3521 -22.3380 -22.3373 -22.3372 -22.3365
   -14.3909 -14.3530 -14.3494 -14.3177 -14.2926 -14.2670 -14.2640 -14.2397
    -6.5516  -6.5185  -6.5182  -6.4683  -6.4188  -6.2733  -6.2433  -6.0557
    -5.8930  -5.8733  -5.8628  -5.8458  -5.7856  -5.7803  -5.7708  -5.7552
    -5.7314  -5.7119  -5.7023  -5.6910  -5.6598  -5.6584  -5.6428  -5.6167
    -0.0842   0.0163   0.1148   0.1396   0.2408   0.2461   0.2471   0.2737
     0.3522   0.3646   0.3903   0.3925   0.4421   0.4760   0.5302   0.5335
     0.5389   0.5472   0.5910   0.6148   0.6159   0.6354   0.6500   0.6663
     6.2190   6.2526   6.2616   6.3141   6.5888   6.7499   6.7978   6.8817
     6.8942   6.9212   6.9335   6.9470   6.9645   7.0598   7.1233   7.2385
     7.2537   7.2715   7.3535   7.3584   7.3958   7.5283   7.5294   7.5435
     7.6037   7.7106   7.7362   7.7633   7.7657   7.8069   7.8658   7.8930
     7.9105   7.9201   7.9292   7.9582   8.0049   8.1574   8.1607   8.1656
     8.2370   8.3259   8.4209   8.4983   8.8548   8.8586   8.9113   9.0751
     9.0981   9.2286   9.2702   9.2844   9.2853   9.3107   9.3706   9.3776
     9.4205   9.4464   9.4605   9.4799   9.5945   9.6165   9.6223   9.6419
     9.6954   9.7021   9.7961   9.8863   9.8935   9.9372  10.0901  10.0990
    12.8554  12.9052  13.0797  13.0809  13.2019  13.3654  13.4951  13.5070
    13.6035  13.6215  13.6220  13.6345  13.7943  13.7957  13.8703  14.0533
    14.0975  14.1075  14.1084  14.1457  14.2474  14.2557  14.3157  14.3487
    14.8818  14.9563  14.9893  15.1690  15.7145  15.7804  16.0102  16.1471
    16.3687  16.4499  16.4544  16.7369  16.8271  16.9649  17.0359  17.0679

          k = 0.0000 0.3750-0.4946 ( 27254 PWs)   bands (ev):

   -46.1116 -46.1116 -46.1112 -46.1112 -46.1105 -46.1105 -46.1101 -46.1101
   -22.4226 -22.4226 -22.4215 -22.4215 -22.4199 -22.4199 -22.4190 -22.4190
   -22.3908 -22.3908 -22.3897 -22.3896 -22.3753 -22.3753 -22.3726 -22.3726
   -22.3549 -22.3549 -22.3525 -22.3525 -22.3377 -22.3376 -22.3369 -22.3369
   -14.3721 -14.3720 -14.3337 -14.3336 -14.2799 -14.2798 -14.2519 -14.2518
    -6.5092  -6.5090  -6.4816  -6.4814  -6.3614  -6.3612  -6.1690  -6.1689
    -5.8794  -5.8794  -5.8704  -5.8703  -5.7786  -5.7785  -5.7638  -5.7637
    -5.7138  -5.7137  -5.7041  -5.7040  -5.6504  -5.6503  -5.6379  -5.6378
     0.0023   0.0023   0.1269   0.1270   0.1795   0.1796   0.3429   0.3430
     0.3654   0.3654   0.3707   0.3708   0.4109   0.4109   0.5071   0.5071
     0.5811   0.5812   0.5970   0.5970   0.6271   0.6271   0.6481   0.6482
     6.2432   6.2433   6.2937   6.2938   6.7158   6.7159   6.9507   6.9508
     7.0164   7.0165   7.0238   7.0239   7.1006   7.1008   7.1126   7.1127
     7.1961   7.1962   7.2979   7.2981   7.4594   7.4595   7.4662   7.4663
     7.5052   7.5054   7.7535   7.7536   7.8762   7.8763   7.8785   7.8786
     7.9184   7.9184   7.9487   7.9488   8.0186   8.0186   8.1591   8.1592
     8.2787   8.2788   8.3514   8.3514   8.8579   8.8579   8.9433   8.9434
     9.1995   9.1995   9.2839   9.2839   9.3146   9.3146   9.3243   9.3243
     9.4903   9.4903   9.5284   9.5285   9.5937   9.5938   9.6946   9.6947
     9.7279   9.7279   9.7619   9.7620   9.8119   9.8119  10.0887  10.0889
    12.8836  12.8837  13.3355  13.3355  13.3438  13.3439  13.4031  13.4032
    13.5271  13.5271  13.5815  13.5816  13.7315  13.7316  13.9492  13.9493
    14.0814  14.0814  14.1674  14.1675  14.2343  14.2343  14.2887  14.2887
    14.9322  14.9322  15.1045  15.1045  15.9957  15.9958  16.1283  16.1285
    16.4667  16.4669  16.7002  16.7003  16.7475  16.7477  17.1534  17.1535

          k = 0.0000-0.5000 0.0000 ( 27234 PWs)   bands (ev):

   -46.1118 -46.1118 -46.1109 -46.1109 -46.1108 -46.1108 -46.1099 -46.1099
   -22.4457 -22.4457 -22.4426 -22.4426 -22.3982 -22.3982 -22.3961 -22.3961
   -22.3916 -22.3916 -22.3888 -22.3888 -22.3664 -22.3664 -22.3638 -22.3638
   -22.3636 -22.3636 -22.3616 -22.3615 -22.3382 -22.3382 -22.3363 -22.3363
   -14.3979 -14.3979 -14.3069 -14.3069 -14.2982 -14.2982 -14.2331 -14.2331
    -6.6159  -6.6159  -6.5308  -6.5308  -6.4602  -6.4602  -5.8727  -5.8727
    -5.8671  -5.8671  -5.8203  -5.8203  -5.7896  -5.7896  -5.7850  -5.7849
    -5.7386  -5.7386  -5.7221  -5.7221  -5.6645  -5.6645  -5.6280  -5.6280
    -0.0300  -0.0300   0.0193   0.0193   0.1478   0.1478   0.4064   0.4064
     0.4089   0.4089   0.4467   0.4468   0.4600   0.4600   0.5187   0.5187
     0.5712   0.5713   0.5772   0.5772   0.6319   0.6319   0.6364   0.6365
     6.0893   6.0893   6.2690   6.2690   6.3091   6.3091   6.5635   6.5635
     6.8552   6.8552   6.9789   6.9790   7.1661   7.1661   7.1988   7.1989
     7.2196   7.2196   7.2926   7.2926   7.3727   7.3727   7.6198   7.6198
     7.6589   7.6590   7.8516   7.8516   7.8888   7.8888   7.8905   7.8905
     7.8976   7.8976   7.9563   7.9563   8.0086   8.0086   8.4783   8.4783
     8.6942   8.6942   8.7793   8.7793   8.8773   8.8774   8.9134   8.9134
     8.9726   8.9726   9.1286   9.1286   9.1563   9.1563   9.2971   9.2971
     9.3126   9.3126   9.6384   9.6384   9.7626   9.7626   9.7647   9.7647
     9.7841   9.7841   9.8788   9.8788   9.9053   9.9053  10.2118  10.2118
    12.5983  12.5983  13.1835  13.1835  13.2121  13.2122  13.2436  13.2436
    13.2622  13.2622  14.0092  14.0092  14.0147  14.0147  14.0628  14.0628
    14.0896  14.0896  14.2580  14.2580  14.2663  14.2663  14.4894  14.4894
    14.5740  14.5740  15.0833  15.0833  15.1283  15.1283  15.6456  15.6456
    16.3977  16.3978  16.5418  16.5418  16.6285  16.6285  17.1794  17.1794

          k = 0.0000-0.5000 0.1236 ( 27258 PWs)   bands (ev):

   -46.1118 -46.1118 -46.1109 -46.1109 -46.1107 -46.1107 -46.1099 -46.1099
   -22.4439 -22.4439 -22.4408 -22.4408 -22.4000 -22.4000 -22.3979 -22.3979
   -22.3915 -22.3915 -22.3889 -22.3889 -22.3663 -22.3663 -22.3639 -22.3639
   -22.3635 -22.3635 -22.3616 -22.3616 -22.3381 -22.3381 -22.3364 -22.3364
   -14.3945 -14.3945 -14.3105 -14.3104 -14.2958 -14.2957 -14.2356 -14.2356
    -6.6038  -6.6038  -6.5120  -6.5120  -6.4579  -6.4579  -5.9340  -5.9340
    -5.8686  -5.8686  -5.8052  -5.8052  -5.7839  -5.7839  -5.7813  -5.7813
    -5.7349  -5.7348  -5.7255  -5.7255  -5.6628  -5.6628  -5.6290  -5.6290
    -0.0107  -0.0107   0.0004   0.0004   0.1982   0.1982   0.3652   0.3652
     0.3990   0.3990   0.4287   0.4287   0.4662   0.4662   0.4961   0.4961
     0.5888   0.5888   0.5889   0.5889   0.6250   0.6251   0.6425   0.6425
     6.1232   6.1232   6.3064   6.3064   6.3230   6.3230   6.5940   6.5940
     6.8856   6.8856   6.9879   6.9880   7.1560   7.1560   7.2017   7.2017
     7.2018   7.2018   7.3108   7.3108   7.3617   7.3618   7.6231   7.6231
     7.6797   7.6797   7.8323   7.8323   7.8741   7.8742   7.8877   7.8877
     7.8998   7.8998   7.9684   7.9684   7.9766   7.9766   8.3671   8.3671
     8.6538   8.6538   8.7045   8.7045   8.9426   8.9426   8.9490   8.9490
     8.9989   8.9989   9.1443   9.1443   9.1753   9.1753   9.2938   9.2938
     9.3107   9.3108   9.6140   9.6140   9.7339   9.7339   9.7478   9.7478
     9.7745   9.7745   9.8721   9.8721   9.8994   9.8994  10.1821  10.1821
    12.6582  12.6582  13.1871  13.1872  13.2300  13.2300  13.2403  13.2403
    13.3017  13.3017  13.9654  13.9654  14.0179  14.0179  14.0214  14.0214
    14.0964  14.0964  14.2175  14.2175  14.2592  14.2592  14.4629  14.4629
    14.6466  14.6466  15.1253  15.1253  15.1998  15.1998  15.6874  15.6874
    16.4430  16.4430  16.6160  16.6160  16.6411  16.6412  17.1765  17.1766

          k = 0.0000-0.5000 0.2473 ( 27230 PWs)   bands (ev):

   -46.1117 -46.1117 -46.1110 -46.1110 -46.1106 -46.1106 -46.1100 -46.1100
   -22.4388 -22.4388 -22.4358 -22.4358 -22.4052 -22.4052 -22.4029 -22.4029
   -22.3912 -22.3912 -22.3892 -22.3892 -22.3660 -22.3660 -22.3642 -22.3642
   -22.3633 -22.3633 -22.3618 -22.3618 -22.3379 -22.3379 -22.3366 -22.3366
   -14.3848 -14.3848 -14.3205 -14.3205 -14.2888 -14.2888 -14.2428 -14.2428
    -6.5709  -6.5709  -6.4574  -6.4574  -6.4550  -6.4550  -6.0351  -6.0351
    -5.8739  -5.8739  -5.8376  -5.8376  -5.7712  -5.7712  -5.7533  -5.7533
    -5.7328  -5.7328  -5.7320  -5.7320  -5.6579  -5.6579  -5.6321  -5.6321
    -0.0102  -0.0102   0.0449   0.0449   0.2724   0.2724   0.2992   0.2992
     0.3790   0.3790   0.3962   0.3962   0.4325   0.4325   0.4841   0.4841
     0.6056   0.6056   0.6137   0.6137   0.6193   0.6193   0.6360   0.6360
     6.1943   6.1943   6.2994   6.2994   6.4742   6.4742   6.7075   6.7075
     6.9699   6.9699   7.0104   7.0105   7.1300   7.1300   7.1479   7.1479
     7.2104   7.2104   7.3358   7.3358   7.3735   7.3735   7.6076   7.6076
     7.6757   7.6757   7.7328   7.7328   7.8790   7.8790   7.9019   7.9019
     7.9214   7.9214   7.9334   7.9334   8.0100   8.0100   8.1575   8.1575
     8.5023   8.5024   8.5436   8.5436   8.9007   8.9007   9.0025   9.0025
     9.1905   9.1905   9.1975   9.1975   9.2061   9.2061   9.2750   9.2750
     9.3340   9.3340   9.5476   9.5476   9.6491   9.6491   9.7165   9.7165
     9.7959   9.7959   9.8547   9.8547   9.8849   9.8849  10.0929  10.0929
    12.8219  12.8219  13.1986  13.1986  13.2306  13.2306  13.2879  13.2879
    13.4117  13.4117  13.8250  13.8250  13.8950  13.8950  14.0572  14.0572
    14.1054  14.1054  14.1164  14.1164  14.2388  14.2389  14.3924  14.3924
    14.8084  14.8084  15.1147  15.1147  15.5112  15.5112  15.8294  15.8295
    16.5727  16.5728  16.6482  16.6483  16.8322  16.8322  17.0113  17.0113

          k = 0.0000-0.5000 0.3709 ( 27240 PWs)   bands (ev):

   -46.1115 -46.1115 -46.1112 -46.1112 -46.1105 -46.1105 -46.1101 -46.1101
   -22.4311 -22.4311 -22.4283 -22.4283 -22.4129 -22.4129 -22.4105 -22.4105
   -22.3908 -22.3908 -22.3897 -22.3897 -22.3656 -22.3656 -22.3646 -22.3646
   -22.3630 -22.3630 -22.3622 -22.3622 -22.3376 -22.3376 -22.3369 -22.3369
   -14.3702 -14.3702 -14.3354 -14.3354 -14.2783 -14.2783 -14.2534 -14.2534
    -6.5268  -6.5268  -6.4614  -6.4614  -6.3727  -6.3727  -6.1500  -6.1500
    -5.8811  -5.8811  -5.8676  -5.8676  -5.7579  -5.7578  -5.7424  -5.7424
    -5.7375  -5.7375  -5.7338  -5.7338  -5.6510  -5.6510  -5.6371  -5.6371
     0.0148   0.0148   0.1300   0.1300   0.1679   0.1679   0.3396   0.3396
     0.3630   0.3630   0.3706   0.3706   0.4118   0.4118   0.5112   0.5112
     0.5769   0.5769   0.5939   0.5939   0.6363   0.6363   0.6412   0.6412
     6.2484   6.2484   6.2897   6.2897   6.6876   6.6876   6.9281   6.9281
     7.0379   7.0379   7.0541   7.0541   7.0914   7.0914   7.0978   7.0979
     7.2203   7.2203   7.3093   7.3093   7.4591   7.4591   7.5004   7.5004
     7.5035   7.5035   7.7921   7.7921   7.8629   7.8629   7.8903   7.8903
     7.8974   7.8974   7.9287   7.9287   8.0146   8.0146   8.0960   8.0960
     8.2729   8.2729   8.3911   8.3911   8.8654   8.8654   8.9416   8.9416
     9.2567   9.2567   9.2633   9.2633   9.3024   9.3024   9.3407   9.3407
     9.4554   9.4554   9.4577   9.4577   9.5164   9.5164   9.7565   9.7565
     9.8098   9.8098   9.8253   9.8253   9.8706   9.8706   9.9550   9.9550
    13.0440  13.0440  13.2144  13.2145  13.2275  13.2275  13.3936  13.3936
    13.5712  13.5712  13.6140  13.6140  13.7245  13.7245  13.9432  13.9432
    14.1131  14.1131  14.1492  14.1492  14.2079  14.2079  14.2997  14.2997
    14.9552  14.9552  15.0911  15.0911  15.9236  15.9236  16.0894  16.0895
    16.5691  16.5691  16.7500  16.7500  16.7725  16.7726  17.1717  17.2165

          k = 0.0000-0.5000-0.4946 ( 27248 PWs)   bands (ev):

   -46.1114 -46.1114 -46.1114 -46.1114 -46.1103 -46.1103 -46.1103 -46.1103
   -22.4220 -22.4220 -22.4220 -22.4220 -22.4194 -22.4194 -22.4194 -22.4194
   -22.3902 -22.3902 -22.3902 -22.3902 -22.3651 -22.3651 -22.3651 -22.3651
   -22.3626 -22.3626 -22.3626 -22.3626 -22.3372 -22.3372 -22.3372 -22.3372
   -14.3529 -14.3529 -14.3529 -14.3528 -14.2660 -14.2660 -14.2659 -14.2659
    -6.4861  -6.4861  -6.4860  -6.4860  -6.2666  -6.2666  -6.2665  -6.2664
    -5.8823  -5.8823  -5.8822  -5.8822  -5.7462  -5.7462  -5.7461  -5.7461
    -5.7372  -5.7371  -5.7370  -5.7370  -5.6437  -5.6437  -5.6436  -5.6436
     0.0768   0.0768   0.0769   0.0769   0.2331   0.2331   0.2332   0.2332
     0.3591   0.3591   0.3591   0.3591   0.5155   0.5155   0.5155   0.5155
     0.5437   0.5437   0.5437   0.5438   0.6470   0.6470   0.6470   0.6470
     6.2755   6.2755   6.2756   6.2756   6.9013   6.9013   6.9013   6.9013
     7.0667   7.0667   7.0667   7.0667   7.1753   7.1753   7.1754   7.1754
     7.2494   7.2494   7.2495   7.2495   7.3251   7.3251   7.3252   7.3252
     7.6968   7.6968   7.6969   7.6969   7.8357   7.8357   7.8358   7.8358
     7.8883   7.8883   7.8883   7.8884   8.1165   8.1165   8.1165   8.1165
     8.2305   8.2305   8.2306   8.2306   8.8745   8.8745   8.8745   8.8745
     9.3155   9.3155   9.3155   9.3156   9.3555   9.3555   9.3555   9.3555
     9.3886   9.3886   9.3886   9.3887   9.6950   9.6950   9.6951   9.6951
     9.7978   9.7978   9.7979   9.7979   9.8720   9.8720   9.8722   9.8722
    13.1833  13.1833  13.1834  13.1834  13.3713  13.3713  13.3714  13.3714
    13.5457  13.5457  13.5457  13.5457  13.7566  13.7566  13.7566  13.7567
    14.1685  14.1685  14.1686  14.1686  14.2093  14.2093  14.2093  14.2093
    15.0442  15.0442  15.0442  15.0442  16.3175  16.3176  16.3177  16.3177
    16.4230  16.4230  16.4231  16.4231  17.0231  17.0232  17.0233  17.2818

          k = 0.1250 0.1250 0.0000 ( 27265 PWs)   bands (ev):

   -46.1122 -46.1114 -46.1113 -46.1113 -46.1104 -46.1104 -46.1103 -46.1094
   -22.4472 -22.4439 -22.4439 -22.4414 -22.3991 -22.3971 -22.3971 -22.3952
   -22.3912 -22.3912 -22.3880 -22.3880 -22.3880 -22.3879 -22.3857 -22.3856
   -22.3412 -22.3411 -22.3393 -22.3393 -22.3392 -22.3392 -22.3374 -22.3374
   -14.4486 -14.3401 -14.3383 -14.3383 -14.2675 -14.2675 -14.2652 -14.2039
    -6.7442  -6.7442  -6.6846  -6.5350  -6.2964  -6.1495  -6.1495  -5.8995
    -5.8923  -5.8923  -5.8415  -5.8415  -5.8087  -5.7717  -5.7492  -5.7469
    -5.7361  -5.7361  -5.7299  -5.6869  -5.6276  -5.5846  -5.5414  -5.5414
    -0.3242  -0.2768  -0.2348   0.2927   0.2927   0.3023   0.3411   0.3587
     0.3587   0.3725   0.3775   0.4185   0.4894   0.5205   0.5205   0.5424
     0.5424   0.5594   0.6877   0.6877   0.7226   0.7328   0.7328   0.7698
     5.9780   6.1339   6.1339   6.1482   6.3230   6.3841   6.3841   6.4348
     6.4583   6.4583   6.5836   6.6136   6.6136   6.6397   6.6534   7.5731
     7.5731   7.5779   7.5917   7.5917   7.6311   7.6510   7.6525   7.6525
     7.6816   7.7511   7.7511   7.8135   7.9181   7.9342   7.9534   7.9651
     8.0390   8.0470   8.0694   8.0694   8.1706   8.2068   8.2068   8.6117
     8.6118   8.6558   8.7019   8.7019   8.7470   8.8676   8.9172   8.9223
     8.9223   8.9733   9.2108   9.2311   9.2311   9.2810   9.3642   9.4563
     9.4563   9.5047   9.5047   9.5396   9.5577   9.5577   9.6350   9.7628
    10.0273  10.0524  10.1561  10.1561  10.1847  10.2211  10.2924  10.3200
    12.3870  12.5240  12.5736  12.5979  12.6879  12.6879  13.8953  13.8953
    13.9406  13.9406  13.9421  13.9425  13.9425  13.9782  13.9875  14.0048
    14.0305  14.0305  14.3340  14.3450  14.3450  14.5523  14.5709  14.5758
    14.6379  14.6379  14.6528  14.6552  14.6723  15.1177  15.4237  15.4237
    15.4991  15.6400  16.3106  16.3106  16.5807  16.9933  17.1888  17.3027

          k = 0.1250 0.1250 0.1236 ( 27278 PWs)   bands (ev):

   -46.1122 -46.1114 -46.1113 -46.1113 -46.1104 -46.1104 -46.1103 -46.1095
   -22.4454 -22.4422 -22.4422 -22.4397 -22.4009 -22.3989 -22.3989 -22.3970
   -22.3910 -22.3910 -22.3882 -22.3882 -22.3880 -22.3879 -22.3858 -22.3857
   -22.3412 -22.3411 -22.3394 -22.3393 -22.3392 -22.3392 -22.3375 -22.3375
   -14.4446 -14.3443 -14.3357 -14.3356 -14.2703 -14.2702 -14.2629 -14.2063
    -6.7258  -6.7258  -6.6731  -6.5318  -6.2779  -6.1833  -6.1833  -5.9020
    -5.8805  -5.8805  -5.8395  -5.8395  -5.8073  -5.7759  -5.7731  -5.7411
    -5.7283  -5.7283  -5.7251  -5.7026  -5.6272  -5.5912  -5.5493  -5.5493
    -0.3016  -0.2745  -0.1841   0.2770   0.3033   0.3033   0.3106   0.3647
     0.3648   0.3736   0.3768   0.4430   0.4848   0.4959   0.4959   0.5489
     0.5605   0.5605   0.6840   0.6858   0.6858   0.7191   0.7191   0.7603
     6.0081   6.1493   6.1697   6.1697   6.3828   6.4200   6.4200   6.4510
     6.4510   6.4949   6.6214   6.6401   6.6413   6.6413   6.6528   7.5750
     7.5750   7.5806   7.5806   7.5930   7.6436   7.6436   7.6507   7.6675
     7.6986   7.7778   7.7779   7.7805   7.9084   7.9084   7.9101   7.9151
     7.9365   7.9753   8.0130   8.0369   8.1872   8.2013   8.2013   8.5479
     8.6287   8.6288   8.7670   8.8459   8.8459   8.8771   8.8797   8.8999
     8.9399   8.9399   9.2013   9.2013   9.2205   9.3035   9.3862   9.4028
     9.4028   9.5014   9.5015   9.5051   9.5051   9.5568   9.6477   9.7165
    10.0061  10.0093  10.1357  10.1357  10.1408  10.1725  10.2938  10.3253
    12.3924  12.5186  12.6355  12.6543  12.7452  12.7452  13.8975  13.8975
    13.9369  13.9393  13.9393  13.9446  13.9446  13.9543  13.9647  13.9835
    13.9835  13.9979  14.3174  14.3174  14.3421  14.5357  14.5427  14.5549
    14.6527  14.6545  14.7198  14.7198  14.7782  15.2397  15.4195  15.4195
    15.5696  15.7122  16.3501  16.3501  16.5272  17.0015  17.2744  17.3405

          k = 0.1250 0.1250 0.2473 ( 27270 PWs)   bands (ev):

   -46.1121 -46.1115 -46.1112 -46.1112 -46.1105 -46.1105 -46.1102 -46.1096
   -22.4402 -22.4371 -22.4371 -22.4347 -22.4062 -22.4040 -22.4040 -22.4020
   -22.3907 -22.3907 -22.3885 -22.3885 -22.3877 -22.3876 -22.3860 -22.3860
   -22.3410 -22.3409 -22.3396 -22.3395 -22.3390 -22.3390 -22.3377 -22.3377
   -14.4331 -14.3563 -14.3281 -14.3281 -14.2781 -14.2780 -14.2563 -14.2130
    -6.6724  -6.6724  -6.6416  -6.5271  -6.2667  -6.2667  -6.2245  -5.9041
    -5.8576  -5.8576  -5.8448  -5.8345  -5.8345  -5.8033  -5.7771  -5.7452
    -5.7244  -5.7116  -5.7075  -5.7075  -5.6323  -5.6098  -5.5716  -5.5716
    -0.2365  -0.2327  -0.0726   0.2057   0.2260   0.3288   0.3288   0.3800
     0.3879   0.3879   0.3892   0.4592   0.4592   0.4718   0.4951   0.5203
     0.5753   0.5753   0.5770   0.6801   0.6801   0.6849   0.6849   0.7317
     6.0719   6.1515   6.2493   6.2493   6.4312   6.4312   6.5290   6.5290
     6.5544   6.6414   6.6512   6.6624   6.7410   6.7410   6.7542   7.4938
     7.4938   7.5800   7.5800   7.6007   7.6007   7.6396   7.6574   7.6574
     7.6576   7.7019   7.7061   7.7280   7.7428   7.8533   7.8533   7.9049
     7.9148   7.9640   8.0058   8.0889   8.2081   8.2081   8.2360   8.2666
     8.6770   8.6770   8.7453   8.7683   8.8256   8.8843   8.8843   8.9203
     9.0474   9.0474   9.2012   9.2478   9.2478   9.2953   9.2953   9.3736
     9.4029   9.4029   9.4532   9.4537   9.4537   9.5628   9.6051   9.6847
     9.9211   9.9601  10.0191  10.0514  10.0710  10.0710  10.2979  10.3269
    12.4073  12.5035  12.8065  12.8130  12.9035  12.9035  13.7922  13.8095
    13.8414  13.8414  13.9035  13.9035  13.9386  13.9386  13.9607  13.9607
    14.0282  14.0547  14.2445  14.2445  14.3653  14.4644  14.4670  14.5239
    14.6525  14.6533  14.9167  14.9167  15.0556  15.4026  15.4026  15.5674
    15.7692  15.9228  16.3700  16.4793  16.4793  16.9705  17.1141  17.6886

          k = 0.1250 0.1250 0.3709 ( 27246 PWs)   bands (ev):

   -46.1120 -46.1116 -46.1110 -46.1110 -46.1107 -46.1107 -46.1100 -46.1097
   -22.4324 -22.4295 -22.4295 -22.4272 -22.4140 -22.4116 -22.4116 -22.4096
   -22.3902 -22.3902 -22.3890 -22.3890 -22.3873 -22.3872 -22.3864 -22.3863
   -22.3407 -22.3406 -22.3399 -22.3398 -22.3387 -22.3387 -22.3380 -22.3380
   -14.4157 -14.3742 -14.3168 -14.3167 -14.2897 -14.2896 -14.2464 -14.2230
    -6.5988  -6.5897  -6.5897  -6.5330  -6.3739  -6.3739  -6.1429  -5.9390
    -5.8921  -5.8386  -5.8386  -5.8296  -5.8296  -5.8024  -5.7974  -5.7832
    -5.6990  -5.6915  -5.6778  -5.6778  -5.6471  -5.6370  -5.6044  -5.6044
    -0.1460  -0.1381   0.0771   0.1010   0.1055   0.3568   0.3569   0.4030
     0.4078   0.4214   0.4214   0.4235   0.4365   0.4366   0.4526   0.4807
     0.5590   0.5591   0.5593   0.6582   0.6582   0.6708   0.6708   0.6855
     6.1224   6.1521   6.3206   6.3206   6.4034   6.4034   6.6435   6.6488
     6.7070   6.7070   6.8155   6.9040   6.9377   6.9377   7.0068   7.2230
     7.2230   7.4439   7.4439   7.4486   7.4510   7.5871   7.5872   7.6079
     7.6079   7.6689   7.7151   7.7868   7.7981   7.8838   7.8944   7.9008
     7.9515   7.9574   7.9628   7.9628   8.1727   8.1727   8.2519   8.3162
     8.5773   8.6144   8.7462   8.7462   8.8622   8.8622   8.9165   9.0023
     9.0388   9.0388   9.1298   9.1781   9.1781   9.2723   9.2723   9.3429
     9.3638   9.3638   9.4946   9.5446   9.5446   9.5659   9.6762   9.7423
     9.8406   9.8466   9.8892   9.8907   9.9534   9.9534  10.3047  10.3216
    12.4291  12.4811  13.0453  13.0506  13.1300  13.1300  13.5739  13.5903
    13.6347  13.6347  13.9118  13.9118  13.9303  13.9303  13.9978  13.9978
    14.1232  14.1418  14.1506  14.1506  14.3572  14.3626  14.4005  14.4859
    14.6521  14.6523  15.1256  15.1256  15.3612  15.3612  15.4192  16.0103
    16.0676  16.1185  16.2542  16.7151  16.7151  16.7901  16.8038  17.1414

          k = 0.1250 0.1250-0.4946 ( 27256 PWs)   bands (ev):

   -46.1118 -46.1118 -46.1108 -46.1108 -46.1108 -46.1108 -46.1099 -46.1099
   -22.4233 -22.4233 -22.4206 -22.4206 -22.4206 -22.4206 -22.4184 -22.4184
   -22.3896 -22.3896 -22.3896 -22.3896 -22.3869 -22.3869 -22.3868 -22.3868
   -22.3403 -22.3403 -22.3402 -22.3402 -22.3383 -22.3383 -22.3383 -22.3383
   -14.3951 -14.3950 -14.3033 -14.3033 -14.3032 -14.3032 -14.2348 -14.2347
    -6.5583  -6.5582  -6.4864  -6.4864  -6.4862  -6.4862  -6.0434  -6.0432
    -5.8567  -5.8566  -5.8296  -5.8296  -5.8295  -5.8295  -5.7903  -5.7902
    -5.6685  -5.6685  -5.6684  -5.6683  -5.6420  -5.6420  -5.6419  -5.6419
    -0.0267  -0.0266  -0.0199  -0.0198   0.2490   0.2491   0.3867   0.3867
     0.3868   0.3868   0.4300   0.4301   0.4388   0.4388   0.5016   0.5017
     0.5017   0.5017   0.6257   0.6257   0.6603   0.6603   0.6603   0.6603
     6.1457   6.1458   6.3684   6.3684   6.3685   6.3685   6.6460   6.6461
     6.9426   6.9426   6.9427   6.9427   7.1297   7.1299   7.1706   7.1707
     7.2000   7.2000   7.2002   7.2002   7.3711   7.3712   7.5958   7.5958
     7.5959   7.5959   7.8063   7.8064   7.8480   7.8481   7.8749   7.8750
     7.8894   7.8894   8.0809   8.0810   8.0811   8.0811   8.4298   8.4299
     8.4359   8.4360   8.8139   8.8139   8.8139   8.8140   9.0255   9.0256
     9.0891   9.0891   9.0892   9.0892   9.1423   9.1423   9.2763   9.2763
     9.2763   9.2763   9.6600   9.6600   9.7175   9.7176   9.7583   9.7584
     9.7762   9.7762   9.7762   9.7762   9.8141   9.8142  10.3131  10.3132
    12.4549  12.4550  13.3124  13.3125  13.3253  13.3254  13.3861  13.3861
    13.3862  13.3862  13.9212  13.9212  13.9212  13.9212  14.0625  14.0625
    14.0625  14.0625  14.2376  14.2377  14.2488  14.2489  14.4426  14.4427
    14.6520  14.6520  15.2759  15.2759  15.2759  15.2759  15.7910  15.7911
    16.4236  16.4238  16.4595  16.4597  16.6759  16.6761  17.0399  17.0399

          k = 0.1250 0.2500 0.0000 ( 27275 PWs)   bands (ev):

   -46.1121 -46.1114 -46.1112 -46.1112 -46.1105 -46.1104 -46.1103 -46.1096
   -22.4468 -22.4443 -22.4436 -22.4418 -22.3988 -22.3974 -22.3969 -22.3955
   -22.3908 -22.3884 -22.3878 -22.3859 -22.3853 -22.3824 -22.3823 -22.3800
   -22.3471 -22.3451 -22.3450 -22.3431 -22.3409 -22.3395 -22.3391 -22.3377
   -14.4360 -14.3515 -14.3317 -14.3299 -14.2762 -14.2739 -14.2602 -14.2115
    -6.7086  -6.6945  -6.6300  -6.5426  -6.3519  -6.2257  -6.0927  -5.8894
    -5.8760  -5.8688  -5.8457  -5.8278  -5.8022  -5.7676  -5.7618  -5.7528
    -5.7284  -5.7186  -5.7122  -5.7105  -5.6947  -5.6005  -5.5911  -5.5653
    -0.2695  -0.1936  -0.1408   0.2113   0.2825   0.3069   0.3149   0.3790
     0.3919   0.3951   0.4028   0.4487   0.4677   0.4877   0.4996   0.5204
     0.5600   0.5611   0.5870   0.6771   0.6883   0.7003   0.7018   0.7176
     6.0418   6.1337   6.1976   6.2303   6.3091   6.4344   6.4563   6.5341
     6.5615   6.5981   6.6295   6.6493   6.7398   6.7713   6.7736   7.4367
     7.5442   7.6165   7.6330   7.6350   7.6481   7.6525   7.6527   7.6634
     7.7105   7.7106   7.7316   7.7526   7.7586   7.7888   7.7890   7.9069
     7.9506   8.0022   8.0113   8.1206   8.1859   8.1872   8.2637   8.3311
     8.6866   8.7000   8.7000   8.7543   8.7679   8.8192   8.8644   8.9242
     8.9779   9.1768   9.1808   9.1867   9.3295   9.3341   9.3367   9.3447
     9.3549   9.4476   9.5241   9.5279   9.5356   9.5458   9.5740   9.6080
     9.9495   9.9950  10.0838  10.0846  10.1619  10.1853  10.2187  10.2237
    12.5482  12.6343  12.6729  12.7121  12.7162  12.7947  13.7362  13.7666
    13.7804  13.7906  13.9124  13.9467  13.9632  13.9809  14.0048  14.0081
    14.0267  14.0679  14.2510  14.2651  14.3716  14.4663  14.4899  14.5463
    14.6476  14.6675  14.8194  14.8685  14.9647  15.1319  15.4027  15.7229
    15.7618  15.8502  16.1877  16.4817  16.7120  17.0565  17.1951  17.3375

          k = 0.1250 0.2500 0.1236 ( 27253 PWs)   bands (ev):

   -46.1121 -46.1114 -46.1113 -46.1111 -46.1105 -46.1104 -46.1103 -46.1096
   -22.4450 -22.4425 -22.4419 -22.4400 -22.4007 -22.3992 -22.3987 -22.3972
   -22.3907 -22.3883 -22.3879 -22.3860 -22.3852 -22.3825 -22.3822 -22.3801
   -22.3470 -22.3451 -22.3449 -22.3432 -22.3409 -22.3394 -22.3391 -22.3377
   -14.4321 -14.3487 -14.3358 -14.3273 -14.2791 -14.2715 -14.2629 -14.2139
    -6.6914  -6.6760  -6.6200  -6.5369  -6.3333  -6.2443  -6.1285  -5.8929
    -5.8695  -5.8623  -5.8444  -5.8255  -5.8059  -5.8009  -5.7640  -5.7475
    -5.7249  -5.7223  -5.7124  -5.7089  -5.6813  -5.6058  -5.5982  -5.5715
    -0.2496  -0.2037  -0.0807   0.2254   0.2792   0.2892   0.3103   0.3573
     0.3769   0.3888   0.4103   0.4449   0.4543   0.4808   0.4962   0.5260
     0.5689   0.5703   0.5743   0.6760   0.6772   0.6833   0.7007   0.7208
     6.0761   6.1699   6.2311   6.2404   6.3673   6.4279   6.4900   6.5589
     6.6078   6.6203   6.6270   6.6755   6.7406   6.7754   6.7939   7.4488
     7.5179   7.6149   7.6295   7.6371   7.6374   7.6392   7.6489   7.6646
     7.6936   7.7103   7.7513   7.7532   7.7695   7.7779   7.8095   7.9066
     7.9372   7.9627   7.9984   8.0385   8.0911   8.1364   8.2605   8.3482
     8.5972   8.7131   8.7150   8.7996   8.8173   8.8339   8.8925   8.9192
     8.9666   9.1614   9.2114   9.2130   9.2924   9.3199   9.3258   9.3522
     9.3885   9.4703   9.4759   9.4990   9.4990   9.5433   9.5611   9.5745
     9.9253   9.9553  10.0424  10.0695  10.1391  10.1396  10.2232  10.2285
    12.5726  12.6757  12.7113  12.7306  12.7569  12.8484  13.7390  13.7729
    13.7874  13.8068  13.9169  13.9303  13.9525  13.9581  13.9791  13.9819
    13.9976  14.0246  14.2327  14.2590  14.3440  14.4498  14.4653  14.5188
    14.7285  14.7386  14.8688  14.9137  15.0008  15.2532  15.3985  15.7597
    15.7875  15.9203  16.2263  16.5075  16.6577  17.0840  17.2297  17.3760

          k = 0.1250 0.2500 0.2473 ( 27262 PWs)   bands (ev):

   -46.1120 -46.1114 -46.1113 -46.1110 -46.1106 -46.1104 -46.1103 -46.1097
   -22.4398 -22.4375 -22.4368 -22.4350 -22.4059 -22.4043 -22.4038 -22.4023
   -22.3904 -22.3882 -22.3880 -22.3863 -22.3849 -22.3828 -22.3820 -22.3804
   -22.3468 -22.3453 -22.3447 -22.3434 -22.3407 -22.3393 -22.3392 -22.3379
   -14.4210 -14.3473 -14.3407 -14.3198 -14.2874 -14.2705 -14.2649 -14.2207
    -6.6420  -6.6225  -6.5933  -6.5249  -6.2985  -6.2797  -6.2144  -5.8986
    -5.8870  -5.8663  -5.8415  -5.8379  -5.8196  -5.7967  -5.7751  -5.7588
    -5.7326  -5.7084  -5.6993  -5.6961  -5.6707  -5.6210  -5.6176  -5.5891
    -0.1994  -0.1706   0.0372   0.2151   0.2581   0.2677   0.2841   0.3209
     0.3692   0.3958   0.3977   0.4318   0.4336   0.4445   0.5267   0.5275
     0.5520   0.5533   0.6029   0.6058   0.6775   0.6801   0.6961   0.7196
     6.1491   6.2329   6.2489   6.3424   6.4106   6.5338   6.5943   6.5949
     6.6439   6.7136   6.7283   6.7530   6.7659   6.8033   6.8748   7.3993
     7.4903   7.5061   7.5457   7.5861   7.6107   7.6169   7.6483   7.6523
     7.6627   7.6815   7.6966   7.7971   7.8028   7.8526   7.8643   7.8673
     7.8681   7.9066   7.9125   7.9707   8.0234   8.1836   8.2548   8.3317
     8.3950   8.5689   8.6793   8.7461   8.7724   8.8700   8.8752   9.0776
     9.1451   9.1657   9.1907   9.2423   9.2928   9.3194   9.3259   9.3823
     9.3845   9.4108   9.4233   9.4670   9.4772   9.4916   9.5384   9.5886
     9.8464   9.8938   9.9278  10.0224  10.0314  10.0676  10.2225  10.2319
    12.6014  12.6973  12.8284  12.8879  12.8899  12.9964  13.7464  13.7714
    13.7867  13.7959  13.8151  13.8505  13.8800  13.8836  13.9288  13.9733
    13.9953  14.0359  14.1464  14.2707  14.2819  14.3694  14.4267  14.4512
    14.8302  14.8692  14.9218  15.1482  15.1912  15.3821  15.5805  15.7464
    15.9702  16.1262  16.3540  16.4980  16.5963  17.0687  17.2351  17.3282

          k = 0.1250 0.2500 0.3709 ( 27261 PWs)   bands (ev):

   -46.1119 -46.1115 -46.1111 -46.1109 -46.1108 -46.1106 -46.1102 -46.1098
   -22.4321 -22.4299 -22.4293 -22.4275 -22.4138 -22.4119 -22.4114 -22.4098
   -22.3899 -22.3887 -22.3876 -22.3867 -22.3844 -22.3833 -22.3816 -22.3807
   -22.3465 -22.3457 -22.3444 -22.3437 -22.3404 -22.3397 -22.3389 -22.3382
   -14.4043 -14.3644 -14.3286 -14.3086 -14.2998 -14.2819 -14.2548 -14.2309
    -6.5664  -6.5590  -6.5395  -6.5189  -6.3801  -6.3228  -6.1973  -5.9881
    -5.8938  -5.8561  -5.8405  -5.8208  -5.8193  -5.8134  -5.7900  -5.7727
    -5.7108  -5.6915  -5.6847  -5.6736  -5.6730  -5.6441  -5.6430  -5.6152
    -0.1256  -0.0823   0.1033   0.1525   0.1836   0.2729   0.3395   0.3399
     0.3402   0.3752   0.4040   0.4157   0.4162   0.4625   0.4818   0.4861
     0.4949   0.5164   0.6119   0.6405   0.6786   0.6792   0.6885   0.7016
     6.2049   6.2338   6.3154   6.3867   6.4415   6.5579   6.7428   6.7457
     6.7724   6.7846   6.7879   6.9320   6.9522   6.9994   7.0423   7.1864
     7.2664   7.3777   7.3877   7.4539   7.5331   7.5638   7.6061   7.6149
     7.6182   7.6590   7.6921   7.7657   7.7696   7.8313   7.8889   7.9130
     7.9217   7.9339   7.9651   8.0138   8.0278   8.0466   8.1986   8.2647
     8.3897   8.4608   8.5345   8.6400   8.7763   8.8109   8.9397   9.1214
     9.1420   9.1638   9.1759   9.2617   9.2663   9.2974   9.3012   9.3326
     9.4143   9.4222   9.4653   9.5178   9.5447   9.5740   9.6094   9.6595
     9.7582   9.7662   9.8238   9.8780   9.9323   9.9403  10.2229  10.2292
    12.6261  12.6765  13.0621  13.0910  13.1174  13.2084  13.5737  13.5993
    13.6204  13.6853  13.7567  13.7837  13.8449  13.9449  13.9803  13.9881
    14.0162  14.0339  14.1192  14.1759  14.2500  14.3167  14.3336  14.4026
    14.8578  14.8686  15.1233  15.3434  15.4099  15.5359  15.7034  16.0270
    16.2421  16.2443  16.4526  16.5892  16.7763  16.8688  16.9216  17.2543

          k = 0.1250 0.2500-0.4946 ( 27268 PWs)   bands (ev):

   -46.1117 -46.1117 -46.1110 -46.1110 -46.1107 -46.1107 -46.1100 -46.1100
   -22.4230 -22.4229 -22.4209 -22.4209 -22.4204 -22.4203 -22.4187 -22.4187
   -22.3893 -22.3893 -22.3872 -22.3871 -22.3839 -22.3838 -22.3812 -22.3812
   -22.3461 -22.3461 -22.3441 -22.3441 -22.3400 -22.3400 -22.3386 -22.3385
   -14.3845 -14.3844 -14.3143 -14.3142 -14.2954 -14.2953 -14.2430 -14.2429
    -6.5304  -6.5303  -6.4747  -6.4746  -6.4358  -6.4357  -6.0961  -6.0960
    -5.8672  -5.8671  -5.8453  -5.8453  -5.8117  -5.8116  -5.7818  -5.7816
    -5.6884  -5.6883  -5.6703  -5.6702  -5.6660  -5.6659  -5.6450  -5.6448
    -0.0198  -0.0197   0.0314   0.0315   0.2974   0.2975   0.3399   0.3399
     0.3675   0.3676   0.3938   0.3938   0.4175   0.4175   0.4436   0.4436
     0.4937   0.4937   0.6645   0.6645   0.6669   0.6669   0.6819   0.6819
     6.2283   6.2284   6.3571   6.3572   6.5097   6.5098   6.7458   6.7459
     6.9706   6.9706   7.0046   7.0047   7.0819   7.0821   7.1345   7.1345
     7.2143   7.2144   7.2868   7.2869   7.3637   7.3638   7.6051   7.6052
     7.6608   7.6608   7.6713   7.6714   7.8512   7.8513   7.8633   7.8633
     7.9345   7.9346   7.9900   7.9901   8.0917   8.0918   8.2077   8.2078
     8.3852   8.3853   8.5383   8.5384   8.7843   8.7843   9.0375   9.0375
     9.1279   9.1279   9.2116   9.2116   9.2537   9.2537   9.3329   9.3330
     9.3833   9.3833   9.5876   9.5876   9.6681   9.6681   9.7050   9.7050
     9.7430   9.7431   9.7530   9.7530   9.7914   9.7915  10.2252  10.2254
    12.6516  12.6517  13.3228  13.3229  13.3421  13.3422  13.3741  13.3742
    13.4494  13.4495  13.7689  13.7689  13.9262  13.9263  13.9628  13.9628
    14.0853  14.0854  14.1167  14.1168  14.2226  14.2227  14.3587  14.3587
    14.8658  14.8658  15.2645  15.2645  15.6011  15.6011  15.9094  15.9095
    16.4908  16.4910  16.5751  16.5752  16.8697  16.8699  16.9121  16.9122

          k = 0.1250 0.3750 0.0000 ( 27250 PWs)   bands (ev):

   -46.1120 -46.1116 -46.1111 -46.1110 -46.1107 -46.1106 -46.1101 -46.1097
   -22.4462 -22.4449 -22.4432 -22.4422 -22.3985 -22.3977 -22.3966 -22.3958
   -22.3902 -22.3889 -22.3874 -22.3864 -22.3766 -22.3738 -22.3738 -22.3716
   -22.3559 -22.3536 -22.3536 -22.3516 -22.3406 -22.3398 -22.3387 -22.3380
   -14.4169 -14.3712 -14.3191 -14.3172 -14.2891 -14.2869 -14.2491 -14.2227
    -6.6586  -6.6188  -6.5653  -6.5455  -6.4335  -6.3291  -6.0060  -5.8747
    -5.8524  -5.8511  -5.8327  -5.8080  -5.8028  -5.7809  -5.7785  -5.7662
    -5.7529  -5.7416  -5.7271  -5.6920  -5.6815  -5.6596  -5.6277  -5.6008
    -0.1704  -0.0850   0.0081   0.0924   0.1708   0.3311   0.3452   0.3842
     0.4010   0.4055   0.4221   0.4396   0.4606   0.4685   0.4708   0.4894
     0.5286   0.5874   0.6129   0.6241   0.6420   0.6535   0.6603   0.6675
     6.0942   6.1310   6.2432   6.2906   6.3076   6.4015   6.5874   6.5988
     6.6191   6.7583   6.8614   6.8889   6.9429   7.0143   7.0236   7.1497
     7.3242   7.4357   7.4611   7.5165   7.5339   7.6117   7.6416   7.6464
     7.6478   7.6651   7.7414   7.7976   7.8196   7.8255   7.8810   7.8832
     7.9346   7.9422   7.9631   8.0224   8.0542   8.1372   8.3405   8.3617
     8.6059   8.6848   8.7098   8.7272   8.8309   8.8507   8.9087   8.9179
     8.9663   9.0945   9.0963   9.1496   9.2110   9.2839   9.2870   9.3773
     9.4037   9.4276   9.4791   9.4979   9.6328   9.6595   9.6865   9.6886
     9.8102   9.8930   9.9353   9.9542  10.0252  10.0993  10.1712  10.1968
    12.5981  12.6509  12.8876  12.9353  12.9841  12.9948  13.4925  13.5141
    13.5350  13.5599  13.9378  13.9567  13.9712  13.9970  14.0209  14.0214
    14.1009  14.1435  14.1453  14.1641  14.3481  14.3758  14.4115  14.5060
    14.6562  14.6657  14.9870  15.0914  15.1297  15.3362  15.3531  15.9793
    16.0646  16.1744  16.2044  16.7703  16.8577  16.9384  16.9579  17.0821

          k = 0.1250 0.3750 0.1236 ( 27248 PWs)   bands (ev):

   -46.1119 -46.1115 -46.1111 -46.1110 -46.1107 -46.1106 -46.1101 -46.1097
   -22.4444 -22.4431 -22.4414 -22.4404 -22.4003 -22.3995 -22.3983 -22.3976
   -22.3901 -22.3888 -22.3875 -22.3865 -22.3765 -22.3739 -22.3737 -22.3717
   -22.3558 -22.3537 -22.3535 -22.3517 -22.3405 -22.3397 -22.3388 -22.3380
   -14.4133 -14.3682 -14.3229 -14.3146 -14.2923 -14.2845 -14.2517 -14.2252
    -6.6434  -6.6003  -6.5564  -6.5386  -6.4149  -6.3353  -6.0463  -5.8781
    -5.8639  -5.8523  -5.8424  -5.8334  -5.8051  -5.7785  -5.7676  -5.7618
    -5.7438  -5.7421  -5.7230  -5.6884  -5.6801  -5.6651  -5.6304  -5.6046
    -0.1535  -0.0995   0.0664   0.1086   0.1588   0.3167   0.3300   0.3966
     0.4017   0.4051   0.4107   0.4162   0.4219   0.4579   0.4725   0.4815
     0.5539   0.5570   0.5748   0.6521   0.6640   0.6649   0.6660   0.6731
     6.1313   6.1678   6.2927   6.3065   6.3466   6.3963   6.6121   6.6248
     6.6493   6.7843   6.8711   6.8759   6.9463   7.0201   7.0331   7.1715
     7.2981   7.4210   7.4661   7.4896   7.5521   7.6021   7.6515   7.6551
     7.6688   7.6809   7.7073   7.7760   7.8350   7.8397   7.8775   7.8876
     7.8933   7.9356   7.9444   8.0420   8.0628   8.0672   8.2066   8.3610
     8.5374   8.6416   8.6624   8.7014   8.8324   8.8959   8.9414   8.9734
     8.9750   9.1301   9.1452   9.1684   9.1717   9.2641   9.2968   9.3910
     9.4004   9.4056   9.4668   9.5346   9.5885   9.6464   9.6499   9.6930
     9.7901   9.8582   9.8943   9.9493  10.0214  10.0960  10.1455  10.1726
    12.6548  12.7091  12.8962  12.9646  12.9797  13.0418  13.4967  13.5239
    13.5565  13.5672  13.9468  13.9472  13.9725  13.9728  13.9730  13.9776
    14.0868  14.1094  14.1253  14.1513  14.3301  14.3493  14.3837  14.4781
    14.7364  14.7433  15.0909  15.0949  15.2496  15.3494  15.3689  16.0164
    16.1191  16.2059  16.2438  16.7814  16.8833  16.8945  16.9837  17.4890

          k = 0.1250 0.3750 0.2473 ( 27248 PWs)   bands (ev):

   -46.1118 -46.1114 -46.1112 -46.1109 -46.1108 -46.1105 -46.1102 -46.1098
   -22.4393 -22.4380 -22.4364 -22.4354 -22.4056 -22.4046 -22.4034 -22.4026
   -22.3898 -22.3886 -22.3878 -22.3867 -22.3762 -22.3742 -22.3735 -22.3719
   -22.3556 -22.3540 -22.3533 -22.3519 -22.3403 -22.3395 -22.3390 -22.3382
   -14.4029 -14.3594 -14.3337 -14.3073 -14.3013 -14.2776 -14.2592 -14.2323
    -6.6005  -6.5466  -6.5337  -6.5212  -6.3611  -6.3577  -6.1361  -5.9563
    -5.8862  -5.8600  -5.8531  -5.8066  -5.8030  -5.7977  -5.7771  -5.7496
    -5.7470  -5.7188  -5.7162  -5.6791  -5.6791  -5.6761  -5.6384  -5.6155
    -0.1189  -0.0745   0.1403   0.1607   0.1816   0.2361   0.3293   0.3301
     0.3340   0.3731   0.3909   0.4172   0.4209   0.4765   0.4802   0.4869
     0.4927   0.5268   0.6097   0.6338   0.6750   0.6768   0.6875   0.7007
     6.2102   6.2468   6.3039   6.3829   6.4233   6.5052   6.7067   6.7237
     6.7388   6.8391   6.8531   6.9065   6.9608   7.0143   7.0988   7.2238
     7.2342   7.3725   7.4021   7.4754   7.5657   7.5787   7.6073   7.6307
     7.6540   7.7150   7.7462   7.7480   7.7610   7.8714   7.8743   7.8901
     7.8996   7.9190   7.9231   7.9648   7.9872   8.0938   8.1076   8.3318
     8.3732   8.4069   8.5654   8.5818   8.8220   8.8718   8.8866   9.1289
     9.1319   9.1378   9.1980   9.2137   9.2310   9.2553   9.3277   9.3595
     9.4170   9.4345   9.4415   9.5009   9.6023   9.6088   9.6284   9.6755
     9.7244   9.7897   9.8105   9.9298   9.9843  10.0658  10.0880  10.1182
    12.7970  12.8693  12.9323  12.9672  13.0564  13.1719  13.5071  13.5455
    13.5595  13.6565  13.8065  13.8355  13.8360  13.9714  13.9714  13.9992
    14.0202  14.0209  14.0844  14.1734  14.2373  14.3100  14.3187  14.4039
    14.9022  14.9247  15.0883  15.3355  15.3755  15.5019  15.5736  16.1417
    16.1980  16.2739  16.4484  16.7210  16.8217  16.9991  17.0004  17.3076

          k = 0.1250 0.3750 0.3709 ( 27255 PWs)   bands (ev):

   -46.1117 -46.1114 -46.1113 -46.1109 -46.1107 -46.1104 -46.1103 -46.1100
   -22.4316 -22.4304 -22.4289 -22.4279 -22.4133 -22.4123 -22.4110 -22.4102
   -22.3893 -22.3882 -22.3881 -22.3871 -22.3758 -22.3747 -22.3731 -22.3723
   -22.3552 -22.3543 -22.3530 -22.3522 -22.3400 -22.3393 -22.3392 -22.3385
   -14.3872 -14.3498 -14.3462 -14.3148 -14.2964 -14.2704 -14.2673 -14.2427
    -6.5373  -6.5091  -6.5030  -6.4633  -6.4021  -6.2781  -6.2458  -6.0637
    -5.8903  -5.8688  -5.8575  -5.8455  -5.7893  -5.7890  -5.7722  -5.7551
    -5.7329  -5.7112  -5.7111  -5.6947  -5.6699  -5.6660  -5.6499  -5.6315
    -0.0685   0.0077   0.1253   0.1502   0.2273   0.2316   0.2507   0.3160
     0.3347   0.3601   0.3756   0.3812   0.4116   0.4328   0.4804   0.4818
     0.4861   0.5602   0.5644   0.6593   0.6681   0.6909   0.7006   0.7087
     6.2686   6.3006   6.3089   6.3650   6.5792   6.7384   6.7816   6.8739
     6.8896   6.8913   6.9173   7.0047   7.0178   7.0442   7.1162   7.2347
     7.2382   7.2933   7.3306   7.3425   7.4500   7.5435   7.5522   7.5679
     7.5989   7.6584   7.6969   7.7462   7.8255   7.8620   7.8706   7.8740
     7.8926   7.9079   7.9273   7.9430   7.9930   8.1453   8.1683   8.1820
     8.1853   8.2483   8.4047   8.4354   8.7852   8.8004   8.8643   9.0045
     9.1498   9.2341   9.2642   9.2957   9.2971   9.3546   9.3729   9.4059
     9.4246   9.4669   9.4753   9.5039   9.6120   9.6348   9.6399   9.6471
     9.6829   9.6851   9.7818   9.8691   9.8834   9.9274  10.0795  10.0845
    12.8904  12.9480  13.0931  13.0970  13.2107  13.3595  13.5155  13.5221
    13.5972  13.6307  13.6353  13.6441  13.7872  13.7889  13.8809  14.0017
    14.0454  14.0603  14.0942  14.0984  14.2073  14.2137  14.2747  14.3101
    15.0123  15.0801  15.1126  15.3031  15.7197  15.7796  16.0159  16.1469
    16.3776  16.4623  16.5094  16.7730  16.8422  16.9163  17.0330  17.3777

          k = 0.1250 0.3750-0.4946 ( 27260 PWs)   bands (ev):

   -46.1115 -46.1115 -46.1111 -46.1111 -46.1106 -46.1106 -46.1102 -46.1102
   -22.4225 -22.4225 -22.4214 -22.4214 -22.4200 -22.4200 -22.4191 -22.4191
   -22.3888 -22.3888 -22.3877 -22.3876 -22.3752 -22.3752 -22.3727 -22.3727
   -22.3548 -22.3548 -22.3526 -22.3526 -22.3397 -22.3397 -22.3389 -22.3389
   -14.3686 -14.3685 -14.3306 -14.3305 -14.2835 -14.2834 -14.2551 -14.2550
    -6.4967  -6.4966  -6.4662  -6.4660  -6.3593  -6.3592  -6.1751  -6.1750
    -5.8781  -5.8781  -5.8653  -5.8652  -5.7844  -5.7843  -5.7643  -5.7641
    -5.7177  -5.7176  -5.7055  -5.7054  -5.6614  -5.6612  -5.6496  -5.6495
     0.0160   0.0160   0.1142   0.1142   0.1873   0.1873   0.3200   0.3201
     0.3513   0.3514   0.3626   0.3626   0.4488   0.4488   0.4553   0.4553
     0.4823   0.4823   0.6291   0.6291   0.6944   0.6944   0.7008   0.7008
     6.2928   6.2929   6.3428   6.3429   6.7002   6.7003   6.9364   6.9365
     7.0015   7.0016   7.0017   7.0017   7.1005   7.1006   7.1161   7.1161
     7.2390   7.2391   7.3427   7.3428   7.4443   7.4444   7.4526   7.4527
     7.5316   7.5317   7.7741   7.7742   7.7978   7.7979   7.8782   7.8783
     7.9218   7.9218   8.0018   8.0018   8.0085   8.0085   8.1241   8.1242
     8.2668   8.2669   8.2962   8.2963   8.7619   8.7620   8.9022   8.9022
     9.2182   9.2183   9.2975   9.2975   9.3298   9.3298   9.3779   9.3779
     9.4939   9.4939   9.5441   9.5441   9.6105   9.6107   9.6932   9.6932
     9.7296   9.7296   9.7447   9.7447   9.7988   9.7988  10.0761  10.0762
    12.9235  12.9235  13.3462  13.3463  13.3481  13.3481  13.4134  13.4134
    13.5454  13.5454  13.5751  13.5752  13.7415  13.7416  13.9410  13.9410
    14.0317  14.0318  14.1197  14.1197  14.1874  14.1875  14.2496  14.2497
    15.0601  15.0601  15.2366  15.2366  15.9988  15.9989  16.1312  16.1313
    16.4754  16.4756  16.6999  16.7000  16.8002  16.8004  17.1045  17.1046

          k = 0.1250-0.5000 0.0000 ( 27242 PWs)   bands (ev):

   -46.1118 -46.1118 -46.1109 -46.1109 -46.1108 -46.1108 -46.1099 -46.1099
   -22.4456 -22.4456 -22.4427 -22.4427 -22.3981 -22.3981 -22.3962 -22.3962
   -22.3896 -22.3896 -22.3869 -22.3869 -22.3663 -22.3663 -22.3638 -22.3638
   -22.3637 -22.3637 -22.3616 -22.3616 -22.3402 -22.3402 -22.3384 -22.3384
   -14.3942 -14.3942 -14.3042 -14.3041 -14.3021 -14.3021 -14.2360 -14.2359
    -6.6064  -6.6064  -6.5275  -6.5274  -6.4410  -6.4410  -5.9017  -5.9016
    -5.8617  -5.8617  -5.8208  -5.8208  -5.7901  -5.7901  -5.7859  -5.7858
    -5.7342  -5.7342  -5.7283  -5.7282  -5.6601  -5.6601  -5.6419  -5.6419
    -0.0427  -0.0427   0.0418   0.0418   0.1905   0.1905   0.3649   0.3649
     0.3890   0.3890   0.4332   0.4332   0.4549   0.4549   0.5391   0.5392
     0.5542   0.5542   0.5933   0.5933   0.6302   0.6303   0.6387   0.6387
     6.1209   6.1210   6.2699   6.2699   6.3615   6.3615   6.5955   6.5955
     6.8597   6.8597   7.0170   7.0171   7.1469   7.1469   7.1998   7.1998
     7.2138   7.2138   7.2931   7.2931   7.3684   7.3684   7.6442   7.6443
     7.6551   7.6551   7.8423   7.8423   7.8503   7.8503   7.8894   7.8894
     7.9334   7.9334   7.9420   7.9420   8.0199   8.0200   8.4630   8.4630
     8.5350   8.5350   8.7049   8.7049   8.9831   8.9831   8.9846   8.9846
     8.9951   8.9951   9.0506   9.0506   9.0773   9.0773   9.3196   9.3196
     9.3454   9.3454   9.6428   9.6428   9.7592   9.7592   9.7752   9.7752
     9.7851   9.7851   9.8457   9.8457   9.9109   9.9109  10.1832  10.1832
    12.6253  12.6253  13.1960  13.1960  13.2216  13.2216  13.2576  13.2576
    13.2792  13.2793  13.9493  13.9493  14.0127  14.0127  14.0422  14.0422
    14.0736  14.0736  14.2201  14.2202  14.2539  14.2539  14.4587  14.4587
    14.6622  14.6622  15.0884  15.0884  15.2555  15.2555  15.6893  15.6894
    16.4655  16.4655  16.5956  16.5956  16.6429  16.6429  17.1314  17.1314

          k = 0.1250-0.5000 0.1236 ( 27254 PWs)   bands (ev):

   -46.1117 -46.1117 -46.1109 -46.1109 -46.1108 -46.1108 -46.1099 -46.1099
   -22.4438 -22.4438 -22.4409 -22.4409 -22.3999 -22.3999 -22.3980 -22.3980
   -22.3895 -22.3895 -22.3870 -22.3870 -22.3662 -22.3662 -22.3638 -22.3638
   -22.3636 -22.3636 -22.3617 -22.3617 -22.3401 -22.3401 -22.3384 -22.3384
   -14.3908 -14.3908 -14.3077 -14.3076 -14.2996 -14.2996 -14.2385 -14.2385
    -6.5941  -6.5941  -6.5089  -6.5088  -6.4391  -6.4390  -5.9509  -5.9509
    -5.8634  -5.8634  -5.8048  -5.8048  -5.7947  -5.7947  -5.7823  -5.7823
    -5.7315  -5.7315  -5.7313  -5.7313  -5.6596  -5.6596  -5.6431  -5.6431
    -0.0265  -0.0265   0.0265   0.0265   0.2388   0.2388   0.3569   0.3569
     0.3616   0.3616   0.4287   0.4287   0.4399   0.4399   0.4945   0.4945
     0.5381   0.5381   0.6163   0.6163   0.6521   0.6521   0.6557   0.6557
     6.1584   6.1584   6.3231   6.3231   6.3581   6.3581   6.6207   6.6207
     6.8868   6.8868   7.0191   7.0191   7.1361   7.1361   7.1809   7.1809
     7.2194   7.2195   7.3106   7.3106   7.3682   7.3682   7.6484   7.6484
     7.6772   7.6772   7.8025   7.8025   7.8607   7.8607   7.8674   7.8674
     7.9383   7.9384   7.9538   7.9538   7.9880   7.9880   8.3722   8.3722
     8.5053   8.5053   8.6572   8.6572   8.9306   8.9306   9.0345   9.0345
     9.0501   9.0501   9.0860   9.0860   9.0963   9.0963   9.3036   9.3037
     9.3598   9.3598   9.6283   9.6283   9.7336   9.7336   9.7499   9.7499
     9.7676   9.7676   9.8504   9.8504   9.9044   9.9044  10.1556  10.1556
    12.6836  12.6836  13.2022  13.2022  13.2383  13.2383  13.2754  13.2754
    13.2968  13.2969  13.9623  13.9623  13.9635  13.9635  14.0291  14.0291
    14.0493  14.0493  14.2021  14.2021  14.2241  14.2241  14.4308  14.4308
    14.7415  14.7415  15.2048  15.2048  15.2532  15.2532  15.7241  15.7241
    16.5085  16.5085  16.6522  16.6523  16.6656  16.6656  17.1335  17.1335

          k = 0.1250-0.5000 0.2473 ( 27230 PWs)   bands (ev):

   -46.1116 -46.1116 -46.1110 -46.1110 -46.1107 -46.1107 -46.1100 -46.1100
   -22.4387 -22.4387 -22.4359 -22.4359 -22.4051 -22.4051 -22.4030 -22.4030
   -22.3892 -22.3892 -22.3873 -22.3873 -22.3659 -22.3659 -22.3641 -22.3641
   -22.3634 -22.3634 -22.3619 -22.3619 -22.3399 -22.3399 -22.3386 -22.3386
   -14.3813 -14.3812 -14.3176 -14.3176 -14.2925 -14.2925 -14.2458 -14.2458
    -6.5603  -6.5603  -6.4550  -6.4550  -6.4372  -6.4372  -6.0446  -6.0446
    -5.8689  -5.8689  -5.8360  -5.8360  -5.7728  -5.7727  -5.7660  -5.7660
    -5.7374  -5.7373  -5.7303  -5.7303  -5.6588  -5.6588  -5.6463  -5.6463
     0.0002   0.0002   0.0411   0.0412   0.2746   0.2746   0.3386   0.3386
     0.3538   0.3538   0.3933   0.3933   0.4137   0.4137   0.4441   0.4441
     0.5109   0.5109   0.6574   0.6574   0.6598   0.6598   0.6838   0.6838
     6.2379   6.2379   6.3497   6.3497   6.4709   6.4709   6.7191   6.7191
     6.9647   6.9647   7.0234   7.0234   7.1140   7.1140   7.1243   7.1243
     7.2365   7.2365   7.3623   7.3623   7.3689   7.3689   7.6340   7.6340
     7.6571   7.6571   7.7350   7.7350   7.8413   7.8414   7.8850   7.8850
     7.9310   7.9310   7.9561   7.9561   7.9938   7.9938   8.1813   8.1813
     8.4403   8.4404   8.4776   8.4776   8.8543   8.8543   8.9705   8.9705
     9.1654   9.1654   9.1982   9.1982   9.2141   9.2141   9.3038   9.3038
     9.3882   9.3882   9.5801   9.5801   9.6392   9.6392   9.7130   9.7130
     9.7856   9.7856   9.8443   9.8444   9.8883   9.8883  10.0730  10.0730
    12.8431  12.8431  13.2175  13.2175  13.2641  13.2641  13.2961  13.2961
    13.4060  13.4061  13.8241  13.8241  13.9065  13.9065  14.0005  14.0005
    14.0700  14.0700  14.0963  14.0963  14.1965  14.1965  14.3566  14.3566
    14.9210  14.9210  15.2445  15.2445  15.5162  15.5162  15.8479  15.8480
    16.6333  16.6334  16.6543  16.6543  16.8700  16.8701  17.0123  17.0123

          k = 0.1250-0.5000 0.3709 ( 27250 PWs)   bands (ev):

   -46.1115 -46.1115 -46.1112 -46.1112 -46.1105 -46.1105 -46.1102 -46.1102
   -22.4310 -22.4310 -22.4284 -22.4284 -22.4128 -22.4128 -22.4106 -22.4106
   -22.3887 -22.3887 -22.3877 -22.3877 -22.3655 -22.3655 -22.3645 -22.3645
   -22.3631 -22.3631 -22.3623 -22.3623 -22.3396 -22.3396 -22.3389 -22.3389
   -14.3668 -14.3668 -14.3324 -14.3324 -14.2819 -14.2819 -14.2566 -14.2566
    -6.5149  -6.5149  -6.4455  -6.4454  -6.3717  -6.3717  -6.1546  -6.1545
    -5.8768  -5.8768  -5.8650  -5.8650  -5.7606  -5.7606  -5.7518  -5.7517
    -5.7404  -5.7404  -5.7335  -5.7335  -5.6579  -5.6579  -5.6509  -5.6509
     0.0277   0.0277   0.1171   0.1171   0.1754   0.1754   0.3179   0.3179
     0.3468   0.3468   0.3634   0.3634   0.4502   0.4502   0.4546   0.4546
     0.4874   0.4874   0.6257   0.6257   0.6906   0.6906   0.7034   0.7035
     6.2974   6.2974   6.3391   6.3391   6.6758   6.6758   6.9107   6.9107
     7.0269   7.0269   7.0272   7.0272   7.0854   7.0854   7.1094   7.1094
     7.2593   7.2593   7.3478   7.3478   7.4524   7.4524   7.4819   7.4819
     7.5309   7.5309   7.7854   7.7854   7.8056   7.8056   7.8954   7.8954
     7.8960   7.8960   7.9937   7.9937   8.0065   8.0065   8.0740   8.0740
     8.2529   8.2529   8.3302   8.3302   8.7983   8.7983   8.8588   8.8588
     9.2444   9.2444   9.2876   9.2876   9.3119   9.3119   9.4080   9.4080
     9.4746   9.4746   9.4936   9.4936   9.5199   9.5199   9.7429   9.7429
     9.7961   9.7961   9.8186   9.8186   9.8719   9.8719   9.9460   9.9460
    13.0608  13.0608  13.2450  13.2450  13.2484  13.2484  13.4029  13.4029
    13.5646  13.5646  13.6165  13.6165  13.7357  13.7357  13.9349  13.9349
    14.0604  14.0604  14.1039  14.1039  14.1637  14.1638  14.2588  14.2588
    15.0834  15.0834  15.2231  15.2231  15.9295  15.9295  16.0922  16.0922
    16.5753  16.5753  16.7492  16.7492  16.8273  16.8274  17.1649  17.1649

          k = 0.1250-0.5000-0.4946 ( 27268 PWs)   bands (ev):

   -46.1113 -46.1113 -46.1113 -46.1113 -46.1104 -46.1104 -46.1104 -46.1104
   -22.4219 -22.4219 -22.4219 -22.4219 -22.4195 -22.4195 -22.4195 -22.4195
   -22.3882 -22.3882 -22.3882 -22.3882 -22.3650 -22.3650 -22.3650 -22.3650
   -22.3627 -22.3627 -22.3627 -22.3627 -22.3393 -22.3393 -22.3393 -22.3393
   -14.3497 -14.3497 -14.3496 -14.3496 -14.2693 -14.2693 -14.2693 -14.2692
    -6.4723  -6.4723  -6.4721  -6.4721  -6.2678  -6.2678  -6.2677  -6.2677
    -5.8788  -5.8788  -5.8788  -5.8788  -5.7515  -5.7514  -5.7514  -5.7513
    -5.7383  -5.7383  -5.7382  -5.7382  -5.6555  -5.6555  -5.6553  -5.6553
     0.0875   0.0875   0.0875   0.0875   0.2148   0.2148   0.2149   0.2149
     0.3481   0.3481   0.3482   0.3482   0.4689   0.4689   0.4689   0.4689
     0.5517   0.5517   0.5517   0.5517   0.7067   0.7067   0.7067   0.7067
     6.3250   6.3250   6.3251   6.3251   6.8777   6.8777   6.8778   6.8778
     7.0218   7.0218   7.0219   7.0219   7.2313   7.2313   7.2314   7.2314
     7.2482   7.2482   7.2483   7.2483   7.3583   7.3583   7.3583   7.3584
     7.6459   7.6459   7.6460   7.6460   7.8767   7.8767   7.8767   7.8767
     7.8904   7.8904   7.8905   7.8905   8.0981   8.0981   8.0982   8.0982
     8.1956   8.1957   8.1957   8.1957   8.7923   8.7923   8.7924   8.7924
     9.3093   9.3093   9.3093   9.3093   9.4018   9.4018   9.4019   9.4019
     9.4243   9.4243   9.4244   9.4244   9.6945   9.6945   9.6946   9.6946
     9.7824   9.7824   9.7824   9.7824   9.8714   9.8714   9.8716   9.8716
    13.2087  13.2087  13.2088  13.2088  13.3809  13.3809  13.3810  13.3810
    13.5560  13.5560  13.5560  13.5560  13.7490  13.7491  13.7491  13.7491
    14.1217  14.1217  14.1217  14.1217  14.1642  14.1642  14.1642  14.1642
    15.1772  15.1772  15.1772  15.1772  16.3248  16.3249  16.3250  16.3250
    16.4212  16.4212  16.4213  16.4213  17.0722  17.0723  17.2299  17.2301

          k = 0.2500 0.2500 0.0000 ( 27250 PWs)   bands (ev):

   -46.1120 -46.1113 -46.1113 -46.1111 -46.1106 -46.1104 -46.1104 -46.1097
   -22.4464 -22.4440 -22.4440 -22.4420 -22.3986 -22.3971 -22.3971 -22.3957
   -22.3850 -22.3850 -22.3829 -22.3825 -22.3821 -22.3821 -22.3804 -22.3802
   -22.3471 -22.3466 -22.3452 -22.3452 -22.3449 -22.3447 -22.3434 -22.3434
   -14.4238 -14.3426 -14.3426 -14.3235 -14.2832 -14.2687 -14.2687 -14.2192
    -6.6639  -6.6639  -6.5751  -6.5424  -6.3876  -6.1694  -6.1694  -5.8765
    -5.8567  -5.8567  -5.8318  -5.8318  -5.8023  -5.7841  -5.7645  -5.7549
    -5.7510  -5.7293  -5.7154  -5.7117  -5.7117  -5.6135  -5.6135  -5.6079
    -0.2390  -0.1218  -0.0290   0.2153   0.2153   0.3110   0.3296   0.3297
     0.3653   0.3821   0.4130   0.4481   0.4590   0.4591   0.5224   0.5379
     0.5379   0.5852   0.5853   0.6190   0.6633   0.6786   0.6818   0.6819
     6.1086   6.1986   6.1986   6.2992   6.3290   6.5704   6.5704   6.6001
     6.6001   6.6824   6.7031   6.8020   6.8020   6.8071   6.8129   7.3158
     7.5382   7.5693   7.5693   7.6124   7.6413   7.6491   7.6491   7.6601
     7.6895   7.7095   7.7095   7.7889   7.7889   7.8054   7.8679   7.8679
     7.9045   7.9145   7.9605   7.9902   8.0225   8.2438   8.2438   8.4268
     8.4268   8.6085   8.6916   8.6916   8.6999   8.7635   9.0108   9.0108
     9.1108   9.1136   9.1337   9.2070   9.2171   9.2733   9.3322   9.4169
     9.4169   9.4434   9.4434   9.4754   9.5158   9.5158   9.6060   9.6060
     9.9387   9.9422  10.0399  10.0778  10.0848  10.0848  10.1501  10.1721
    12.6325  12.7671  12.7760  12.7802  12.7802  12.8799  13.7261  13.7527
    13.7527  13.7794  13.7794  13.8412  13.8597  13.8597  13.9834  14.0163
    14.0595  14.0595  14.1559  14.2917  14.2917  14.3731  14.4582  14.4683
    14.8044  14.8311  14.8311  15.1155  15.1393  15.1429  15.7447  15.7447
    15.9476  16.0376  16.3535  16.3535  16.8075  17.2385  17.2706  17.3226

          k = 0.2500 0.2500 0.1236 ( 27245 PWs)   bands (ev):

   -46.1120 -46.1113 -46.1113 -46.1112 -46.1105 -46.1104 -46.1104 -46.1097
   -22.4446 -22.4422 -22.4422 -22.4403 -22.4005 -22.3989 -22.3989 -22.3975
   -22.3849 -22.3849 -22.3828 -22.3824 -22.3822 -22.3822 -22.3805 -22.3803
   -22.3470 -22.3466 -22.3452 -22.3452 -22.3450 -22.3448 -22.3434 -22.3434
   -14.4201 -14.3398 -14.3398 -14.3274 -14.2808 -14.2716 -14.2715 -14.2216
    -6.6466  -6.6466  -6.5666  -6.5349  -6.3692  -6.1893  -6.1893  -5.8811
    -5.8560  -5.8560  -5.8394  -5.8301  -5.8301  -5.8003  -5.7529  -5.7496
    -5.7436  -5.7313  -5.7137  -5.7075  -5.7075  -5.6191  -5.6191  -5.6138
    -0.2189  -0.1357   0.0291   0.2257   0.2257   0.2891   0.3223   0.3223
     0.3661   0.3816   0.3950   0.4003   0.4391   0.4392   0.5219   0.5220
     0.5545   0.5706   0.6022   0.6022   0.6729   0.6960   0.6960   0.6996
     6.1494   6.2418   6.2418   6.3293   6.3556   6.5913   6.5913   6.5915
     6.5915   6.7035   6.7373   6.8070   6.8124   6.8251   6.8251   7.3250
     7.5272   7.5322   7.5322   7.6211   7.6241   7.6542   7.6542   7.6880
     7.6902   7.6902   7.6985   7.8065   7.8065   7.8122   7.8684   7.8684
     7.9029   7.9066   7.9428   7.9468   8.0363   8.1420   8.1420   8.4353
     8.4353   8.5819   8.6068   8.6855   8.7726   8.7726   9.0365   9.0365
     9.0439   9.1273   9.1523   9.2433   9.2502   9.3014   9.3593   9.3849
     9.3849   9.4042   9.4042   9.4907   9.5452   9.5452   9.5665   9.5665
     9.8982   9.9186  10.0041  10.0443  10.0679  10.0679  10.1542  10.1699
    12.6750  12.7959  12.8067  12.8338  12.8338  12.8748  13.7542  13.7590
    13.7590  13.7866  13.7866  13.8546  13.8546  13.8604  13.9325  13.9671
    14.0133  14.0133  14.1640  14.2595  14.2595  14.3625  14.4267  14.4382
    14.9139  14.9252  14.9252  15.1169  15.1381  15.2634  15.7420  15.7420
    16.0054  16.1037  16.3778  16.3778  16.7519  17.2338  17.3118  17.3595

          k = 0.2500 0.2500 0.2473 ( 27249 PWs)   bands (ev):

   -46.1119 -46.1113 -46.1112 -46.1112 -46.1105 -46.1105 -46.1104 -46.1098
   -22.4395 -22.4372 -22.4372 -22.4353 -22.4057 -22.4040 -22.4040 -22.4025
   -22.3846 -22.3846 -22.3825 -22.3825 -22.3825 -22.3821 -22.3808 -22.3805
   -22.3467 -22.3464 -22.3452 -22.3450 -22.3450 -22.3450 -22.3436 -22.3436
   -14.4094 -14.3385 -14.3320 -14.3319 -14.2797 -14.2797 -14.2739 -14.2287
    -6.5966  -6.5966  -6.5445  -6.5170  -6.3161  -6.2463  -6.2463  -5.9249
    -5.8899  -5.8504  -5.8503  -5.8264  -5.8264  -5.7948  -5.7817  -5.7586
    -5.7344  -5.7090  -5.7084  -5.6985  -5.6985  -5.6345  -5.6345  -5.6305
    -0.1613  -0.1259   0.1468   0.2272   0.2530   0.2530   0.2874   0.3134
     0.3134   0.3682   0.3745   0.3801   0.3926   0.3926   0.4850   0.4850
     0.5035   0.6151   0.6358   0.6412   0.6412   0.7179   0.7179   0.7317
     6.2394   6.3309   6.3420   6.3420   6.5158   6.5674   6.5674   6.6681
     6.6681   6.7915   6.8069   6.8112   6.8345   6.9026   6.9026   7.3640
     7.4070   7.4070   7.4808   7.4971   7.6537   7.6537   7.6590   7.6635
     7.6635   7.7045   7.7941   7.7941   7.8126   7.8298   7.8402   7.8599
     7.8599   7.8819   7.8979   7.9099   8.0638   8.0638   8.0765   8.3547
     8.4557   8.4557   8.5018   8.5274   8.7307   8.7307   8.9639   9.1459
     9.1729   9.1994   9.1994   9.2290   9.3020   9.3020   9.3098   9.3867
     9.3867   9.4249   9.4372   9.5032   9.5032   9.5353   9.5534   9.5534
     9.8104   9.8623   9.9006   9.9589  10.0136  10.0136  10.1566  10.1646
    12.7421  12.8602  12.9017  12.9240  12.9816  12.9816  13.7743  13.7743
    13.7897  13.8126  13.8126  13.8271  13.8288  13.8289  13.8319  13.8937
    13.8937  13.9160  14.1737  14.1737  14.1874  14.3224  14.3430  14.3657
    15.1204  15.1353  15.1585  15.1585  15.2031  15.5900  15.7287  15.7287
    16.1706  16.2988  16.4632  16.4632  16.5878  17.1583  17.3600  17.4086

          k = 0.2500 0.2500 0.3709 ( 27245 PWs)   bands (ev):

   -46.1117 -46.1114 -46.1110 -46.1110 -46.1107 -46.1107 -46.1103 -46.1099
   -22.4318 -22.4296 -22.4296 -22.4278 -22.4135 -22.4117 -22.4117 -22.4101
   -22.3841 -22.3841 -22.3830 -22.3830 -22.3821 -22.3818 -22.3812 -22.3809
   -22.3464 -22.3460 -22.3456 -22.3453 -22.3446 -22.3446 -22.3439 -22.3439
   -14.3933 -14.3549 -14.3201 -14.3201 -14.2918 -14.2918 -14.2636 -14.2391
    -6.5201  -6.5201  -6.5181  -6.5011  -6.3306  -6.3306  -6.2344  -6.0265
    -5.8908  -5.8388  -5.8388  -5.8302  -5.8243  -5.8243  -5.7866  -5.7670
    -5.7113  -5.7032  -5.6991  -5.6879  -5.6879  -5.6551  -5.6548  -5.6548
    -0.0742  -0.0708   0.1359   0.1526   0.2806   0.2806   0.2875   0.3309
     0.3309   0.3430   0.3430   0.3712   0.3740   0.3777   0.4355   0.4355
     0.4428   0.5521   0.6745   0.6829   0.6829   0.7260   0.7260   0.7388
     6.3074   6.3336   6.4322   6.4322   6.5332   6.5332   6.7531   6.8072
     6.8096   6.8184   6.8184   6.9764   6.9840   7.0591   7.0591   7.2146
     7.2146   7.2893   7.3889   7.4457   7.5344   7.5344   7.6326   7.6718
     7.6718   7.7059   7.7085   7.7085   7.7140   7.8386   7.8520   7.8881
     7.9002   7.9369   7.9369   7.9879   8.0451   8.0451   8.0708   8.1420
     8.3673   8.3675   8.4798   8.4798   8.6055   8.6055   8.9195   9.0157
     9.2354   9.2508   9.2508   9.2838   9.2838   9.3259   9.3703   9.3999
     9.3999   9.5186   9.5186   9.5434   9.5551   9.5797   9.5797   9.6045
     9.7288   9.7420   9.7813   9.8373   9.9135   9.9135  10.1557  10.1589
    12.7797  12.8379  13.1098  13.1133  13.1935  13.1935  13.5803  13.6169
    13.6675  13.6675  13.7939  13.7939  13.8389  13.8389  13.8665  13.8665
    13.9452  14.0025  14.0610  14.0610  14.2155  14.2228  14.2303  14.3115
    15.1245  15.1319  15.4148  15.4148  15.5855  15.6892  15.6892  16.0383
    16.3238  16.4217  16.6111  16.6413  16.6413  16.9132  17.2466  17.2468

          k = 0.2500 0.2500-0.4946 ( 27298 PWs)   bands (ev):

   -46.1116 -46.1116 -46.1109 -46.1109 -46.1108 -46.1108 -46.1101 -46.1101
   -22.4227 -22.4226 -22.4207 -22.4207 -22.4207 -22.4207 -22.4190 -22.4189
   -22.3836 -22.3835 -22.3835 -22.3835 -22.3816 -22.3816 -22.3813 -22.3813
   -22.3460 -22.3460 -22.3457 -22.3457 -22.3443 -22.3443 -22.3443 -22.3443
   -14.3743 -14.3742 -14.3061 -14.3060 -14.3060 -14.3059 -14.2515 -14.2514
    -6.5005  -6.5004  -6.4271  -6.4271  -6.4270  -6.4270  -6.1339  -6.1338
    -5.8712  -5.8711  -5.8282  -5.8282  -5.8281  -5.8281  -5.7769  -5.7767
    -5.6988  -5.6987  -5.6836  -5.6834  -5.6739  -5.6739  -5.6738  -5.6738
     0.0263   0.0263   0.0299   0.0300   0.3050   0.3050   0.3051   0.3051
     0.3745   0.3746   0.3798   0.3799   0.3799   0.3799   0.3975   0.3976
     0.4297   0.4297   0.7137   0.7137   0.7137   0.7137   0.7185   0.7185
     6.3312   6.3313   6.4906   6.4906   6.4906   6.4906   6.8081   6.8082
     7.0092   7.0092   7.0093   7.0093   7.0267   7.0268   7.1061   7.1061
     7.2971   7.2971   7.2972   7.2972   7.4144   7.4145   7.5662   7.5663
     7.6826   7.6826   7.6827   7.6827   7.7790   7.7791   7.8725   7.8725
     7.9342   7.9343   8.0072   8.0072   8.0073   8.0073   8.1852   8.1852
     8.2370   8.2371   8.5185   8.5185   8.5185   8.5185   8.9312   8.9313
     9.2531   9.2531   9.2531   9.2532   9.2945   9.2946   9.4562   9.4562
     9.4563   9.4563   9.5534   9.5534   9.6450   9.6450   9.6904   9.6905
     9.6956   9.6956   9.7622   9.7622   9.7622   9.7622  10.1556  10.1558
    12.8103  12.8104  13.3403  13.3404  13.3667  13.3668  13.4340  13.4340
    13.4341  13.4341  13.8156  13.8156  13.8156  13.8157  13.9516  13.9516
    13.9516  13.9516  14.0791  14.0791  14.1112  14.1112  14.2657  14.2658
    15.1283  15.1284  15.5957  15.5957  15.5957  15.5957  15.9782  15.9784
    16.5111  16.5113  16.7289  16.7291  16.9224  16.9224  16.9225  16.9225

          k = 0.2500 0.3750 0.0000 ( 27252 PWs)   bands (ev):

   -46.1119 -46.1115 -46.1111 -46.1110 -46.1107 -46.1106 -46.1102 -46.1098
   -22.4459 -22.4446 -22.4436 -22.4425 -22.3983 -22.3975 -22.3968 -22.3960
   -22.3845 -22.3832 -22.3817 -22.3807 -22.3763 -22.3741 -22.3736 -22.3719
   -22.3557 -22.3538 -22.3534 -22.3519 -22.3465 -22.3456 -22.3445 -22.3437
   -14.4054 -14.3615 -14.3291 -14.3110 -14.2970 -14.2814 -14.2574 -14.2306
    -6.6222  -6.5974  -6.5534  -6.4904  -6.4462  -6.2733  -6.0835  -5.8701
    -5.8585  -5.8387  -5.8377  -5.8272  -5.8111  -5.7955  -5.7878  -5.7662
    -5.7581  -5.7357  -5.7120  -5.7056  -5.6865  -5.6794  -5.6454  -5.6286
    -0.1608  -0.0208   0.0886   0.1206   0.2226   0.2319   0.3179   0.3265
     0.3698   0.4019   0.4076   0.4233   0.4402   0.4485   0.5073   0.5129
     0.5655   0.5783   0.5812   0.6123   0.6358   0.6442   0.6474   0.6622
     6.1610   6.1961   6.2469   6.2864   6.4313   6.5584   6.6703   6.6880
     6.7149   6.8484   6.8955   6.9137   6.9884   7.0122   7.0294   7.0977
     7.3569   7.3741   7.4287   7.5151   7.5646   7.5897   7.6088   7.6296
     7.6457   7.7044   7.7138   7.7989   7.8184   7.8302   7.8453   7.8915
     7.9161   7.9510   7.9748   7.9825   8.0507   8.1390   8.1822   8.3347
     8.4320   8.5565   8.6106   8.6207   8.6580   8.7261   8.8842   9.0139
     9.0411   9.0669   9.1417   9.1795   9.1889   9.3026   9.3388   9.4087
     9.4420   9.4501   9.4840   9.5372   9.5804   9.6203   9.6923   9.7178
     9.8269   9.8760   9.9173   9.9226   9.9481  10.0748  10.0882  10.1122
    12.6957  12.7581  12.9493  12.9808  12.9988  13.1157  13.5091  13.5150
    13.5415  13.6425  13.7710  13.7993  13.8235  13.9675  14.0031  14.0312
    14.0412  14.0459  14.1305  14.1903  14.2435  14.3311  14.3501  14.4243
    14.8406  14.8413  14.9978  15.1381  15.3821  15.4836  15.6936  16.1375
    16.1952  16.2857  16.3360  16.6356  16.9865  17.0022  17.0369  17.3330

          k = 0.2500 0.3750 0.1236 ( 27243 PWs)   bands (ev):

   -46.1118 -46.1114 -46.1111 -46.1110 -46.1107 -46.1106 -46.1103 -46.1099
   -22.4441 -22.4428 -22.4418 -22.4407 -22.4001 -22.3993 -22.3986 -22.3978
   -22.3843 -22.3831 -22.3818 -22.3808 -22.3762 -22.3740 -22.3737 -22.3719
   -22.3556 -22.3538 -22.3535 -22.3519 -22.3464 -22.3455 -22.3446 -22.3438
   -14.4019 -14.3585 -14.3264 -14.3147 -14.2945 -14.2845 -14.2602 -14.2332
    -6.6067  -6.5798  -6.5432  -6.4848  -6.4280  -6.2806  -6.1060  -5.9099
    -5.8629  -5.8373  -5.8352  -5.8352  -5.8089  -5.7867  -5.7760  -5.7720
    -5.7619  -5.7370  -5.7102  -5.7054  -5.6852  -5.6837  -5.6490  -5.6332
    -0.1430  -0.0369   0.1025   0.1743   0.2069   0.2388   0.3057   0.3196
     0.3684   0.3859   0.3869   0.4143   0.4150   0.4482   0.4763   0.4822
     0.5128   0.5293   0.6126   0.6349   0.6707   0.6821   0.6844   0.6889
     6.2061   6.2402   6.2956   6.3404   6.4282   6.5504   6.6814   6.7074
     6.7273   6.8348   6.9056   6.9304   6.9958   7.0074   7.0486   7.1123
     7.3407   7.3639   7.3969   7.5331   7.5594   7.5946   7.5962   7.6385
     7.6625   7.7111   7.7312   7.7666   7.8044   7.8387   7.8563   7.8914
     7.9070   7.9112   7.9595   7.9940   8.0669   8.1074   8.1432   8.2289
     8.4156   8.5490   8.5511   8.5898   8.6221   8.7643   8.8479   8.9908
     9.0938   9.1116   9.1501   9.2133   9.2385   9.2975   9.3276   9.4174
     9.4189   9.4822   9.5093   9.5201   9.5221   9.6571   9.6602   9.7057
     9.7943   9.8520   9.8708   9.9337   9.9404  10.0684  10.0699  10.0967
    12.7475  12.8115  12.9742  13.0124  13.0274  13.1106  13.5194  13.5470
    13.5497  13.6375  13.7825  13.8176  13.8305  13.9532  13.9602  13.9938
    13.9985  14.0394  14.0870  14.1522  14.2333  14.2992  14.3150  14.3930
    14.9362  14.9425  15.1060  15.2576  15.3835  15.4924  15.6915  16.1590
    16.1950  16.3336  16.3982  16.6452  16.9296  17.0408  17.0500  17.3149

          k = 0.2500 0.3750 0.2473 ( 27243 PWs)   bands (ev):

   -46.1117 -46.1113 -46.1111 -46.1110 -46.1107 -46.1106 -46.1104 -46.1100
   -22.4390 -22.4377 -22.4368 -22.4357 -22.4053 -22.4044 -22.4037 -22.4029
   -22.3840 -22.3828 -22.3821 -22.3811 -22.3759 -22.3740 -22.3738 -22.3722
   -22.3553 -22.3537 -22.3536 -22.3522 -22.3462 -22.3453 -22.3448 -22.3440
   -14.3919 -14.3500 -14.3251 -14.3188 -14.2933 -14.2874 -14.2681 -14.2405
    -6.5626  -6.5291  -6.5166  -6.4715  -6.3756  -6.3060  -6.1682  -5.9907
    -5.8736  -5.8496  -5.8376  -5.8251  -5.8062  -5.8036  -5.7823  -5.7523
    -5.7502  -5.7427  -5.7081  -5.7043  -5.6943  -5.6833  -5.6585  -5.6463
    -0.0933  -0.0386   0.1418   0.1858   0.2457   0.2579   0.2860   0.3244
     0.3287   0.3314   0.3585   0.3622   0.3791   0.3874   0.4262   0.4362
     0.4624   0.5553   0.6736   0.6745   0.6818   0.7224   0.7301   0.7321
     6.3086   6.3412   6.4197   6.4220   6.4912   6.5293   6.7379   6.7751
     6.7873   6.7960   6.9261   6.9840   6.9992   7.0269   7.1109   7.1637
     7.2533   7.3000   7.3729   7.4768   7.5573   7.5742   7.6078   7.7030
     7.7080   7.7123   7.7242   7.7322   7.7360   7.8250   7.8676   7.8922
     7.8943   7.9006   7.9264   7.9994   8.0039   8.0286   8.1310   8.1532
     8.3428   8.3760   8.4190   8.5303   8.5324   8.7075   8.7778   8.9001
     9.2144   9.2478   9.2559   9.2661   9.2812   9.3268   9.3690   9.4084
     9.4481   9.4536   9.4909   9.5259   9.5695   9.6122   9.6754   9.6780
     9.7258   9.7857   9.8008   9.9031   9.9131  10.0057  10.0574  10.0625
    12.8818  12.9588  13.0250  13.0852  13.0955  13.1561  13.5436  13.5825
    13.6215  13.6356  13.8139  13.8152  13.8529  13.8598  13.8663  13.8709
    13.9249  13.9796  14.0489  14.0629  14.1939  14.2138  14.2295  14.3094
    15.1694  15.1823  15.3864  15.3877  15.5464  15.5813  15.6811  16.1857
    16.2378  16.4719  16.5829  16.6805  16.7617  17.0503  17.2964  17.3253

          k = 0.2500 0.3750 0.3709 ( 27253 PWs)   bands (ev):

   -46.1116 -46.1112 -46.1112 -46.1108 -46.1108 -46.1105 -46.1104 -46.1101
   -22.4313 -22.4301 -22.4292 -22.4282 -22.4131 -22.4121 -22.4113 -22.4104
   -22.3836 -22.3825 -22.3824 -22.3815 -22.3754 -22.3744 -22.3734 -22.3726
   -22.3550 -22.3541 -22.3532 -22.3525 -22.3458 -22.3451 -22.3450 -22.3443
   -14.3768 -14.3406 -14.3371 -14.3073 -14.3065 -14.2798 -14.2767 -14.2513
    -6.4973  -6.4850  -6.4603  -6.4513  -6.3547  -6.2949  -6.2569  -6.0901
    -5.8817  -5.8557  -5.8460  -5.8420  -5.8116  -5.7993  -5.7740  -5.7521
    -5.7371  -5.7363  -5.7086  -5.7045  -5.7001  -5.6822  -5.6703  -5.6657
    -0.0262   0.0090   0.1542   0.1792   0.2081   0.2083   0.2638   0.2836
     0.3307   0.3456   0.3459   0.3463   0.3589   0.3698   0.3887   0.4091
     0.4142   0.6275   0.6330   0.7260   0.7265   0.7266   0.7543   0.7591
     6.3863   6.4175   6.4240   6.5010   6.5567   6.7058   6.7371   6.8704
     6.9129   6.9129   6.9401   7.0227   7.0872   7.0998   7.1386   7.1419
     7.2317   7.2647   7.2996   7.3707   7.5152   7.5882   7.6114   7.6140
     7.6300   7.6307   7.6454   7.7471   7.7631   7.8679   7.8761   7.8916
     7.8923   7.9097   7.9127   7.9499   7.9654   8.0899   8.1050   8.1111
     8.1739   8.1995   8.3061   8.3643   8.5057   8.5824   8.7210   8.7770
     9.2597   9.3331   9.3381   9.3463   9.3464   9.3826   9.3913   9.4789
     9.5087   9.5124   9.5347   9.5350   9.6377   9.6512   9.6554   9.6606
     9.6626   9.6644   9.7448   9.8144   9.8559   9.8934  10.0388  10.0431
    12.9963  13.0719  13.1525  13.1692  13.2358  13.3421  13.5703  13.5801
    13.6115  13.6557  13.6626  13.6875  13.7647  13.7669  13.8569  13.9023
    13.9095  13.9282  13.9545  14.0705  14.0987  14.1009  14.1647  14.2058
    15.3436  15.3873  15.4161  15.6507  15.7326  15.7767  16.0254  16.1400
    16.4140  16.4920  16.6862  16.7686  16.8798  16.8812  17.0235  17.2337

          k = 0.2500 0.3750-0.4946 ( 27262 PWs)   bands (ev):

   -46.1114 -46.1114 -46.1110 -46.1110 -46.1107 -46.1107 -46.1103 -46.1103
   -22.4222 -22.4222 -22.4211 -22.4211 -22.4203 -22.4203 -22.4194 -22.4193
   -22.3831 -22.3831 -22.3820 -22.3820 -22.3749 -22.3749 -22.3730 -22.3730
   -22.3545 -22.3545 -22.3529 -22.3529 -22.3455 -22.3455 -22.3446 -22.3446
   -14.3588 -14.3587 -14.3219 -14.3218 -14.2936 -14.2936 -14.2641 -14.2640
    -6.4633  -6.4632  -6.4230  -6.4229  -6.3563  -6.3562  -6.1958  -6.1957
    -5.8743  -5.8743  -5.8505  -5.8504  -5.8014  -5.8013  -5.7634  -5.7633
    -5.7310  -5.7309  -5.7090  -5.7089  -5.6865  -5.6863  -5.6790  -5.6788
     0.0547   0.0548   0.1001   0.1002   0.2091   0.2091   0.2806   0.2807
     0.3108   0.3108   0.3370   0.3370   0.3590   0.3590   0.3781   0.3782
     0.5351   0.5351   0.6945   0.6945   0.7526   0.7527   0.7572   0.7572
     6.4120   6.4121   6.4689   6.4690   6.6601   6.6601   6.9364   6.9364
     6.9455   6.9455   7.0137   7.0137   7.1031   7.1032   7.1215   7.1215
     7.3136   7.3136   7.4153   7.4154   7.4200   7.4200   7.4456   7.4456
     7.6173   7.6174   7.6969   7.6970   7.7922   7.7923   7.8880   7.8881
     7.9361   7.9361   7.9595   7.9595   8.0399   8.0400   8.0485   8.0486
     8.1859   8.1860   8.2360   8.2360   8.5067   8.5067   8.7107   8.7108
     9.3027   9.3027   9.3558   9.3558   9.3864   9.3865   9.5083   9.5083
     9.5091   9.5091   9.5867   9.5868   9.6434   9.6435   9.6810   9.6810
     9.6953   9.6954   9.7302   9.7303   9.7618   9.7618  10.0344  10.0345
    13.0408  13.0409  13.3785  13.3786  13.4042  13.4043  13.4395  13.4395
    13.5559  13.5559  13.6023  13.6024  13.7691  13.7692  13.8936  13.8937
    13.9162  13.9163  13.9895  13.9896  14.0609  14.0609  14.1434  14.1434
    15.3804  15.3804  15.5756  15.5756  16.0047  16.0048  16.1440  16.1441
    16.4930  16.4932  16.7003  16.7004  16.9554  16.9564  16.9564  17.2948

          k = 0.2500-0.5000 0.0000 ( 27244 PWs)   bands (ev):

   -46.1117 -46.1117 -46.1109 -46.1109 -46.1108 -46.1108 -46.1100 -46.1100
   -22.4452 -22.4452 -22.4430 -22.4430 -22.3979 -22.3979 -22.3964 -22.3964
   -22.3838 -22.3838 -22.3812 -22.3812 -22.3660 -22.3660 -22.3640 -22.3640
   -22.3635 -22.3635 -22.3619 -22.3619 -22.3460 -22.3460 -22.3441 -22.3441
   -14.3836 -14.3836 -14.3131 -14.3131 -14.2963 -14.2963 -14.2441 -14.2441
    -6.5815  -6.5815  -6.5204  -6.5203  -6.3855  -6.3855  -5.9790  -5.9790
    -5.8455  -5.8455  -5.8173  -5.8173  -5.7924  -5.7924  -5.7874  -5.7874
    -5.7443  -5.7443  -5.7212  -5.7212  -5.6792  -5.6792  -5.6570  -5.6570
    -0.0453  -0.0453   0.0995   0.0995   0.2661   0.2661   0.2865   0.2865
     0.3603   0.3603   0.3908   0.3908   0.4731   0.4731   0.4901   0.4901
     0.5715   0.5715   0.6177   0.6177   0.6269   0.6269   0.6315   0.6315
     6.1864   6.1864   6.2712   6.2712   6.5053   6.5053   6.7061   6.7061
     6.8727   6.8727   7.1090   7.1090   7.1174   7.1174   7.1406   7.1406
     7.2759   7.2759   7.2946   7.2947   7.3530   7.3531   7.6234   7.6234
     7.7090   7.7090   7.7185   7.7185   7.8659   7.8659   7.8865   7.8865
     7.9243   7.9244   8.0070   8.0070   8.0568   8.0568   8.2487   8.2487
     8.4635   8.4635   8.6042   8.6042   8.7049   8.7049   8.8246   8.8246
     9.1206   9.1207   9.1339   9.1339   9.2430   9.2430   9.3385   9.3385
     9.3936   9.3936   9.6805   9.6805   9.7463   9.7463   9.7486   9.7486
     9.7603   9.7604   9.7881   9.7881   9.9219   9.9220  10.0963  10.0963
    12.7306  12.7306  13.2228  13.2228  13.2428  13.2428  13.2685  13.2685
    13.3829  13.3830  13.7842  13.7842  13.9118  13.9118  14.0274  14.0274
    14.0988  14.0988  14.1012  14.1012  14.2327  14.2327  14.3775  14.3776
    14.8460  14.8460  15.0971  15.0971  15.5807  15.5807  15.8395  15.8396
    16.6439  16.6440  16.6556  16.6556  16.7706  16.7706  16.9876  16.9876

          k = 0.2500-0.5000 0.1236 ( 27240 PWs)   bands (ev):

   -46.1116 -46.1116 -46.1109 -46.1109 -46.1108 -46.1108 -46.1101 -46.1101
   -22.4434 -22.4434 -22.4413 -22.4413 -22.3997 -22.3997 -22.3982 -22.3982
   -22.3837 -22.3837 -22.3813 -22.3813 -22.3659 -22.3659 -22.3639 -22.3639
   -22.3636 -22.3636 -22.3620 -22.3620 -22.3460 -22.3460 -22.3442 -22.3442
   -14.3803 -14.3803 -14.3105 -14.3105 -14.2997 -14.2997 -14.2468 -14.2467
    -6.5684  -6.5684  -6.5024  -6.5024  -6.3848  -6.3848  -6.0068  -6.0068
    -5.8474  -5.8474  -5.8088  -5.8088  -5.8046  -5.8046  -5.7843  -5.7843
    -5.7462  -5.7462  -5.7213  -5.7213  -5.6807  -5.6807  -5.6589  -5.6589
    -0.0297  -0.0297   0.0821   0.0821   0.2702   0.2702   0.3327   0.3327
     0.3396   0.3396   0.3875   0.3875   0.4409   0.4409   0.4600   0.4600
     0.4888   0.4888   0.6599   0.6599   0.6627   0.6627   0.6739   0.6739
     6.2317   6.2317   6.3227   6.3227   6.4990   6.4990   6.7166   6.7166
     6.8911   6.8911   7.1034   7.1035   7.1057   7.1057   7.1188   7.1188
     7.2835   7.2835   7.3121   7.3121   7.3709   7.3709   7.6468   7.6469
     7.6929   7.6929   7.7161   7.7162   7.8458   7.8458   7.8685   7.8685
     7.9343   7.9343   8.0012   8.0012   8.0254   8.0254   8.2551   8.2551
     8.3742   8.3742   8.5692   8.5692   8.6827   8.6827   8.8246   8.8246
     9.1561   9.1561   9.1849   9.1849   9.2441   9.2441   9.3275   9.3275
     9.4216   9.4216   9.6573   9.6573   9.6929   9.6929   9.7508   9.7508
     9.7610   9.7610   9.7949   9.7949   9.9138   9.9138  10.0752  10.0752
    12.7834  12.7834  13.2394  13.2394  13.2782  13.2782  13.2815  13.2815
    13.3778  13.3779  13.7996  13.7996  13.9196  13.9196  13.9789  13.9789
    14.0552  14.0552  14.0921  14.0921  14.1931  14.1931  14.3459  14.3459
    14.9430  14.9430  15.2135  15.2135  15.5804  15.5804  15.8561  15.8561
    16.6599  16.6599  16.6877  16.6877  16.8231  16.8231  16.9887  16.9887

          k = 0.2500-0.5000 0.2473 ( 27256 PWs)   bands (ev):

   -46.1115 -46.1115 -46.1109 -46.1109 -46.1108 -46.1108 -46.1102 -46.1102
   -22.4383 -22.4383 -22.4363 -22.4363 -22.4049 -22.4049 -22.4033 -22.4033
   -22.3834 -22.3834 -22.3816 -22.3816 -22.3656 -22.3656 -22.3639 -22.3639
   -22.3637 -22.3637 -22.3622 -22.3622 -22.3457 -22.3457 -22.3444 -22.3444
   -14.3710 -14.3710 -14.3093 -14.3093 -14.3031 -14.3031 -14.2543 -14.2543
    -6.5324  -6.5324  -6.4508  -6.4508  -6.3866  -6.3866  -6.0773  -6.0772
    -5.8538  -5.8538  -5.8323  -5.8323  -5.7921  -5.7921  -5.7765  -5.7765
    -5.7489  -5.7489  -5.7242  -5.7242  -5.6842  -5.6842  -5.6651  -5.6651
     0.0128   0.0128   0.0694   0.0694   0.2798   0.2798   0.2814   0.2814
     0.3767   0.3767   0.3818   0.3818   0.3893   0.3893   0.4111   0.4112
     0.4300   0.4300   0.7064   0.7064   0.7145   0.7145   0.7148   0.7148
     6.3352   6.3352   6.4622   6.4622   6.4834   6.4834   6.7718   6.7718
     6.9529   6.9529   7.0544   7.0544   7.0792   7.0792   7.0999   7.0999
     7.3043   7.3043   7.3636   7.3637   7.4078   7.4079   7.5967   7.5967
     7.7081   7.7082   7.7122   7.7122   7.7739   7.7739   7.8794   7.8794
     7.9639   7.9639   7.9664   7.9664   7.9871   7.9871   8.1995   8.1995
     8.2546   8.2546   8.4169   8.4169   8.6276   8.6276   8.7466   8.7466
     9.2565   9.2565   9.2667   9.2667   9.2983   9.2983   9.3574   9.3574
     9.4743   9.4743   9.6112   9.6112   9.6189   9.6189   9.7156   9.7156
     9.7591   9.7591   9.8079   9.8079   9.8931   9.8931  10.0116  10.0116
    12.9288  12.9288  13.2760  13.2760  13.3235  13.3235  13.3625  13.3625
    13.3888  13.3888  13.8428  13.8428  13.8446  13.8446  13.9343  13.9343
    13.9423  13.9423  14.0525  14.0525  14.0974  14.0974  14.2611  14.2611
    15.1777  15.1777  15.5256  15.5257  15.5768  15.5768  15.9245  15.9246
    16.6565  16.6565  16.8094  16.8094  16.9865  16.9933  16.9933  17.0168

          k = 0.2500-0.5000 0.3709 ( 27250 PWs)   bands (ev):

   -46.1114 -46.1114 -46.1110 -46.1110 -46.1106 -46.1106 -46.1103 -46.1103
   -22.4307 -22.4307 -22.4287 -22.4287 -22.4126 -22.4126 -22.4109 -22.4109
   -22.3830 -22.3830 -22.3820 -22.3820 -22.3652 -22.3652 -22.3643 -22.3643
   -22.3633 -22.3633 -22.3625 -22.3625 -22.3454 -22.3454 -22.3447 -22.3447
   -14.3570 -14.3570 -14.3236 -14.3236 -14.2921 -14.2920 -14.2656 -14.2656
    -6.4828  -6.4828  -6.4006  -6.4006  -6.3716  -6.3715  -6.1716  -6.1715
    -5.8637  -5.8636  -5.8580  -5.8580  -5.7767  -5.7767  -5.7686  -5.7686
    -5.7472  -5.7472  -5.7313  -5.7313  -5.6868  -5.6868  -5.6747  -5.6747
     0.0614   0.0614   0.1062   0.1062   0.1960   0.1960   0.2815   0.2815
     0.2972   0.2972   0.3426   0.3426   0.3696   0.3696   0.3758   0.3759
     0.5371   0.5371   0.6908   0.6908   0.7543   0.7543   0.7549   0.7549
     6.4150   6.4150   6.4656   6.4656   6.6442   6.6442   6.9069   6.9069
     6.9512   6.9512   7.0490   7.0490   7.0734   7.0734   7.1337   7.1337
     7.3223   7.3223   7.4369   7.4369   7.4398   7.4398   7.4503   7.4503
     7.6216   7.6216   7.6890   7.6890   7.8041   7.8041   7.8954   7.8954
     7.9162   7.9162   7.9879   7.9879   8.0281   8.0281   8.0398   8.0398
     8.2006   8.2006   8.2043   8.2044   8.5705   8.5705   8.6199   8.6199
     9.3179   9.3179   9.3474   9.3474   9.3790   9.3790   9.5079   9.5079
     9.5159   9.5159   9.5350   9.5350   9.5672   9.5672   9.7087   9.7087
     9.7585   9.7585   9.7894   9.7894   9.8705   9.8705   9.9164   9.9164
    13.1307  13.1308  13.3156  13.3157  13.3370  13.3370  13.4293  13.4293
    13.5448  13.5449  13.6447  13.6447  13.7643  13.7643  13.9092  13.9093
    13.9158  13.9158  13.9787  13.9787  14.0439  14.0439  14.1485  14.1485
    15.4039  15.4039  15.5624  15.5624  15.9425  15.9425  16.1060  16.1060
    16.5868  16.5869  16.7474  16.7474  17.0092  17.0092  17.2221  17.2237

          k = 0.2500-0.5000-0.4946 ( 27252 PWs)   bands (ev):

   -46.1112 -46.1112 -46.1112 -46.1112 -46.1105 -46.1105 -46.1105 -46.1105
   -22.4217 -22.4217 -22.4216 -22.4216 -22.4198 -22.4198 -22.4198 -22.4198
   -22.3825 -22.3825 -22.3825 -22.3825 -22.3647 -22.3647 -22.3647 -22.3647
   -22.3629 -22.3629 -22.3629 -22.3629 -22.3451 -22.3451 -22.3450 -22.3450
   -14.3404 -14.3404 -14.3404 -14.3403 -14.2789 -14.2789 -14.2789 -14.2788
    -6.4342  -6.4342  -6.4340  -6.4340  -6.2744  -6.2744  -6.2743  -6.2743
    -5.8685  -5.8685  -5.8684  -5.8684  -5.7677  -5.7677  -5.7677  -5.7676
    -5.7403  -5.7403  -5.7402  -5.7402  -5.6838  -5.6838  -5.6837  -5.6837
     0.1173   0.1173   0.1174   0.1174   0.1875   0.1875   0.1875   0.1875
     0.3158   0.3158   0.3158   0.3159   0.3636   0.3636   0.3636   0.3637
     0.6301   0.6302   0.6302   0.6302   0.7691   0.7691   0.7691   0.7691
     6.4476   6.4476   6.4477   6.4477   6.8141   6.8141   6.8142   6.8142
     7.0097   7.0097   7.0098   7.0098   7.2492   7.2492   7.2493   7.2493
     7.2649   7.2649   7.2650   7.2650   7.4850   7.4850   7.4850   7.4850
     7.5696   7.5696   7.5697   7.5697   7.8992   7.8992   7.8993   7.8993
     7.9087   7.9087   7.9088   7.9088   8.0514   8.0514   8.0515   8.0515
     8.1189   8.1189   8.1190   8.1190   8.5532   8.5532   8.5532   8.5532
     9.3743   9.3743   9.3744   9.3744   9.4410   9.4410   9.4411   9.4411
     9.5382   9.5382   9.5383   9.5383   9.6853   9.6853   9.6853   9.6853
     9.7379   9.7379   9.7380   9.7380   9.8639   9.8639   9.8640   9.8640
    13.2895  13.2895  13.2895  13.2895  13.4276  13.4276  13.4277  13.4277
    13.5839  13.5839  13.5839  13.5839  13.7266  13.7266  13.7267  13.7267
    13.9932  13.9932  13.9932  13.9932  14.0411  14.0412  14.0412  14.0412
    15.5193  15.5193  15.5193  15.5193  16.3434  16.3434  16.3435  16.3435
    16.4153  16.4153  16.4154  16.4154  17.0656  17.0656  17.0656  17.0656

          k = 0.3750 0.3750 0.0000 ( 27208 PWs)   bands (ev):

   -46.1117 -46.1113 -46.1113 -46.1109 -46.1108 -46.1104 -46.1104 -46.1100
   -22.4454 -22.4441 -22.4441 -22.4430 -22.3979 -22.3971 -22.3971 -22.3964
   -22.3758 -22.3758 -22.3749 -22.3743 -22.3732 -22.3732 -22.3724 -22.3721
   -22.3556 -22.3549 -22.3542 -22.3542 -22.3532 -22.3529 -22.3522 -22.3522
   -14.3882 -14.3469 -14.3469 -14.3119 -14.2989 -14.2699 -14.2698 -14.2424
    -6.5711  -6.5711  -6.5454  -6.4737  -6.4053  -6.1878  -6.1878  -5.9719
    -5.8325  -5.8193  -5.8193  -5.8145  -5.8145  -5.8025  -5.7922  -5.7752
    -5.7665  -5.7315  -5.7194  -5.7056  -5.7056  -5.6897  -5.6897  -5.6420
    -0.1070   0.0730   0.1071   0.1071   0.2282   0.2584   0.3011   0.3012
     0.3241   0.3538   0.3763   0.3764   0.4678   0.4952   0.5227   0.5227
     0.5355   0.5355   0.5621   0.6205   0.6223   0.6270   0.6543   0.6543
     6.2117   6.2457   6.2457   6.2802   6.5803   6.7840   6.7840   6.7869
     6.7869   6.8742   7.0035   7.0478   7.0626   7.0626   7.0629   7.1474
     7.2585   7.2680   7.4456   7.4456   7.5015   7.5075   7.5513   7.5513
     7.6762   7.7422   7.7422   7.7584   7.8062   7.8063   7.8729   7.8729
     7.8953   7.9252   7.9497   7.9995   8.0224   8.2198   8.2588   8.2589
     8.2707   8.2707   8.5057   8.5769   8.5785   8.5785   8.6183   8.7628
     9.1485   9.1485   9.2272   9.2374   9.2925   9.3943   9.4778   9.4804
     9.5002   9.5002   9.5106   9.5106   9.5491   9.5491   9.7398   9.7808
     9.7853   9.7853   9.8691   9.8698   9.9439   9.9439  10.0025  10.0207
    12.8425  12.9578  12.9578  13.0382  13.1598  13.3120  13.4353  13.5282
    13.5282  13.6122  13.6122  13.6230  13.7712  13.7712  13.8803  14.0348
    14.0736  14.0950  14.1070  14.1070  14.2282  14.2282  14.3025  14.3251
    14.9514  15.0033  15.0033  15.1329  15.7204  15.7711  16.1392  16.1393
    16.4120  16.4120  16.5710  16.6465  16.9386  17.0781  17.0889  17.1966

          k = 0.3750 0.3750 0.1236 ( 27225 PWs)   bands (ev):

   -46.1117 -46.1113 -46.1113 -46.1109 -46.1108 -46.1104 -46.1104 -46.1100
   -22.4436 -22.4423 -22.4423 -22.4412 -22.3998 -22.3989 -22.3989 -22.3981
   -22.3757 -22.3757 -22.3749 -22.3742 -22.3733 -22.3733 -22.3725 -22.3722
   -22.3555 -22.3548 -22.3542 -22.3542 -22.3533 -22.3529 -22.3523 -22.3523
   -14.3848 -14.3440 -14.3440 -14.3093 -14.3023 -14.2729 -14.2728 -14.2451
    -6.5550  -6.5550  -6.5333  -6.4561  -6.4024  -6.1972  -6.1972  -5.9939
    -5.8381  -5.8247  -5.8247  -5.8136  -5.8136  -5.7977  -5.7895  -5.7868
    -5.7620  -5.7333  -5.7222  -5.7084  -5.7084  -5.6908  -5.6908  -5.6469
    -0.0909   0.0542   0.1181   0.1181   0.2333   0.2790   0.2791   0.3073
     0.3083   0.3492   0.3646   0.3646   0.4307   0.4543   0.4691   0.4793
     0.4794   0.5587   0.5587   0.6608   0.6684   0.6822   0.6990   0.6990
     6.2617   6.2946   6.2946   6.3321   6.5715   6.7725   6.7725   6.7881
     6.7881   6.8661   7.0131   7.0478   7.0616   7.0830   7.0830   7.1505
     7.2351   7.2887   7.4204   7.4204   7.5125   7.5431   7.5699   7.5699
     7.6707   7.6841   7.6841   7.7650   7.8611   7.8611   7.8682   7.8783
     7.8783   7.8959   7.9579   7.9893   8.0003   8.1877   8.1877   8.2280
     8.2593   8.2593   8.4477   8.5237   8.5764   8.5764   8.5934   8.7346
     9.2003   9.2003   9.2253   9.2774   9.3280   9.4066   9.4571   9.4571
     9.4804   9.4804   9.4911   9.5016   9.5952   9.5952   9.7059   9.7711
     9.7711   9.7770   9.8497   9.8513   9.9331   9.9331   9.9965  10.0132
    12.8900  13.0036  13.0036  13.0643  13.1688  13.3061  13.4695  13.5435
    13.5436  13.6201  13.6201  13.6418  13.7642  13.7642  13.8889  13.9863
    14.0279  14.0620  14.0620  14.0855  14.1908  14.1908  14.2658  14.2897
    15.0649  15.1129  15.1129  15.2518  15.7234  15.7695  16.1394  16.1395
    16.4183  16.4183  16.6269  16.6832  16.9490  17.0300  17.0759  17.2382

          k = 0.3750 0.3750 0.2473 ( 27226 PWs)   bands (ev):

   -46.1116 -46.1112 -46.1112 -46.1109 -46.1108 -46.1105 -46.1105 -46.1101
   -22.4385 -22.4373 -22.4373 -22.4362 -22.4049 -22.4041 -22.4041 -22.4032
   -22.3754 -22.3754 -22.3746 -22.3739 -22.3736 -22.3736 -22.3728 -22.3724
   -22.3552 -22.3546 -22.3540 -22.3540 -22.3536 -22.3532 -22.3525 -22.3525
   -14.3753 -14.3358 -14.3358 -14.3122 -14.3019 -14.2813 -14.2813 -14.2527
    -6.5090  -6.5090  -6.5006  -6.4056  -6.3972  -6.2288  -6.2288  -6.0538
    -5.8519  -5.8337  -5.8337  -5.8161  -5.8129  -5.8129  -5.7863  -5.7817
    -5.7490  -5.7387  -5.7303  -5.7144  -5.7144  -5.6952  -5.6952  -5.6610
    -0.0450   0.0389   0.1494   0.1494   0.2448   0.2448   0.2475   0.2596
     0.3306   0.3306   0.3362   0.3397   0.3737   0.3918   0.3941   0.3941
     0.4132   0.6322   0.6322   0.7173   0.7257   0.7316   0.7517   0.7517
     6.3823   6.4157   6.4157   6.4728   6.5512   6.7324   6.7324   6.8252
     6.8252   6.8780   7.0480   7.0580   7.0585   7.1389   7.1389   7.1409
     7.1656   7.3459   7.3459   7.3594   7.5283   7.6197   7.6197   7.6253
     7.6253   7.6539   7.6559   7.7390   7.7620   7.8926   7.8926   7.8981
     7.8981   7.8984   7.9470   7.9651   7.9831   8.0650   8.0650   8.2181
     8.2276   8.2276   8.3236   8.3385   8.4855   8.4855   8.5334   8.6330
     9.2550   9.3349   9.3349   9.3762   9.4187   9.4187   9.4213   9.4389
     9.4450   9.4450   9.5280   9.5501   9.6420   9.6420   9.6526   9.7365
     9.7365   9.7632   9.7865   9.8019   9.8965   9.8965   9.9794   9.9937
    13.0173  13.1305  13.1305  13.1446  13.1986  13.2884  13.5642  13.5888
    13.5888  13.6445  13.6445  13.6973  13.7428  13.7428  13.8528  13.8983
    13.9135  13.9382  13.9382  14.0569  14.0891  14.0892  14.1679  14.1931
    15.3675  15.3988  15.3988  15.5742  15.7313  15.7652  16.1347  16.1347
    16.4439  16.4439  16.7915  16.7936  16.8548  16.9752  17.0688  17.2125

          k = 0.3750 0.3750 0.3709 ( 27256 PWs)   bands (ev):

   -46.1114 -46.1111 -46.1110 -46.1110 -46.1107 -46.1107 -46.1106 -46.1103
   -22.4308 -22.4297 -22.4297 -22.4287 -22.4127 -22.4117 -22.4117 -22.4108
   -22.3750 -22.3750 -22.3742 -22.3740 -22.3740 -22.3736 -22.3732 -22.3728
   -22.3549 -22.3543 -22.3540 -22.3536 -22.3536 -22.3535 -22.3529 -22.3528
   -14.3610 -14.3268 -14.3234 -14.3234 -14.2940 -14.2939 -14.2907 -14.2641
    -6.4577  -6.4404  -6.4404  -6.3997  -6.3286  -6.2855  -6.2855  -6.1389
    -5.8654  -5.8482  -5.8349  -5.8348  -5.8169  -5.8169  -5.7727  -5.7701
    -5.7476  -5.7422  -5.7293  -5.7171  -5.7171  -5.7034  -5.7034  -5.6817
     0.0240   0.0587   0.1888   0.1959   0.1960   0.2172   0.2307   0.2307
     0.2684   0.2820   0.2821   0.3165   0.3205   0.3205   0.3348   0.3448
     0.5294   0.6990   0.7048   0.7048   0.7728   0.7728   0.7745   0.7775
     6.4825   6.5318   6.5348   6.5348   6.6590   6.6762   6.6762   6.9443
     6.9443   6.9851   7.0029   7.0489   7.0546   7.1700   7.1826   7.2326
     7.2326   7.2397   7.2397   7.4438   7.5438   7.5438   7.5556   7.5643
     7.6261   7.6847   7.6847   7.7038   7.8178   7.8420   7.8420   7.9004
     7.9047   7.9364   7.9364   7.9385   7.9929   7.9929   8.0277   8.0767
     8.1543   8.1922   8.1922   8.1974   8.3222   8.3223   8.4694   8.4932
     9.3714   9.4034   9.4034   9.4079   9.4079   9.4558   9.4750   9.5411
     9.5429   9.5429   9.5832   9.5973   9.6321   9.6631   9.6631   9.6770
     9.7019   9.7019   9.7274   9.7312   9.8252   9.8252   9.9598   9.9705
    13.1579  13.2603  13.2799  13.2859  13.3136  13.3136  13.6496  13.6496
    13.6647  13.6919  13.6919  13.6997  13.6997  13.7013  13.7067  13.7765
    13.7765  13.7863  13.9508  13.9508  13.9511  13.9963  14.0373  14.0711
    15.7410  15.7476  15.7476  15.7587  15.7739  16.0179  16.1060  16.1060
    16.5189  16.5189  16.5705  16.9115  17.0049  17.0049  17.0067  17.0555

          k = 0.3750 0.3750-0.4946 ( 27274 PWs)   bands (ev):

   -46.1113 -46.1113 -46.1108 -46.1108 -46.1108 -46.1108 -46.1104 -46.1104
   -22.4218 -22.4218 -22.4207 -22.4207 -22.4207 -22.4207 -22.4198 -22.4197
   -22.3745 -22.3745 -22.3745 -22.3745 -22.3737 -22.3737 -22.3732 -22.3732
   -22.3544 -22.3544 -22.3539 -22.3539 -22.3533 -22.3533 -22.3532 -22.3532
   -14.3440 -14.3440 -14.3088 -14.3088 -14.3087 -14.3087 -14.2775 -14.2774
    -6.4200  -6.4198  -6.3609  -6.3609  -6.3608  -6.3608  -6.2354  -6.2353
    -5.8667  -5.8667  -5.8266  -5.8266  -5.8266  -5.8265  -5.7593  -5.7592
    -5.7563  -5.7561  -5.7125  -5.7125  -5.7124  -5.7124  -5.7058  -5.7057
     0.1060   0.1061   0.1196   0.1197   0.2399   0.2399   0.2399   0.2400
     0.2585   0.2585   0.2585   0.2586   0.2927   0.2927   0.3245   0.3246
     0.6315   0.6315   0.7557   0.7557   0.7557   0.7557   0.7931   0.7931
     6.5170   6.5171   6.6130   6.6130   6.6131   6.6131   6.8409   6.8410
     7.0511   7.0512   7.1079   7.1079   7.1080   7.1080   7.1379   7.1379
     7.3561   7.3562   7.3857   7.3857   7.3857   7.3857   7.5611   7.5612
     7.5907   7.5908   7.7552   7.7552   7.7553   7.7553   7.9176   7.9177
     7.9187   7.9188   7.9737   7.9737   7.9737   7.9737   8.0029   8.0030
     8.0972   8.0973   8.2060   8.2060   8.2060   8.2060   8.4379   8.4380
     9.4103   9.4103   9.4103   9.4103   9.4879   9.4880   9.5291   9.5291
     9.6237   9.6237   9.6522   9.6523   9.6536   9.6537   9.6592   9.6592
     9.6593   9.6593   9.7205   9.7205   9.7206   9.7206   9.9554   9.9556
    13.2219  13.2219  13.4614  13.4615  13.4850  13.4851  13.5216  13.5216
    13.5217  13.5217  13.6982  13.6982  13.6982  13.6982  13.8101  13.8102
    13.8102  13.8102  13.8592  13.8593  13.9033  13.9033  13.9989  13.9990
    15.7505  15.7505  16.0028  16.0028  16.0028  16.0028  16.1967  16.1969
    16.4911  16.4913  16.7106  16.7106  16.7107  16.7107  17.0347  17.0348

          k = 0.3750-0.5000 0.0000 ( 27202 PWs)   bands (ev):

   -46.1115 -46.1115 -46.1111 -46.1111 -46.1106 -46.1106 -46.1102 -46.1102
   -22.4447 -22.4447 -22.4435 -22.4435 -22.3975 -22.3975 -22.3967 -22.3967
   -22.3752 -22.3752 -22.3727 -22.3727 -22.3655 -22.3655 -22.3644 -22.3644
   -22.3631 -22.3631 -22.3622 -22.3622 -22.3547 -22.3547 -22.3526 -22.3526
   -14.3676 -14.3676 -14.3295 -14.3295 -14.2844 -14.2844 -14.2562 -14.2562
    -6.5510  -6.5510  -6.5175  -6.5175  -6.3002  -6.3002  -6.0828  -6.0828
    -5.8177  -5.8177  -5.8107  -5.8107  -5.7968  -5.7968  -5.7863  -5.7863
    -5.7635  -5.7635  -5.7288  -5.7288  -5.7021  -5.7021  -5.6644  -5.6644
    -0.0132  -0.0132   0.1546   0.1546   0.1856   0.1856   0.3412   0.3412
     0.3565   0.3565   0.3966   0.3966   0.3991   0.3991   0.5012   0.5012
     0.5658   0.5658   0.5868   0.5868   0.6292   0.6292   0.6469   0.6469
     6.2362   6.2362   6.2696   6.2696   6.7019   6.7019   6.8677   6.8677
     6.8927   6.8928   7.0411   7.0411   7.1205   7.1205   7.2340   7.2340
     7.2991   7.2991   7.3308   7.3309   7.4394   7.4394   7.5183   7.5183
     7.5459   7.5460   7.7879   7.7879   7.8731   7.8731   7.8896   7.8896
     7.9176   7.9176   7.9868   7.9868   8.1000   8.1000   8.1290   8.1290
     8.3711   8.3711   8.4194   8.4194   8.5324   8.5324   8.6164   8.6164
     9.2141   9.2141   9.2299   9.2299   9.3786   9.3787   9.4274   9.4274
     9.4997   9.4997   9.6153   9.6153   9.6346   9.6346   9.7286   9.7286
     9.7368   9.7368   9.8406   9.8407   9.9238   9.9238   9.9517   9.9517
    12.9219  12.9219  13.2120  13.2120  13.2568  13.2568  13.3767  13.3767
    13.5419  13.5419  13.5542  13.5542  13.7301  13.7301  13.9294  13.9294
    14.0755  14.0755  14.1340  14.1340  14.1994  14.1994  14.2728  14.2728
    14.9934  14.9935  15.0955  15.0955  15.9897  15.9897  16.1106  16.1107
    16.5889  16.5889  16.7520  16.7520  16.8728  16.8728  17.0961  17.0961

          k = 0.3750-0.5000 0.1236 ( 27206 PWs)   bands (ev):

   -46.1115 -46.1115 -46.1111 -46.1111 -46.1106 -46.1106 -46.1102 -46.1102
   -22.4429 -22.4429 -22.4418 -22.4418 -22.3994 -22.3994 -22.3985 -22.3985
   -22.3751 -22.3751 -22.3728 -22.3728 -22.3654 -22.3654 -22.3644 -22.3643
   -22.3632 -22.3632 -22.3623 -22.3623 -22.3547 -22.3547 -22.3527 -22.3527
   -14.3645 -14.3645 -14.3268 -14.3267 -14.2877 -14.2876 -14.2590 -14.2590
    -6.5368  -6.5368  -6.5006  -6.5006  -6.3018  -6.3018  -6.0965  -6.0965
    -5.8198  -5.8198  -5.8124  -5.8124  -5.8064  -5.8064  -5.7841  -5.7841
    -5.7639  -5.7639  -5.7306  -5.7306  -5.7047  -5.7047  -5.6680  -5.6680
     0.0004   0.0004   0.1625   0.1625   0.1640   0.1641   0.3269   0.3269
     0.3491   0.3491   0.3659   0.3659   0.4437   0.4437   0.4525   0.4525
     0.4788   0.4788   0.6253   0.6253   0.6911   0.6911   0.6944   0.6944
     6.2863   6.2863   6.3199   6.3199   6.6882   6.6882   6.8587   6.8587
     6.8993   6.8993   7.0163   7.0163   7.1327   7.1327   7.2249   7.2249
     7.3184   7.3185   7.3596   7.3596   7.4264   7.4264   7.5344   7.5344
     7.5427   7.5427   7.7978   7.7978   7.8017   7.8017   7.8916   7.8916
     7.9238   7.9238   8.0342   8.0342   8.0808   8.0808   8.0993   8.0993
     8.3118   8.3118   8.3977   8.3977   8.4968   8.4968   8.5957   8.5957
     9.2646   9.2646   9.2675   9.2675   9.3617   9.3617   9.4199   9.4199
     9.5311   9.5311   9.5852   9.5852   9.6224   9.6224   9.7373   9.7373
     9.7373   9.7374   9.8245   9.8245   9.9132   9.9132   9.9409   9.9409
    12.9675  12.9675  13.2504  13.2505  13.2776  13.2777  13.3853  13.3853
    13.5352  13.5353  13.5725  13.5726  13.7386  13.7386  13.9209  13.9209
    14.0290  14.0290  14.0915  14.0915  14.1584  14.1584  14.2363  14.2363
    15.1055  15.1055  15.2123  15.2123  15.9921  15.9921  16.1124  16.1124
    16.5931  16.5931  16.7513  16.7513  16.9210  16.9212  17.1227  17.2091

          k = 0.3750-0.5000 0.2473 ( 27240 PWs)   bands (ev):

   -46.1114 -46.1114 -46.1110 -46.1110 -46.1107 -46.1107 -46.1103 -46.1103
   -22.4379 -22.4379 -22.4367 -22.4367 -22.4045 -22.4045 -22.4037 -22.4037
   -22.3748 -22.3748 -22.3731 -22.3731 -22.3652 -22.3652 -22.3641 -22.3641
   -22.3635 -22.3635 -22.3626 -22.3626 -22.3544 -22.3544 -22.3529 -22.3529
   -14.3557 -14.3556 -14.3189 -14.3189 -14.2968 -14.2968 -14.2671 -14.2671
    -6.4971  -6.4971  -6.4524  -6.4524  -6.3107  -6.3107  -6.1389  -6.1389
    -5.8283  -5.8283  -5.8279  -5.8279  -5.8131  -5.8131  -5.7805  -5.7805
    -5.7616  -5.7616  -5.7329  -5.7329  -5.7125  -5.7125  -5.6786  -5.6786
     0.0390   0.0390   0.1375   0.1375   0.1851   0.1851   0.2857   0.2857
     0.3167   0.3168   0.3279   0.3279   0.3646   0.3646   0.3762   0.3762
     0.5364   0.5364   0.6959   0.6959   0.7463   0.7463   0.7534   0.7534
     6.4087   6.4087   6.4512   6.4512   6.6528   6.6528   6.8696   6.8696
     6.9401   6.9401   6.9461   6.9461   7.1566   7.1566   7.2000   7.2000
     7.3613   7.3613   7.4066   7.4066   7.4375   7.4375   7.4957   7.4957
     7.6197   7.6197   7.6857   7.6857   7.8098   7.8098   7.8993   7.8994
     7.9440   7.9440   8.0313   8.0313   8.0335   8.0335   8.0698   8.0698
     8.1893   8.1893   8.3412   8.3412   8.3534   8.3534   8.4911   8.4911
     9.3373   9.3373   9.3760   9.3760   9.3991   9.3991   9.4272   9.4272
     9.5483   9.5483   9.5847   9.5847   9.5995   9.5995   9.7340   9.7340
     9.7432   9.7432   9.7821   9.7821   9.8855   9.8855   9.9079   9.9079
    13.0932  13.0932  13.3402  13.3403  13.3569  13.3569  13.4118  13.4118
    13.5157  13.5157  13.6271  13.6271  13.7632  13.7632  13.8951  13.8952
    13.9009  13.9009  13.9731  13.9732  14.0468  14.0468  14.1363  14.1363
    15.4003  15.4003  15.5266  15.5266  15.9969  15.9969  16.1225  16.1225
    16.5989  16.5990  16.7499  16.7499  17.0324  17.0325  17.2390  17.2393

          k = 0.3750-0.5000 0.3709 ( 27242 PWs)   bands (ev):

   -46.1112 -46.1112 -46.1109 -46.1109 -46.1108 -46.1108 -46.1105 -46.1105
   -22.4303 -22.4303 -22.4292 -22.4292 -22.4122 -22.4122 -22.4113 -22.4113
   -22.3744 -22.3744 -22.3735 -22.3735 -22.3648 -22.3648 -22.3639 -22.3639
   -22.3638 -22.3638 -22.3629 -22.3629 -22.3541 -22.3541 -22.3533 -22.3533
   -14.3423 -14.3423 -14.3105 -14.3105 -14.3071 -14.3071 -14.2791 -14.2791
    -6.4408  -6.4408  -6.3796  -6.3796  -6.3359  -6.3359  -6.2081  -6.2081
    -5.8471  -5.8471  -5.8413  -5.8413  -5.8069  -5.8069  -5.7836  -5.7836
    -5.7529  -5.7528  -5.7276  -5.7276  -5.7249  -5.7249  -5.6946  -5.6946
     0.0958   0.0958   0.1403   0.1403   0.2187   0.2187   0.2239   0.2239
     0.2644   0.2644   0.2854   0.2854   0.2966   0.2966   0.3152   0.3152
     0.6338   0.6338   0.7522   0.7522   0.7575   0.7576   0.7907   0.7907
     6.5177   6.5177   6.6049   6.6049   6.6103   6.6103   6.8461   6.8461
     6.9721   6.9721   7.0602   7.0602   7.1656   7.1656   7.1914   7.1914
     7.3722   7.3722   7.4117   7.4118   7.4146   7.4146   7.5441   7.5441
     7.5699   7.5699   7.7452   7.7453   7.7714   7.7714   7.9143   7.9143
     7.9626   7.9626   7.9806   7.9806   7.9831   7.9832   8.0506   8.0506
     8.0766   8.0766   8.1362   8.1362   8.2742   8.2742   8.3233   8.3233
     9.4125   9.4125   9.4555   9.4555   9.4634   9.4634   9.5282   9.5282
     9.5664   9.5664   9.5757   9.5757   9.6280   9.6280   9.7155   9.7156
     9.7229   9.7229   9.7292   9.7292   9.8526   9.8526   9.8599   9.8599
    13.2702  13.2703  13.4263  13.4263  13.4780  13.4780  13.4832  13.4832
    13.5110  13.5110  13.7157  13.7157  13.7195  13.7195  13.8024  13.8024
    13.8049  13.8049  13.8400  13.8400  13.9039  13.9039  14.0000  14.0000
    15.7608  15.7608  15.9508  15.9509  15.9956  15.9956  16.1738  16.1738
    16.5734  16.5734  16.7487  16.7487  16.7523  16.7523  16.9762  16.9762

          k = 0.3750-0.5000-0.4946 ( 27248 PWs)   bands (ev):

   -46.1110 -46.1110 -46.1110 -46.1110 -46.1106 -46.1106 -46.1106 -46.1106
   -22.4212 -22.4212 -22.4212 -22.4212 -22.4202 -22.4202 -22.4202 -22.4202
   -22.3740 -22.3740 -22.3740 -22.3740 -22.3643 -22.3643 -22.3643 -22.3643
   -22.3634 -22.3634 -22.3633 -22.3633 -22.3537 -22.3537 -22.3537 -22.3537
   -14.3265 -14.3265 -14.3264 -14.3264 -14.2932 -14.2932 -14.2931 -14.2931
    -6.3820  -6.3820  -6.3819  -6.3819  -6.2935  -6.2935  -6.2934  -6.2933
    -5.8511  -5.8511  -5.8511  -5.8511  -5.7950  -5.7950  -5.7949  -5.7949
    -5.7395  -5.7395  -5.7393  -5.7393  -5.7128  -5.7127  -5.7126  -5.7126
     0.1580   0.1580   0.1580   0.1580   0.1860   0.1860   0.1860   0.1860
     0.2582   0.2582   0.2583   0.2583   0.2835   0.2835   0.2836   0.2836
     0.7114   0.7114   0.7115   0.7115   0.7921   0.7921   0.7921   0.7921
     6.5709   6.5709   6.5710   6.5710   6.7336   6.7336   6.7337   6.7337
     7.1074   7.1074   7.1075   7.1075   7.2533   7.2533   7.2533   7.2534
     7.2761   7.2761   7.2761   7.2761   7.4751   7.4751   7.4751   7.4751
     7.6656   7.6656   7.6656   7.6657   7.8993   7.8993   7.8993   7.8993
     7.9207   7.9207   7.9208   7.9208   8.0005   8.0005   8.0006   8.0006
     8.0416   8.0416   8.0417   8.0417   8.2393   8.2393   8.2394   8.2394
     9.4799   9.4799   9.4799   9.4799   9.5029   9.5029   9.5029   9.5029
     9.6363   9.6363   9.6364   9.6364   9.6511   9.6511   9.6511   9.6511
     9.6941   9.6941   9.6941   9.6942   9.8354   9.8354   9.8355   9.8355
    13.4258  13.4258  13.4258  13.4259  13.5290  13.5290  13.5290  13.5290
    13.6251  13.6251  13.6251  13.6252  13.6880  13.6880  13.6880  13.6880
    13.8176  13.8176  13.8176  13.8176  13.8698  13.8698  13.8699  13.8699
    15.9604  15.9604  15.9604  15.9604  16.3660  16.3660  16.3661  16.3661
    16.4045  16.4045  16.4046  16.4046  16.7870  16.7871  16.7871  16.7871

          k =-0.5000-0.5000 0.0000 ( 27260 PWs)   bands (ev):

   -46.1113 -46.1113 -46.1113 -46.1113 -46.1104 -46.1104 -46.1104 -46.1104
   -22.4441 -22.4441 -22.4441 -22.4441 -22.3971 -22.3971 -22.3971 -22.3971
   -22.3654 -22.3654 -22.3654 -22.3654 -22.3646 -22.3646 -22.3646 -22.3646
   -22.3629 -22.3629 -22.3629 -22.3629 -22.3625 -22.3625 -22.3625 -22.3625
   -14.3487 -14.3486 -14.3486 -14.3486 -14.2704 -14.2703 -14.2703 -14.2703
    -6.5271  -6.5271  -6.5271  -6.5271  -6.1950  -6.1950  -6.1950  -6.1949
    -5.8033  -5.8033  -5.8033  -5.8033  -5.7797  -5.7797  -5.7797  -5.7797
    -5.7771  -5.7770  -5.7770  -5.7770  -5.6812  -5.6812  -5.6812  -5.6812
     0.0561   0.0561   0.0561   0.0561   0.2895   0.2895   0.2895   0.2895
     0.3392   0.3392   0.3392   0.3393   0.5052   0.5052   0.5052   0.5052
     0.5345   0.5345   0.5345   0.5345   0.6468   0.6468   0.6468   0.6469
     6.2605   6.2605   6.2605   6.2605   6.8943   6.8943   6.8943   6.8943
     6.9116   6.9116   6.9116   6.9116   7.3040   7.3040   7.3040   7.3040
     7.3169   7.3169   7.3169   7.3169   7.3705   7.3705   7.3705   7.3705
     7.6964   7.6964   7.6964   7.6965   7.8495   7.8495   7.8495   7.8495
     7.9075   7.9075   7.9075   7.9076   8.2219   8.2219   8.2219   8.2219
     8.2426   8.2426   8.2426   8.2426   8.5217   8.5217   8.5217   8.5217
     9.2568   9.2568   9.2568   9.2568   9.4842   9.4842   9.4842   9.4842
     9.5185   9.5185   9.5185   9.5185   9.6888   9.6888   9.6888   9.6888
     9.7772   9.7772   9.7772   9.7772   9.8992   9.8992   9.8992   9.8992
    13.1237  13.1237  13.1237  13.1237  13.3432  13.3432  13.3432  13.3432
    13.5387  13.5387  13.5387  13.5387  13.7331  13.7331  13.7331  13.7331
    14.1476  14.1476  14.1476  14.1476  14.1826  14.1826  14.1826  14.1826
    15.0683  15.0683  15.0683  15.0683  16.3616  16.3616  16.3616  16.3616
    16.4430  16.4430  16.4430  16.4430  17.1351  17.1351  17.1352  17.3280

          k =-0.5000-0.5000 0.1236 ( 27212 PWs)   bands (ev):

   -46.1113 -46.1113 -46.1113 -46.1113 -46.1104 -46.1104 -46.1104 -46.1104
   -22.4424 -22.4424 -22.4424 -22.4424 -22.3989 -22.3989 -22.3989 -22.3989
   -22.3653 -22.3653 -22.3653 -22.3653 -22.3645 -22.3645 -22.3645 -22.3645
   -22.3630 -22.3630 -22.3630 -22.3630 -22.3626 -22.3626 -22.3626 -22.3626
   -14.3458 -14.3457 -14.3457 -14.3457 -14.2734 -14.2734 -14.2734 -14.2734
    -6.5115  -6.5115  -6.5115  -6.5115  -6.2009  -6.2009  -6.2009  -6.2009
    -5.8098  -5.8098  -5.8098  -5.8098  -5.7817  -5.7817  -5.7817  -5.7816
    -5.7761  -5.7760  -5.7760  -5.7760  -5.6851  -5.6851  -5.6851  -5.6851
     0.0669   0.0669   0.0670   0.0670   0.2629   0.2629   0.2630   0.2630
     0.3285   0.3285   0.3285   0.3286   0.4659   0.4659   0.4659   0.4659
     0.5477   0.5477   0.5477   0.5477   0.7023   0.7023   0.7024   0.7024
     6.3109   6.3109   6.3109   6.3109   6.8717   6.8717   6.8717   6.8717
     6.9051   6.9051   6.9051   6.9051   7.3054   7.3054   7.3054   7.3054
     7.3635   7.3635   7.3635   7.3635   7.3674   7.3674   7.3674   7.3675
     7.6398   7.6398   7.6398   7.6399   7.8877   7.8877   7.8877   7.8877
     7.9110   7.9111   7.9111   7.9111   8.1978   8.1978   8.1978   8.1978
     8.2098   8.2098   8.2098   8.2098   8.4848   8.4848   8.4848   8.4848
     9.3019   9.3019   9.3019   9.3019   9.4591   9.4591   9.4591   9.4591
     9.5272   9.5272   9.5272   9.5272   9.6882   9.6882   9.6882   9.6882
     9.7791   9.7791   9.7791   9.7791   9.8859   9.8859   9.8859   9.8859
    13.1647  13.1648  13.1648  13.1648  13.3633  13.3633  13.3633  13.3633
    13.5475  13.5475  13.5475  13.5475  13.7254  13.7254  13.7254  13.7254
    14.1045  14.1045  14.1045  14.1045  14.1418  14.1418  14.1418  14.1418
    15.1850  15.1850  15.1850  15.1850  16.3667  16.3667  16.3667  16.3667
    16.4411  16.4411  16.4411  16.4412  17.2690  17.2699  17.2701  17.2702

          k =-0.5000-0.5000 0.2473 ( 27236 PWs)   bands (ev):

   -46.1112 -46.1112 -46.1112 -46.1112 -46.1105 -46.1105 -46.1105 -46.1105
   -22.4373 -22.4373 -22.4373 -22.4373 -22.4041 -22.4041 -22.4041 -22.4041
   -22.3650 -22.3650 -22.3650 -22.3650 -22.3643 -22.3643 -22.3643 -22.3643
   -22.3633 -22.3633 -22.3633 -22.3633 -22.3628 -22.3628 -22.3628 -22.3628
   -14.3374 -14.3374 -14.3373 -14.3373 -14.2820 -14.2820 -14.2820 -14.2820
    -6.4675  -6.4675  -6.4675  -6.4675  -6.2224  -6.2224  -6.2224  -6.2224
    -5.8234  -5.8234  -5.8234  -5.8234  -5.7943  -5.7943  -5.7943  -5.7942
    -5.7657  -5.7657  -5.7657  -5.7657  -5.6961  -5.6961  -5.6961  -5.6961
     0.0978   0.0978   0.0978   0.0978   0.2238   0.2238   0.2238   0.2238
     0.2980   0.2980   0.2980   0.2980   0.3660   0.3660   0.3660   0.3660
     0.6317   0.6317   0.6317   0.6317   0.7642   0.7642   0.7642   0.7642
     6.4379   6.4379   6.4379   6.4379   6.8111   6.8111   6.8111   6.8111
     6.9226   6.9226   6.9226   6.9226   7.3102   7.3102   7.3102   7.3102
     7.3586   7.3587   7.3587   7.3587   7.4812   7.4812   7.4812   7.4812
     7.5479   7.5479   7.5479   7.5479   7.9227   7.9227   7.9227   7.9228
     7.9231   7.9231   7.9231   7.9231   8.1344   8.1344   8.1344   8.1344
     8.1346   8.1346   8.1346   8.1346   8.3446   8.3446   8.3446   8.3446
     9.4076   9.4076   9.4076   9.4076   9.4431   9.4431   9.4431   9.4431
     9.5513   9.5513   9.5514   9.5514   9.6786   9.6786   9.6786   9.6786
     9.7801   9.7801   9.7801   9.7801   9.8499   9.8499   9.8499   9.8499
    13.2777  13.2777  13.2777  13.2777  13.4242  13.4242  13.4242  13.4242
    13.5731  13.5731  13.5731  13.5731  13.7024  13.7024  13.7024  13.7025
    13.9880  13.9880  13.9880  13.9880  14.0276  14.0276  14.0276  14.0276
    15.4992  15.4992  15.4992  15.4992  16.3797  16.3797  16.3797  16.3797
    16.4355  16.4355  16.4355  16.4355  17.0881  17.0881  17.0881  17.0882

          k =-0.5000-0.5000 0.3709 ( 27288 PWs)   bands (ev):

   -46.1110 -46.1110 -46.1110 -46.1110 -46.1107 -46.1107 -46.1107 -46.1107
   -22.4297 -22.4297 -22.4297 -22.4297 -22.4117 -22.4117 -22.4117 -22.4117
   -22.3646 -22.3646 -22.3646 -22.3646 -22.3639 -22.3639 -22.3639 -22.3639
   -22.3637 -22.3637 -22.3637 -22.3637 -22.3631 -22.3631 -22.3631 -22.3631
   -14.3248 -14.3248 -14.3248 -14.3248 -14.2949 -14.2948 -14.2948 -14.2948
    -6.4029  -6.4029  -6.4029  -6.4029  -6.2662  -6.2662  -6.2662  -6.2662
    -5.8311  -5.8311  -5.8311  -5.8311  -5.8111  -5.8111  -5.8111  -5.8111
    -5.7500  -5.7500  -5.7500  -5.7500  -5.7124  -5.7123  -5.7123  -5.7123
     0.1439   0.1439   0.1439   0.1439   0.2081   0.2081   0.2081   0.2081
     0.2523   0.2523   0.2523   0.2523   0.2817   0.2817   0.2817   0.2817
     0.7136   0.7136   0.7136   0.7136   0.7892   0.7892   0.7892   0.7892
     6.5680   6.5680   6.5680   6.5680   6.7333   6.7333   6.7333   6.7333
     7.0360   7.0360   7.0360   7.0360   7.3189   7.3189   7.3189   7.3189
     7.3457   7.3457   7.3457   7.3457   7.4281   7.4281   7.4281   7.4281
     7.6437   7.6437   7.6437   7.6437   7.9407   7.9407   7.9407   7.9408
     7.9480   7.9480   7.9480   7.9480   8.0543   8.0543   8.0543   8.0543
     8.0547   8.0548   8.0548   8.0548   8.1042   8.1042   8.1042   8.1042
     9.4945   9.4945   9.4945   9.4945   9.5178   9.5178   9.5178   9.5178
     9.5806   9.5806   9.5806   9.5806   9.6440   9.6440   9.6440   9.6440
     9.7738   9.7738   9.7738   9.7738   9.8041   9.8041   9.8041   9.8041
    13.4385  13.4386  13.4386  13.4386  13.5267  13.5267  13.5267  13.5267
    13.6150  13.6150  13.6150  13.6150  13.6640  13.6640  13.6640  13.6641
    13.8299  13.8299  13.8299  13.8299  13.8630  13.8630  13.8630  13.8630
    15.9277  15.9277  15.9277  15.9277  16.3962  16.3963  16.3963  16.3963
    16.4258  16.4258  16.4258  16.4258  16.7843  16.7843  16.7843  16.7843

          k =-0.5000-0.5000-0.4946 ( 27256 PWs)   bands (ev):

   -46.1108 -46.1108 -46.1108 -46.1108 -46.1108 -46.1108 -46.1108 -46.1108
   -22.4207 -22.4207 -22.4207 -22.4207 -22.4207 -22.4207 -22.4207 -22.4207
   -22.3642 -22.3642 -22.3642 -22.3642 -22.3641 -22.3641 -22.3641 -22.3641
   -22.3635 -22.3635 -22.3635 -22.3635 -22.3635 -22.3635 -22.3635 -22.3635
   -14.3099 -14.3099 -14.3099 -14.3099 -14.3099 -14.3098 -14.3098 -14.3098
    -6.3306  -6.3306  -6.3306  -6.3306  -6.3305  -6.3305  -6.3305  -6.3305
    -5.8259  -5.8259  -5.8259  -5.8259  -5.8258  -5.8258  -5.8258  -5.8258
    -5.7314  -5.7314  -5.7314  -5.7314  -5.7313  -5.7312  -5.7312  -5.7312
     0.1981   0.1981   0.1982   0.1982   0.1982   0.1982   0.1982   0.1982
     0.2270   0.2270   0.2270   0.2270   0.2271   0.2271   0.2271   0.2271
     0.7706   0.7706   0.7706   0.7707   0.7707   0.7707   0.7707   0.7707
     6.6561   6.6561   6.6561   6.6561   6.6562   6.6562   6.6562   6.6562
     7.2417   7.2417   7.2417   7.2417   7.2418   7.2418   7.2418   7.2419
     7.3314   7.3314   7.3314   7.3314   7.3315   7.3315   7.3315   7.3315
     7.8479   7.8480   7.8480   7.8480   7.8480   7.8480   7.8480   7.8480
     7.9853   7.9853   7.9853   7.9853   7.9853   7.9854   7.9854   7.9854
     7.9908   7.9909   7.9909   7.9909   7.9909   7.9909   7.9909   7.9909
     9.5771   9.5771   9.5771   9.5771   9.5772   9.5772   9.5772   9.5772
     9.5824   9.5824   9.5824   9.5824   9.5824   9.5824   9.5824   9.5824
     9.7730   9.7730   9.7730   9.7731   9.7731   9.7732   9.7732   9.7732
    13.5934  13.5934  13.5934  13.5934  13.5934  13.5934  13.5934  13.5934
    13.6668  13.6668  13.6668  13.6668  13.6668  13.6668  13.6668  13.6668
    13.6967  13.6967  13.6967  13.6967  13.6967  13.6967  13.6967  13.6967
    16.3808  16.3808  16.3808  16.3808  16.3809  16.3809  16.3809  16.3810
    16.4124  16.4124  16.4124  16.4124  16.4124  16.4125  16.4125  16.4125

     highest occupied, lowest unoccupied level (ev):    10.4085   12.2307

!    total energy              =   -5964.60370333 Ry
     total all-electron energy =   -147449.057276 Ry
     estimated scf accuracy    <          6.4E-11 Ry

     The total energy is the sum of the following terms:
     one-electron contribution =    -550.43486795 Ry
     hartree contribution      =     483.85694574 Ry
     xc contribution           =    -491.50429887 Ry
     ewald contribution        =   -1653.96634398 Ry
     one-center paw contrib.   =   -3752.55513828 Ry

     convergence has been achieved in   6 iterations

     Forces acting on atoms (cartesian axes, Ry/au):

     atom    1 type  1   force =     0.00000000    0.00000000   -0.00095948
     atom    2 type  1   force =     0.00000000    0.00000000   -0.00092803
     atom    3 type  1   force =     0.00000000    0.00000000   -0.00094844
     atom    4 type  1   force =     0.00000000    0.00000000   -0.00093428
     atom    5 type  1   force =     0.00000000    0.00000000   -0.00094844
     atom    6 type  1   force =     0.00000000    0.00000000   -0.00093428
     atom    7 type  1   force =     0.00000000    0.00000000   -0.00096389
     atom    8 type  1   force =     0.00000000    0.00000000   -0.00092610
     atom    9 type  2   force =    -0.00000080   -0.00000080    0.00015777
     atom   10 type  2   force =    -0.00000140   -0.00000140    0.00016651
     atom   11 type  2   force =    -0.00000080    0.00000080    0.00015777
     atom   12 type  2   force =    -0.00000140    0.00000140    0.00016651
     atom   13 type  2   force =     0.00000080   -0.00000080    0.00015777
     atom   14 type  2   force =     0.00000140   -0.00000140    0.00016651
     atom   15 type  2   force =     0.00000080    0.00000080    0.00015777
     atom   16 type  2   force =     0.00000140    0.00000140    0.00016651
     atom   17 type  3   force =    -0.00000145   -0.00000145   -0.00004543
     atom   18 type  3   force =    -0.00000240   -0.00000240   -0.00003632
     atom   19 type  3   force =    -0.00000145    0.00000145   -0.00004543
     atom   20 type  3   force =    -0.00000240    0.00000240   -0.00003632
     atom   21 type  3   force =     0.00000145   -0.00000145   -0.00004543
     atom   22 type  3   force =     0.00000240   -0.00000240   -0.00003632
     atom   23 type  3   force =     0.00000145    0.00000145   -0.00004543
     atom   24 type  3   force =     0.00000240    0.00000240   -0.00003632
     atom   25 type  3   force =    -0.00000190    0.00000000    0.00040506
     atom   26 type  3   force =    -0.00000558    0.00000000    0.00040959
     atom   27 type  3   force =     0.00000075    0.00000000    0.00040961
     atom   28 type  3   force =     0.00000307    0.00000000    0.00041894
     atom   29 type  3   force =     0.00000190    0.00000000    0.00040506
     atom   30 type  3   force =     0.00000558    0.00000000    0.00040959
     atom   31 type  3   force =    -0.00000075    0.00000000    0.00040961
     atom   32 type  3   force =    -0.00000307   -0.00000000    0.00041894
     atom   33 type  3   force =     0.00000000   -0.00000190    0.00040506
     atom   34 type  3   force =     0.00000000   -0.00000558    0.00040959
     atom   35 type  3   force =     0.00000000    0.00000190    0.00040506
     atom   36 type  3   force =     0.00000000    0.00000558    0.00040959
     atom   37 type  3   force =     0.00000000    0.00000075    0.00040961
     atom   38 type  3   force =     0.00000000    0.00000307    0.00041894
     atom   39 type  3   force =     0.00000000   -0.00000075    0.00040961
     atom   40 type  3   force =     0.00000000   -0.00000307    0.00041894

     Total force =     0.003168     Total SCF correction =     0.000007


     Computing stress (Cartesian axis) and pressure

          total   stress  (Ry/bohr**3)                   (kbar)     P=       38.94
   0.00023513   0.00000000   0.00000000           34.59        0.00        0.00
   0.00000000   0.00023513   0.00000000            0.00       34.59        0.00
   0.00000000   0.00000000   0.00032383            0.00        0.00       47.64


     Writing all to output data dir ./tmp/60_ecut_8_kmesh_PBE.save/ :
     XML data file, charge density, pseudopotentials, collected wavefunctions

     init_run     :      1.76s CPU      4.86s WALL (       1 calls)
     electrons    :     35.63s CPU     36.67s WALL (       1 calls)
     forces       :      0.99s CPU      1.03s WALL (       1 calls)
     stress       :      2.85s CPU      2.93s WALL (       1 calls)

     Called by init_run:
     wfcinit      :      0.89s CPU      3.79s WALL (       1 calls)
     potinit      :      0.20s CPU      0.25s WALL (       1 calls)
     hinit0       :      0.42s CPU      0.53s WALL (       1 calls)

     Called by electrons:
     c_bands      :     31.01s CPU     31.85s WALL (       7 calls)
     sum_band     :      3.80s CPU      3.91s WALL (       7 calls)
     v_of_rho     :      0.16s CPU      0.19s WALL (       7 calls)
     newd         :      0.20s CPU      0.21s WALL (       7 calls)
     PAW_pot      :      0.31s CPU      0.32s WALL (       7 calls)
     mix_rho      :      0.01s CPU      0.01s WALL (       7 calls)

     Called by c_bands:
     init_us_2    :      0.66s CPU      0.67s WALL (     160 calls)
     cegterg      :     28.23s CPU     29.02s WALL (      70 calls)

     Called by *egterg:
     cdiaghg      :      4.75s CPU      5.00s WALL (     290 calls)
     h_psi        :     14.71s CPU     15.05s WALL (     310 calls)
     s_psi        :      2.10s CPU      2.12s WALL (     310 calls)
     g_psi        :      0.02s CPU      0.02s WALL (     240 calls)

     Called by h_psi:
     h_psi:calbec :      2.74s CPU      2.85s WALL (     310 calls)
     vloc_psi     :      9.76s CPU      9.90s WALL (     310 calls)
                                        0.00s GPU  (     310 calls)
     add_vuspsi   :      2.12s CPU      2.13s WALL (     310 calls)

     General routines
     calbec       :      6.55s CPU      6.80s WALL (     550 calls)
     fft          :      0.48s CPU      0.56s WALL (     115 calls)
     ffts         :      0.12s CPU      0.13s WALL (      14 calls)
     fftw         :     11.27s CPU     11.43s WALL (   76662 calls)
     interpolate  :      0.13s CPU      0.13s WALL (       7 calls)

     Parallel routines

     PWSCF        :     42.85s CPU     49.06s WALL


   This run was terminated on:   0:15: 7  21May2026            

=------------------------------------------------------------------------------=
   JOB DONE.
=------------------------------------------------------------------------------=
