
     Program PWSCF v.7.5 starts on 21May2026 at  0:14:52 

     This program is part of the open-source Quantum ESPRESSO suite
     for quantum simulation of materials; please cite
         "P. Giannozzi et al., J. Phys.:Condens. Matter 21 395502 (2009);
         "P. Giannozzi et al., J. Phys.:Condens. Matter 29 465901 (2017);
         "P. Giannozzi et al., J. Chem. Phys. 152 154105 (2020);
          URL http://www.quantum-espresso.org", 
     in publications or presentations arising from this work. More details at
     http://www.quantum-espresso.org/quote

     Parallel version (MPI & OpenMP), running on     192 processor cores
     Number of MPI processes:               192
     Threads/MPI process:                     1

     MPI processes distributed on     1 nodes
     747545 MiB available memory on the printing compute node when the environment starts

     Waiting for input...
     Reading input from standard input

     Current dimensions of program PWSCF are:
     Max number of different atomic species (ntypx) = 10
     Max number of k-points (npk) =  40000
     Max angular momentum in pseudopotentials (lmaxx) =  4
     file Ba.pbe-spn-kjpaw_psl.1.0.0.UPF: wavefunction(s)  5S 6S renormalized
     file Ti.pbe-spn-kjpaw_psl.1.0.0.UPF: wavefunction(s)  3S 3P 3D renormalized
     file O.pbe-n-kjpaw_psl.1.0.0.UPF: wavefunction(s)  2S 2P renormalized

     IMPORTANT: XC functional enforced from input :
     Exchange-correlation= PBE
                           (   1   4   3   4   0   0   0)
     Any further DFT definition will be discarded
     Please, verify this is what you really want

     Found identity + ( -0.5000 -0.5000  0.0000) symmetry
     This is a supercell, fractional translations are disabled

     K-points division:     npool     =       8
     R & G space division:  proc/nbgrp/npool/nimage =      24
     Subspace diagonalization in iterative solution of the eigenvalue problem:
     one sub-group per band group will be used
     ELPA distributed-memory algorithm (size of sub-group:  2*  2 procs)


     Parallelization info
     --------------------
     sticks:   dense  smooth     PW     G-vecs:    dense   smooth      PW
     Min         422     211     57                32375    11445    1619
     Max         424     212     58                32377    11448    1623
     Sum       10137    5065   1369               777019   274705   38907

     Using Slab Decomposition



     bravais-lattice index     =            6
     lattice parameter (alat)  =      15.0876  a.u.
     unit-cell volume          =    3472.3239 (a.u.)^3
     number of atoms/cell      =           40
     number of atomic types    =            3
     number of electrons       =       320.00
     number of Kohn-Sham states=          200
     kinetic-energy cutoff     =      70.0000  Ry
     charge density cutoff     =     560.0000  Ry
     scf convergence threshold =      1.0E-10
     mixing beta               =       0.3000
     number of iterations used =           16  plain     mixing
     Exchange-correlation= PBE
                           (   1   4   3   4   0   0   0)

     celldm(1)=  15.087600  celldm(2)=   0.000000  celldm(3)=   1.011020
     celldm(4)=   0.000000  celldm(5)=   0.000000  celldm(6)=   0.000000

     crystal axes: (cart. coord. in units of alat)
               a(1) = (   1.000000   0.000000   0.000000 )  
               a(2) = (   0.000000   1.000000   0.000000 )  
               a(3) = (   0.000000   0.000000   1.011020 )  

     reciprocal axes: (cart. coord. in units 2 pi/alat)
               b(1) = (  1.000000  0.000000  0.000000 )  
               b(2) = (  0.000000  1.000000  0.000000 )  
               b(3) = (  0.000000  0.000000  0.989100 )  


     PseudoPot. # 1 for Ba read from file:
     /home/kylay/scratch/BTO/pseuds/Ba.pbe-spn-kjpaw_psl.1.0.0.UPF
     MD5 check sum: 7cfe25f1fe7574a4710541d5a11d6531
     Pseudo is Projector augmented-wave + core cor, Zval = 10.0
     Generated using &quot;atomic&quot; code by A. Dal Corso  v.6.2.2
     Shape of augmentation charge: PSQ
     Using radial grid of 1251 points,  7 beta functions with: 
                l(1) =   0
                l(2) =   0
                l(3) =   0
                l(4) =   1
                l(5) =   1
                l(6) =   2
                l(7) =   2
     Q(r) pseudized with 0 coefficients 


     PseudoPot. # 2 for Ti read from file:
     /home/kylay/scratch/BTO/pseuds/Ti.pbe-spn-kjpaw_psl.1.0.0.UPF
     MD5 check sum: 01f69b0d8ba4438b2e03ac6ea4af1c0b
     Pseudo is Projector augmented-wave + core cor, Zval = 12.0
     Generated using &quot;atomic&quot; code by A. Dal Corso  v.6.2.2
     Shape of augmentation charge: PSQ
     Using radial grid of 1177 points,  6 beta functions with: 
                l(1) =   0
                l(2) =   0
                l(3) =   1
                l(4) =   1
                l(5) =   2
                l(6) =   2
     Q(r) pseudized with 0 coefficients 


     PseudoPot. # 3 for O  read from file:
     /home/kylay/scratch/BTO/pseuds/O.pbe-n-kjpaw_psl.1.0.0.UPF
     MD5 check sum: e99d9cef9b487d1ca56f5b95ecd0fd7a
     Pseudo is Projector augmented-wave + core cor, Zval =  6.0
     Generated using &quot;atomic&quot; code by A. Dal Corso  v.6.3
     Shape of augmentation charge: PSQ
     Using radial grid of 1095 points,  4 beta functions with: 
                l(1) =   0
                l(2) =   0
                l(3) =   1
                l(4) =   1
     Q(r) pseudized with 0 coefficients 


     atomic species   valence    mass     pseudopotential
     Ba               10.00   137.32700     Ba( 1.00)
     Ti               12.00    47.86700     Ti( 1.00)
     O                 6.00    15.99900     O ( 1.00)

      8 Sym. Ops. (no inversion) found



   Cartesian axes

     site n.     atom                  positions (alat units)
         1        Ba     tau(   1) = (   0.0000000   0.0000000  -0.0010787  )
         2        Ba     tau(   2) = (   0.0000000   0.0000000   0.5044220  )
         3        Ba     tau(   3) = (   0.0000000   0.5000000  -0.0010832  )
         4        Ba     tau(   4) = (   0.0000000   0.5000000   0.5044235  )
         5        Ba     tau(   5) = (   0.5000000   0.0000000  -0.0010832  )
         6        Ba     tau(   6) = (   0.5000000   0.0000000   0.5044235  )
         7        Ba     tau(   7) = (   0.5000000   0.5000000  -0.0010766  )
         8        Ba     tau(   8) = (   0.5000000   0.5000000   0.5044202  )
         9        Ti     tau(   9) = (   0.2500002   0.2500002   0.2436990  )
        10        Ti     tau(  10) = (   0.2500007   0.2500007   0.7492042  )
        11        Ti     tau(  11) = (   0.2500002   0.7499998   0.2436990  )
        12        Ti     tau(  12) = (   0.2500007   0.7499993   0.7492042  )
        13        Ti     tau(  13) = (   0.7499998   0.2500002   0.2436990  )
        14        Ti     tau(  14) = (   0.7499993   0.2500007   0.7492042  )
        15        Ti     tau(  15) = (   0.7499998   0.7499998   0.2436990  )
        16        Ti     tau(  16) = (   0.7499993   0.7499993   0.7492042  )
        17        O      tau(  17) = (   0.2500011   0.2500011   0.0113903  )
        18        O      tau(  18) = (   0.2500007   0.2500007   0.5168954  )
        19        O      tau(  19) = (   0.2500011   0.7499989   0.0113903  )
        20        O      tau(  20) = (   0.2500007   0.7499993   0.5168954  )
        21        O      tau(  21) = (   0.7499989   0.2500011   0.0113903  )
        22        O      tau(  22) = (   0.7499993   0.2500007   0.5168954  )
        23        O      tau(  23) = (   0.7499989   0.7499989   0.0113903  )
        24        O      tau(  24) = (   0.7499993   0.7499993   0.5168954  )
        25        O      tau(  25) = (   0.2500005   0.0000000   0.2592128  )
        26        O      tau(  26) = (   0.2500020   0.0000000   0.7647195  )
        27        O      tau(  27) = (   0.2499999   0.5000000   0.2592107  )
        28        O      tau(  28) = (   0.2499998   0.5000000   0.7647148  )
        29        O      tau(  29) = (   0.7499995   0.0000000   0.2592128  )
        30        O      tau(  30) = (   0.7499980   0.0000000   0.7647195  )
        31        O      tau(  31) = (   0.7500001   0.5000000   0.2592107  )
        32        O      tau(  32) = (   0.7500002   0.5000000   0.7647148  )
        33        O      tau(  33) = (   0.0000000   0.2500005   0.2592128  )
        34        O      tau(  34) = (   0.0000000   0.2500020   0.7647195  )
        35        O      tau(  35) = (   0.0000000   0.7499995   0.2592128  )
        36        O      tau(  36) = (   0.0000000   0.7499980   0.7647195  )
        37        O      tau(  37) = (   0.5000000   0.2499999   0.2592107  )
        38        O      tau(  38) = (   0.5000000   0.2499998   0.7647148  )
        39        O      tau(  39) = (   0.5000000   0.7500001   0.2592107  )
        40        O      tau(  40) = (   0.5000000   0.7500002   0.7647148  )

     number of k points=    18
                       cart. coord. in units 2pi/alat
        k(    1) = (   0.0000000   0.0000000   0.0000000), wk =   0.0312500
        k(    2) = (   0.0000000   0.0000000   0.2472750), wk =   0.0625000
        k(    3) = (   0.0000000   0.0000000  -0.4945501), wk =   0.0312500
        k(    4) = (   0.0000000   0.2500000   0.0000000), wk =   0.1250000
        k(    5) = (   0.0000000   0.2500000   0.2472750), wk =   0.2500000
        k(    6) = (   0.0000000   0.2500000  -0.4945501), wk =   0.1250000
        k(    7) = (   0.0000000  -0.5000000   0.0000000), wk =   0.0625000
        k(    8) = (   0.0000000  -0.5000000   0.2472750), wk =   0.1250000
        k(    9) = (   0.0000000  -0.5000000  -0.4945501), wk =   0.0625000
        k(   10) = (   0.2500000   0.2500000   0.0000000), wk =   0.1250000
        k(   11) = (   0.2500000   0.2500000   0.2472750), wk =   0.2500000
        k(   12) = (   0.2500000   0.2500000  -0.4945501), wk =   0.1250000
        k(   13) = (   0.2500000  -0.5000000   0.0000000), wk =   0.1250000
        k(   14) = (   0.2500000  -0.5000000   0.2472750), wk =   0.2500000
        k(   15) = (   0.2500000  -0.5000000  -0.4945501), wk =   0.1250000
        k(   16) = (  -0.5000000  -0.5000000   0.0000000), wk =   0.0312500
        k(   17) = (  -0.5000000  -0.5000000   0.2472750), wk =   0.0625000
        k(   18) = (  -0.5000000  -0.5000000  -0.4945501), wk =   0.0312500

     Dense  grid:   777019 G-vectors     FFT dimensions: ( 120, 120, 120)

     Smooth grid:   274705 G-vectors     FFT dimensions: (  81,  81,  81)

     Estimated max dynamical RAM per process >      93.33 MB

     Estimated total dynamical RAM >      14.91 GB

     Check: negative core charge=   -0.000002

     The initial density is read from file :
     ./tmp/70_ecut_4_kmesh_PBE.save/charge-density

     Starting wfcs from file
     Checking if some PAW data can be deallocated... 

     total cpu time spent up to now is        4.2 secs

     per-process dynamical memory:   131.2 Mb

     Self-consistent Calculation

     iteration #  1     ecut=    70.00 Ry     beta= 0.30
     Davidson diagonalization with overlap
     ethr =  1.00E-05,  avg # of iterations =  1.1

     Threshold (ethr) on eigenvalues was too large:
     Diagonalizing with lowered threshold

     Davidson diagonalization with overlap
     ethr =  1.76E-12,  avg # of iterations =  4.6

     total cpu time spent up to now is        8.0 secs

     total energy              =   -5964.62504939 Ry
     estimated scf accuracy    <          9.1E-09 Ry

     iteration #  2     ecut=    70.00 Ry     beta= 0.30
     Davidson diagonalization with overlap
     ethr =  2.86E-12,  avg # of iterations =  2.0

     total cpu time spent up to now is        9.7 secs

     total energy              =   -5964.62504939 Ry
     estimated scf accuracy    <          1.5E-09 Ry

     iteration #  3     ecut=    70.00 Ry     beta= 0.30
     Davidson diagonalization with overlap
     ethr =  4.60E-13,  avg # of iterations =  6.0

     total cpu time spent up to now is       12.0 secs

     total energy              =   -5964.62504940 Ry
     estimated scf accuracy    <          1.5E-09 Ry

     iteration #  4     ecut=    70.00 Ry     beta= 0.30
     Davidson diagonalization with overlap
     ethr =  4.54E-13,  avg # of iterations =  1.8

     total cpu time spent up to now is       13.7 secs

     total energy              =   -5964.62504940 Ry
     estimated scf accuracy    <          1.4E-09 Ry

     iteration #  5     ecut=    70.00 Ry     beta= 0.30
     Davidson diagonalization with overlap
     ethr =  4.44E-13,  avg # of iterations =  1.0

     total cpu time spent up to now is       15.2 secs

     total energy              =   -5964.62504940 Ry
     estimated scf accuracy    <          2.8E-09 Ry

     iteration #  6     ecut=    70.00 Ry     beta= 0.30
     Davidson diagonalization with overlap
     ethr =  4.44E-13,  avg # of iterations =  2.0

     total cpu time spent up to now is       17.0 secs

     total energy              =   -5964.62504940 Ry
     estimated scf accuracy    <          1.4E-10 Ry

     iteration #  7     ecut=    70.00 Ry     beta= 0.30
     Davidson diagonalization with overlap
     ethr =  1.00E-13,  avg # of iterations =  2.9

     total cpu time spent up to now is       18.9 secs

     End of self-consistent calculation

          k = 0.0000 0.0000 0.0000 ( 34305 PWs)   bands (ev):

   -46.1089 -46.1080 -46.1078 -46.1078 -46.1069 -46.1069 -46.1068 -46.1059
   -22.4438 -22.4402 -22.4402 -22.4376 -22.3956 -22.3934 -22.3934 -22.3914
   -22.3896 -22.3896 -22.3864 -22.3864 -22.3861 -22.3861 -22.3838 -22.3838
   -22.3355 -22.3355 -22.3336 -22.3336 -22.3334 -22.3334 -22.3316 -22.3316
   -14.4579 -14.3463 -14.3369 -14.3368 -14.2674 -14.2674 -14.2594 -14.1989
    -6.7740  -6.7740  -6.7216  -6.5311  -6.2528  -6.1399  -6.1399  -5.9054
    -5.9054  -5.9046  -5.8440  -5.8440  -5.8102  -5.7780  -5.7462  -5.7462
    -5.7432  -5.7432  -5.7346  -5.6687  -5.5754  -5.5754  -5.5138  -5.5137
    -0.3540  -0.3540  -0.2919   0.2990   0.2990   0.3151   0.3151   0.3650
     0.3707   0.3707   0.3746   0.3746   0.5277   0.5277   0.5326   0.5326
     0.5494   0.5494   0.7382   0.7425   0.7425   0.7627   0.7627   0.8065
     5.9193   6.0772   6.1023   6.1023   6.2946   6.2946   6.3338   6.3491
     6.4062   6.4062   6.5586   6.5586   6.5592   6.5804   6.5962   7.5256
     7.5256   7.5768   7.5768   7.6242   7.6242   7.6251   7.6251   7.6385
     7.6385   7.7378   7.7378   7.9232   7.9232   7.9526   8.0507   8.0854
     8.0854   8.0906   8.0906   8.3850   8.3850   8.4539   8.4574   8.4697
     8.4697   8.5504   8.5504   8.6150   8.6905   8.6905   8.7148   8.7148
     9.0496   9.0496   9.2281   9.3431   9.3431   9.3760   9.3760   9.4727
     9.4727   9.4816   9.4816   9.4998   9.4998   9.7143   9.7143   9.9946
    10.0593  10.0593  10.1759  10.1759  10.2462  10.2462  10.3374  10.4080
    12.2294  12.3757  12.5474  12.5474  12.6640  12.6640  13.9448  13.9448
    13.9732  13.9732  14.0007  14.0007  14.0069  14.0069  14.0215  14.0215
    14.0234  14.0234  14.3648  14.3648  14.3938  14.4634  14.4637  14.5501
    14.5501  14.6104  14.6104  14.6154  14.6182  15.0989  15.2992  15.2992
    15.3436  15.4900  16.2948  16.2948  16.4909  16.8974  17.1085  17.3321

          k = 0.0000 0.0000 0.2473 ( 34273 PWs)   bands (ev):

   -46.1087 -46.1081 -46.1077 -46.1077 -46.1071 -46.1071 -46.1067 -46.1060
   -22.4368 -22.4334 -22.4334 -22.4309 -22.4027 -22.4003 -22.4003 -22.3982
   -22.3891 -22.3891 -22.3868 -22.3868 -22.3858 -22.3858 -22.3841 -22.3841
   -22.3352 -22.3352 -22.3339 -22.3339 -22.3331 -22.3331 -22.3319 -22.3319
   -14.4419 -14.3630 -14.3269 -14.3268 -14.2777 -14.2777 -14.2507 -14.2079
    -6.7006  -6.7006  -6.6745  -6.5302  -6.2751  -6.2751  -6.1813  -5.9052
    -5.8572  -5.8572  -5.8365  -5.8365  -5.8153  -5.8055  -5.7827  -5.7288
    -5.7200  -5.7200  -5.7118  -5.7118  -5.6014  -5.6014  -5.5474  -5.5474
    -0.2629  -0.2629  -0.1642   0.1979   0.1979   0.3751   0.3751   0.3892
     0.3892   0.3961   0.3961   0.4307   0.5033   0.5033   0.5044   0.5044
     0.5573   0.5763   0.5763   0.6916   0.6916   0.7127   0.7127   0.7425
     6.0024   6.0796   6.2094   6.2094   6.3800   6.3800   6.4535   6.4535
     6.5699   6.5827   6.5940   6.6129   6.6984   6.6984   6.7466   7.5356
     7.5356   7.5548   7.5548   7.5592   7.5592   7.5715   7.5715   7.7118
     7.7118   7.7121   7.7121   7.7402   7.7839   7.8502   7.8502   7.9078
     7.9078   8.0406   8.0406   8.2079   8.4236   8.4236   8.4390   8.4390
     8.5519   8.6180   8.6180   8.6272   8.7637   8.7637   8.8934   8.8934
     9.0956   9.2183   9.2183   9.2260   9.2260   9.2852   9.2852   9.3507
     9.3507   9.3700   9.3700   9.4595   9.4595   9.6785   9.7599   9.7599
    10.0059  10.0059  10.0753  10.0753  10.0862  10.0862  10.3476  10.3975
    12.2500  12.3534  12.7889  12.7889  12.8826  12.8826  13.8106  13.8106
    13.8342  13.8342  13.9494  13.9494  13.9694  13.9694  14.0149  14.0149
    14.1006  14.1006  14.2712  14.2712  14.4254  14.4625  14.4629  14.5099
    14.5099  14.5841  14.8135  14.8135  14.9925  15.2758  15.2758  15.5496
    15.6290  15.7781  16.2829  16.4838  16.4838  16.8643  17.0281  17.4527

          k = 0.0000 0.0000-0.4946 ( 34352 PWs)   bands (ev):

   -46.1084 -46.1084 -46.1074 -46.1074 -46.1074 -46.1074 -46.1064 -46.1064
   -22.4198 -22.4198 -22.4169 -22.4169 -22.4169 -22.4169 -22.4146 -22.4146
   -22.3880 -22.3880 -22.3880 -22.3880 -22.3850 -22.3850 -22.3849 -22.3849
   -22.3345 -22.3345 -22.3345 -22.3345 -22.3325 -22.3325 -22.3325 -22.3325
   -14.4028 -14.4028 -14.3025 -14.3025 -14.3024 -14.3024 -14.2294 -14.2293
    -6.5785  -6.5784  -6.5085  -6.5085  -6.5084  -6.5084  -6.0029  -6.0028
    -5.8472  -5.8471  -5.8292  -5.8292  -5.8292  -5.8292  -5.7942  -5.7941
    -5.6622  -5.6622  -5.6620  -5.6620  -5.6293  -5.6293  -5.6292  -5.6292
    -0.0375  -0.0375  -0.0374  -0.0374   0.1710   0.1712   0.4408   0.4409
     0.4409   0.4410   0.4493   0.4493   0.4494   0.4494   0.5279   0.5279
     0.5279   0.5279   0.5874   0.5875   0.6431   0.6431   0.6432   0.6432
     6.0716   6.0718   6.3200   6.3200   6.3201   6.3201   6.5883   6.5883
     6.9022   6.9022   6.9024   6.9024   7.1609   7.1610   7.1706   7.1706
     7.1708   7.1708   7.2011   7.2011   7.3852   7.3854   7.5558   7.5558
     7.5559   7.5559   7.8394   7.8394   7.8395   7.8395   7.8990   7.8990
     7.8991   7.8991   8.1297   8.1297   8.1298   8.1298   8.6159   8.6159
     8.6160   8.6160   8.8068   8.8070   8.9666   8.9666   8.9666   8.9666
     8.9877   8.9877   8.9878   8.9878   9.0886   9.0887   9.1954   9.1954
     9.1955   9.1955   9.7239   9.7239   9.7239   9.7239   9.7766   9.7766
     9.7767   9.7767   9.8782   9.8782   9.8783   9.8783  10.3723  10.3725
    12.3009  12.3010  13.3202  13.3202  13.3203  13.3203  13.3726  13.3726
    13.3727  13.3727  13.9598  13.9598  13.9598  13.9598  14.1035  14.1036
    14.1036  14.1036  14.2950  14.2950  14.2950  14.2950  14.4620  14.4620
    14.5034  14.5034  15.1506  15.1506  15.1506  15.1506  15.7135  15.7136
    16.3162  16.3164  16.4197  16.4199  16.5393  16.5395  17.0756  17.0756

          k = 0.0000 0.2500 0.0000 ( 34366 PWs)   bands (ev):

   -46.1087 -46.1080 -46.1078 -46.1077 -46.1071 -46.1069 -46.1068 -46.1061
   -22.4433 -22.4408 -22.4399 -22.4380 -22.3953 -22.3938 -22.3931 -22.3917
   -22.3891 -22.3866 -22.3860 -22.3842 -22.3817 -22.3787 -22.3784 -22.3762
   -22.3435 -22.3414 -22.3411 -22.3393 -22.3352 -22.3337 -22.3333 -22.3319
   -14.4406 -14.3550 -14.3349 -14.3257 -14.2791 -14.2710 -14.2575 -14.2091
    -6.7235  -6.7048  -6.6482  -6.5432  -6.3392  -6.2444  -6.0627  -5.8927
    -5.8813  -5.8720  -5.8497  -5.8255  -5.8000  -5.7649  -5.7620  -5.7514
    -5.7334  -5.7225  -5.7089  -5.7028  -5.6626  -5.6018  -5.5821  -5.5466
    -0.2610  -0.2350  -0.1832   0.2112   0.2658   0.3277   0.3401   0.3606
     0.3883   0.3990   0.4286   0.4327   0.4899   0.4984   0.5068   0.5226
     0.5510   0.5575   0.5680   0.6886   0.7069   0.7077   0.7092   0.7369
     6.0098   6.1022   6.1889   6.1957   6.3126   6.3754   6.4111   6.5127
     6.5594   6.5661   6.5662   6.6396   6.7214   6.7642   6.7693   7.4623
     7.5409   7.5971   7.6237   7.6308   7.6343   7.6345   7.6693   7.6758
     7.7080   7.7080   7.7371   7.7380   7.7496   7.7976   7.8231   7.9049
     7.9459   8.0175   8.0427   8.1669   8.2047   8.2550   8.2939   8.5773
     8.5970   8.6093   8.6872   8.6932   8.8014   8.8114   8.8318   8.9187
     8.9676   9.1381   9.1824   9.2385   9.3021   9.3032   9.3231   9.4202
     9.4240   9.4740   9.5144   9.5239   9.5542   9.5580   9.5944   9.6823
     9.9077  10.0079  10.0832  10.0930  10.1860  10.2218  10.2390  10.2518
    12.5156  12.5900  12.6438  12.6560  12.6990  12.7986  13.7306  13.7619
    13.7656  13.7857  13.9665  13.9808  14.0064  14.0085  14.0190  14.0191
    14.0553  14.0684  14.2541  14.2854  14.4006  14.4952  14.5022  14.5626
    14.5688  14.5759  14.7630  14.8126  14.9356  15.1240  15.2705  15.6450
    15.7640  15.7847  16.1346  16.5229  16.6811  16.9823  17.1478  17.3519

          k = 0.0000 0.2500 0.2473 ( 34341 PWs)   bands (ev):

   -46.1086 -46.1079 -46.1078 -46.1075 -46.1072 -46.1069 -46.1068 -46.1062
   -22.4363 -22.4339 -22.4331 -22.4313 -22.4024 -22.4007 -22.4000 -22.3985
   -22.3886 -22.3864 -22.3863 -22.3845 -22.3813 -22.3791 -22.3781 -22.3765
   -22.3432 -22.3417 -22.3409 -22.3396 -22.3349 -22.3336 -22.3334 -22.3321
   -14.4254 -14.3507 -14.3441 -14.3159 -14.2904 -14.2676 -14.2620 -14.2183
    -6.6571  -6.6313  -6.6096  -6.5282  -6.3159  -6.2668  -6.2044  -5.9003
    -5.8740  -5.8708  -5.8459  -5.8289  -5.8164  -5.7954  -5.7772  -5.7525
    -5.7314  -5.7110  -5.6958  -5.6934  -5.6538  -5.6177  -5.6107  -5.5714
    -0.2167  -0.1749  -0.0089   0.2090   0.2599   0.2640   0.2755   0.3439
     0.3677   0.3965   0.4213   0.4581   0.4638   0.4842   0.5150   0.5333
     0.5487   0.5893   0.5909   0.6130   0.6304   0.6792   0.6805   0.7115
     6.1076   6.1901   6.2077   6.3422   6.3541   6.5402   6.5642   6.6045
     6.6614   6.6904   6.7004   6.7084   6.7248   6.8042   6.8683   7.4285
     7.5083   7.5249   7.5411   7.5625   7.5877   7.6254   7.6355   7.6537
     7.6652   7.6707   7.7198   7.7741   7.7920   7.8484   7.8640   7.8699
     7.8755   7.9131   7.9141   8.0086   8.0092   8.3058   8.3206   8.3703
     8.4415   8.5824   8.7092   8.7224   8.7644   8.7931   8.8821   9.1301
     9.1429   9.1518   9.1732   9.1928   9.2996   9.3092   9.3682   9.3684
     9.3697   9.4337   9.4494   9.4762   9.4877   9.4990   9.5648   9.5754
     9.8432   9.9023   9.9321  10.0254  10.0597  10.0837  10.2400  10.2588
    12.5496  12.6377  12.8094  12.8648  12.8785  13.0001  13.7368  13.7508
    13.7874  13.7890  13.8140  13.8395  13.8856  13.8878  13.9817  14.0301
    14.0434  14.0883  14.1351  14.3060  14.3160  14.3783  14.4610  14.4835
    14.7027  14.7614  14.8179  15.1426  15.1897  15.2480  15.5732  15.7493
    15.9010  16.0669  16.3215  16.4696  16.6389  17.0270  17.1906  17.2802

          k = 0.0000 0.2500-0.4946 ( 34318 PWs)   bands (ev):

   -46.1083 -46.1083 -46.1075 -46.1075 -46.1072 -46.1072 -46.1065 -46.1065
   -22.4194 -22.4194 -22.4174 -22.4174 -22.4166 -22.4166 -22.4149 -22.4149
   -22.3875 -22.3875 -22.3854 -22.3854 -22.3802 -22.3802 -22.3773 -22.3773
   -22.3424 -22.3424 -22.3402 -22.3402 -22.3342 -22.3342 -22.3328 -22.3328
   -14.3884 -14.3884 -14.3175 -14.3174 -14.2920 -14.2919 -14.2403 -14.2402
    -6.5409  -6.5408  -6.4906  -6.4904  -6.4390  -6.4389  -6.0827  -6.0825
    -5.8649  -5.8648  -5.8503  -5.8502  -5.8049  -5.8048  -5.7816  -5.7815
    -5.6858  -5.6857  -5.6681  -5.6680  -5.6558  -5.6557  -5.6327  -5.6325
    -0.0367  -0.0367   0.0393   0.0394   0.2939   0.2940   0.3011   0.3012
     0.3877   0.3877   0.3975   0.3976   0.4387   0.4388   0.4763   0.4764
     0.5923   0.5923   0.6132   0.6133   0.6308   0.6308   0.6422   0.6422
     6.1823   6.1824   6.3063   6.3064   6.5167   6.5168   6.7318   6.7319
     6.9626   6.9627   7.0024   7.0025   7.1000   7.1001   7.1543   7.1544
     7.1823   7.1825   7.2849   7.2851   7.3329   7.3331   7.5773   7.5774
     7.6557   7.6558   7.6866   7.6867   7.8625   7.8625   7.8935   7.8936
     7.9338   7.9339   7.9848   7.9848   8.1334   8.1336   8.1931   8.1932
     8.4821   8.4822   8.5456   8.5456   8.8932   8.8933   8.9801   8.9802
     9.0749   9.0750   9.2331   9.2331   9.2795   9.2795   9.2880   9.2880
     9.3225   9.3227   9.6033   9.6033   9.6967   9.6968   9.7044   9.7045
     9.7475   9.7476   9.7558   9.7558   9.8017   9.8017  10.2471  10.2472
    12.5941  12.5941  13.3272  13.3272  13.3298  13.3298  13.3587  13.3588
    13.4532  13.4533  13.7524  13.7524  13.9157  13.9158  14.0137  14.0137
    14.1238  14.1238  14.1331  14.1331  14.2668  14.2668  14.3921  14.3921
    14.7519  14.7519  15.1336  15.1337  15.6006  15.6006  15.8901  15.8902
    16.4776  16.4778  16.5208  16.5210  16.8225  16.8227  16.9085  16.9086

          k = 0.0000-0.5000 0.0000 ( 34320 PWs)   bands (ev):

   -46.1083 -46.1083 -46.1075 -46.1075 -46.1073 -46.1073 -46.1064 -46.1064
   -22.4420 -22.4420 -22.4389 -22.4389 -22.3945 -22.3945 -22.3924 -22.3924
   -22.3878 -22.3878 -22.3851 -22.3851 -22.3626 -22.3626 -22.3601 -22.3601
   -22.3598 -22.3598 -22.3578 -22.3578 -22.3344 -22.3344 -22.3326 -22.3326
   -14.3982 -14.3982 -14.3073 -14.3072 -14.2985 -14.2985 -14.2334 -14.2334
    -6.6150  -6.6150  -6.5299  -6.5299  -6.4594  -6.4594  -5.8718  -5.8718
    -5.8661  -5.8661  -5.8193  -5.8192  -5.7885  -5.7885  -5.7840  -5.7840
    -5.7378  -5.7377  -5.7212  -5.7212  -5.6636  -5.6636  -5.6271  -5.6271
    -0.0303  -0.0303   0.0190   0.0190   0.1474   0.1474   0.4061   0.4061
     0.4086   0.4086   0.4464   0.4464   0.4597   0.4597   0.5184   0.5184
     0.5710   0.5710   0.5770   0.5770   0.6316   0.6316   0.6361   0.6361
     6.0889   6.0890   6.2686   6.2686   6.3083   6.3083   6.5628   6.5628
     6.8544   6.8544   6.9781   6.9781   7.1654   7.1654   7.1980   7.1980
     7.2189   7.2190   7.2918   7.2918   7.3720   7.3720   7.6192   7.6193
     7.6583   7.6583   7.8509   7.8509   7.8884   7.8885   7.8900   7.8900
     7.8968   7.8969   7.9557   7.9557   8.0078   8.0078   8.4777   8.4777
     8.6935   8.6935   8.7790   8.7790   8.8768   8.8768   8.9128   8.9128
     8.9719   8.9719   9.1281   9.1281   9.1559   9.1559   9.2965   9.2965
     9.3122   9.3122   9.6380   9.6380   9.7624   9.7624   9.7642   9.7642
     9.7835   9.7835   9.8783   9.8783   9.9047   9.9047  10.2114  10.2114
    12.5971  12.5971  13.1824  13.1825  13.2110  13.2111  13.2423  13.2423
    13.2608  13.2608  14.0078  14.0078  14.0133  14.0133  14.0613  14.0613
    14.0881  14.0882  14.2564  14.2564  14.2650  14.2651  14.4881  14.4881
    14.5729  14.5729  15.0821  15.0821  15.1271  15.1271  15.6447  15.6447
    16.3974  16.3975  16.5415  16.5415  16.6277  16.6277  17.1783  17.1783

          k = 0.0000-0.5000 0.2473 ( 34350 PWs)   bands (ev):

   -46.1082 -46.1082 -46.1076 -46.1076 -46.1072 -46.1072 -46.1066 -46.1066
   -22.4351 -22.4351 -22.4322 -22.4322 -22.4015 -22.4015 -22.3993 -22.3993
   -22.3874 -22.3874 -22.3855 -22.3855 -22.3623 -22.3623 -22.3605 -22.3605
   -22.3595 -22.3595 -22.3581 -22.3581 -22.3342 -22.3342 -22.3329 -22.3329
   -14.3852 -14.3851 -14.3208 -14.3208 -14.2891 -14.2891 -14.2431 -14.2431
    -6.5700  -6.5700  -6.4565  -6.4565  -6.4542  -6.4541  -6.0342  -6.0342
    -5.8730  -5.8730  -5.8366  -5.8366  -5.7703  -5.7703  -5.7523  -5.7523
    -5.7319  -5.7319  -5.7312  -5.7312  -5.6569  -5.6569  -5.6311  -5.6311
    -0.0106  -0.0106   0.0446   0.0446   0.2720   0.2720   0.2989   0.2989
     0.3787   0.3787   0.3959   0.3959   0.4323   0.4323   0.4837   0.4838
     0.6053   0.6053   0.6134   0.6134   0.6190   0.6190   0.6357   0.6357
     6.1938   6.1938   6.2987   6.2987   6.4738   6.4738   6.7069   6.7069
     6.9692   6.9692   7.0096   7.0096   7.1292   7.1292   7.1472   7.1472
     7.2096   7.2096   7.3351   7.3351   7.3727   7.3727   7.6071   7.6072
     7.6753   7.6753   7.7322   7.7322   7.8785   7.8785   7.9011   7.9011
     7.9207   7.9207   7.9327   7.9327   8.0094   8.0094   8.1569   8.1569
     8.5019   8.5019   8.5429   8.5429   8.9001   8.9001   9.0020   9.0020
     9.1901   9.1901   9.1969   9.1969   9.2055   9.2055   9.2745   9.2746
     9.3334   9.3334   9.5472   9.5472   9.6486   9.6486   9.7160   9.7160
     9.7954   9.7954   9.8542   9.8542   9.8844   9.8844  10.0924  10.0924
    12.8207  12.8207  13.1974  13.1975  13.2293  13.2294  13.2866  13.2866
    13.4103  13.4103  13.8236  13.8236  13.8935  13.8935  14.0558  14.0558
    14.1039  14.1040  14.1150  14.1150  14.2375  14.2376  14.3909  14.3909
    14.8072  14.8072  15.1136  15.1136  15.5100  15.5100  15.8284  15.8284
    16.5724  16.5724  16.6471  16.6471  16.8319  16.8319  17.0097  17.0097

          k = 0.0000-0.5000-0.4946 ( 34332 PWs)   bands (ev):

   -46.1079 -46.1079 -46.1079 -46.1079 -46.1069 -46.1069 -46.1069 -46.1069
   -22.4184 -22.4184 -22.4184 -22.4184 -22.4158 -22.4158 -22.4158 -22.4158
   -22.3865 -22.3865 -22.3865 -22.3865 -22.3614 -22.3614 -22.3614 -22.3614
   -22.3588 -22.3588 -22.3588 -22.3588 -22.3335 -22.3335 -22.3335 -22.3335
   -14.3533 -14.3533 -14.3532 -14.3532 -14.2663 -14.2663 -14.2662 -14.2662
    -6.4852  -6.4852  -6.4851  -6.4851  -6.2657  -6.2656  -6.2655  -6.2655
    -5.8813  -5.8813  -5.8813  -5.8813  -5.7453  -5.7453  -5.7452  -5.7451
    -5.7363  -5.7363  -5.7362  -5.7362  -5.6428  -5.6428  -5.6426  -5.6426
     0.0765   0.0765   0.0765   0.0765   0.2329   0.2329   0.2329   0.2330
     0.3588   0.3588   0.3588   0.3588   0.5152   0.5152   0.5152   0.5152
     0.5434   0.5434   0.5434   0.5434   0.6467   0.6467   0.6467   0.6468
     6.2748   6.2748   6.2749   6.2749   6.9008   6.9008   6.9009   6.9009
     7.0658   7.0658   7.0659   7.0659   7.1748   7.1748   7.1749   7.1749
     7.2488   7.2489   7.2489   7.2490   7.3244   7.3245   7.3246   7.3246
     7.6962   7.6962   7.6963   7.6963   7.8351   7.8351   7.8352   7.8352
     7.8875   7.8875   7.8875   7.8876   8.1158   8.1158   8.1158   8.1158
     8.2298   8.2298   8.2299   8.2299   8.8740   8.8740   8.8740   8.8740
     9.3150   9.3150   9.3150   9.3150   9.3551   9.3551   9.3551   9.3551
     9.3881   9.3881   9.3881   9.3882   9.6945   9.6945   9.6946   9.6946
     9.7974   9.7974   9.7974   9.7974   9.8715   9.8715   9.8717   9.8717
    13.1821  13.1821  13.1822  13.1822  13.3701  13.3701  13.3702  13.3702
    13.5444  13.5444  13.5444  13.5444  13.7552  13.7552  13.7553  13.7553
    14.1672  14.1672  14.1672  14.1673  14.2079  14.2079  14.2079  14.2079
    15.0431  15.0431  15.0431  15.0431  16.3162  16.3162  16.3163  16.3163
    16.4218  16.4218  16.4219  16.4219  17.2794  17.2805  17.2822  17.2826

          k = 0.2500 0.2500 0.0000 ( 34370 PWs)   bands (ev):

   -46.1085 -46.1078 -46.1078 -46.1077 -46.1071 -46.1069 -46.1069 -46.1062
   -22.4428 -22.4404 -22.4404 -22.4384 -22.3950 -22.3935 -22.3935 -22.3920
   -22.3812 -22.3812 -22.3791 -22.3787 -22.3783 -22.3783 -22.3767 -22.3765
   -22.3433 -22.3429 -22.3415 -22.3415 -22.3412 -22.3410 -22.3396 -22.3396
   -14.4241 -14.3429 -14.3429 -14.3238 -14.2835 -14.2691 -14.2690 -14.2195
    -6.6631  -6.6631  -6.5743  -6.5415  -6.3867  -6.1686  -6.1686  -5.8756
    -5.8557  -5.8557  -5.8309  -5.8309  -5.8014  -5.7831  -5.7635  -5.7540
    -5.7501  -5.7282  -5.7144  -5.7108  -5.7108  -5.6126  -5.6125  -5.6069
    -0.2394  -0.1221  -0.0293   0.2150   0.2150   0.3107   0.3294   0.3294
     0.3650   0.3817   0.4126   0.4478   0.4587   0.4587   0.5220   0.5375
     0.5376   0.5849   0.5849   0.6187   0.6631   0.6783   0.6816   0.6816
     6.1083   6.1983   6.1983   6.2988   6.3284   6.5696   6.5696   6.5994
     6.5994   6.6818   6.7023   6.8012   6.8012   6.8061   6.8117   7.3152
     7.5374   7.5687   7.5687   7.6118   7.6406   7.6484   7.6484   7.6595
     7.6889   7.7092   7.7092   7.7882   7.7882   7.8047   7.8672   7.8672
     7.9037   7.9138   7.9596   7.9897   8.0218   8.2431   8.2431   8.4262
     8.4263   8.6078   8.6911   8.6911   8.6996   8.7628   9.0103   9.0103
     9.1103   9.1132   9.1332   9.2064   9.2165   9.2729   9.3317   9.4165
     9.4165   9.4428   9.4428   9.4749   9.5152   9.5152   9.6057   9.6057
     9.9383   9.9420  10.0394  10.0773  10.0842  10.0842  10.1496  10.1716
    12.6314  12.7657  12.7748  12.7789  12.7789  12.8785  13.7248  13.7514
    13.7514  13.7782  13.7782  13.8399  13.8584  13.8584  13.9820  14.0148
    14.0580  14.0580  14.1545  14.2902  14.2902  14.3720  14.4568  14.4670
    14.8031  14.8299  14.8299  15.1144  15.1382  15.1417  15.7436  15.7436
    15.9473  16.0372  16.3524  16.3524  16.8059  17.2379  17.2700  17.3222

          k = 0.2500 0.2500 0.2473 ( 34347 PWs)   bands (ev):

   -46.1084 -46.1078 -46.1077 -46.1077 -46.1071 -46.1071 -46.1070 -46.1063
   -22.4358 -22.4335 -22.4335 -22.4317 -22.4020 -22.4004 -22.4004 -22.3988
   -22.3808 -22.3808 -22.3788 -22.3788 -22.3787 -22.3784 -22.3770 -22.3768
   -22.3430 -22.3426 -22.3415 -22.3413 -22.3412 -22.3412 -22.3399 -22.3399
   -14.4097 -14.3388 -14.3323 -14.3323 -14.2800 -14.2800 -14.2742 -14.2290
    -6.5957  -6.5957  -6.5437  -6.5161  -6.3151  -6.2454  -6.2454  -5.9238
    -5.8890  -5.8494  -5.8494  -5.8255  -5.8255  -5.7940  -5.7807  -5.7577
    -5.7335  -5.7081  -5.7074  -5.6976  -5.6976  -5.6335  -5.6335  -5.6295
    -0.1616  -0.1263   0.1465   0.2269   0.2527   0.2527   0.2871   0.3131
     0.3131   0.3679   0.3741   0.3797   0.3923   0.3923   0.4847   0.4848
     0.5033   0.6148   0.6355   0.6409   0.6409   0.7176   0.7176   0.7315
     6.2391   6.3304   6.3415   6.3415   6.5154   6.5666   6.5666   6.6674
     6.6674   6.7909   6.8058   6.8101   6.8337   6.9019   6.9019   7.3634
     7.4063   7.4063   7.4800   7.4965   7.6532   7.6532   7.6583   7.6628
     7.6628   7.7039   7.7935   7.7935   7.8120   7.8291   7.8398   7.8592
     7.8592   7.8812   7.8971   7.9090   8.0631   8.0631   8.0758   8.3544
     8.4552   8.4552   8.5012   8.5267   8.7303   8.7303   8.9634   9.1456
     9.1723   9.1988   9.1988   9.2285   9.3014   9.3014   9.3091   9.3863
     9.3863   9.4244   9.4366   9.5028   9.5028   9.5348   9.5528   9.5529
     9.8101   9.8619   9.9001   9.9584  10.0131  10.0131  10.1561  10.1640
    12.7409  12.8589  12.9004  12.9228  12.9803  12.9803  13.7730  13.7730
    13.7884  13.8113  13.8113  13.8257  13.8275  13.8275  13.8305  13.8924
    13.8924  13.9147  14.1722  14.1722  14.1860  14.3210  14.3417  14.3644
    15.1194  15.1342  15.1573  15.1573  15.2019  15.5889  15.7276  15.7276
    16.1703  16.2985  16.4622  16.4622  16.5862  17.1573  17.4076  17.5285

          k = 0.2500 0.2500-0.4946 ( 34304 PWs)   bands (ev):

   -46.1081 -46.1081 -46.1074 -46.1074 -46.1074 -46.1074 -46.1067 -46.1067
   -22.4190 -22.4190 -22.4170 -22.4170 -22.4170 -22.4170 -22.4153 -22.4153
   -22.3798 -22.3798 -22.3798 -22.3798 -22.3779 -22.3779 -22.3776 -22.3776
   -22.3423 -22.3422 -22.3420 -22.3419 -22.3405 -22.3405 -22.3405 -22.3405
   -14.3746 -14.3745 -14.3064 -14.3063 -14.3063 -14.3063 -14.2518 -14.2517
    -6.4996  -6.4995  -6.4262  -6.4262  -6.4261  -6.4261  -6.1329  -6.1328
    -5.8702  -5.8701  -5.8272  -5.8272  -5.8271  -5.8271  -5.7760  -5.7759
    -5.6978  -5.6977  -5.6826  -5.6825  -5.6730  -5.6730  -5.6729  -5.6729
     0.0259   0.0259   0.0296   0.0297   0.3046   0.3047   0.3047   0.3047
     0.3742   0.3743   0.3795   0.3796   0.3796   0.3796   0.3972   0.3973
     0.4294   0.4294   0.7134   0.7134   0.7134   0.7134   0.7182   0.7182
     6.3307   6.3308   6.4899   6.4899   6.4900   6.4900   6.8070   6.8071
     7.0086   7.0086   7.0086   7.0086   7.0264   7.0265   7.1054   7.1054
     7.2967   7.2967   7.2968   7.2968   7.4139   7.4140   7.5657   7.5658
     7.6820   7.6820   7.6821   7.6821   7.7783   7.7784   7.8718   7.8718
     7.9335   7.9335   8.0065   8.0066   8.0066   8.0066   8.1846   8.1846
     8.2364   8.2365   8.5180   8.5180   8.5180   8.5180   8.9308   8.9308
     9.2527   9.2527   9.2527   9.2527   9.2940   9.2940   9.4557   9.4557
     9.4557   9.4557   9.5529   9.5529   9.6446   9.6446   9.6900   9.6901
     9.6951   9.6951   9.7617   9.7617   9.7618   9.7618  10.1551  10.1552
    12.8091  12.8092  13.3391  13.3392  13.3655  13.3655  13.4327  13.4327
    13.4328  13.4328  13.8143  13.8143  13.8144  13.8144  13.9502  13.9502
    13.9502  13.9502  14.0778  14.0778  14.1097  14.1098  14.2644  14.2644
    15.1273  15.1273  15.5945  15.5945  15.5945  15.5945  15.9770  15.9772
    16.5098  16.5100  16.7286  16.7288  16.9213  16.9213  16.9214  16.9214

          k = 0.2500-0.5000 0.0000 ( 34342 PWs)   bands (ev):

   -46.1082 -46.1082 -46.1074 -46.1074 -46.1073 -46.1073 -46.1066 -46.1066
   -22.4416 -22.4416 -22.4394 -22.4394 -22.3942 -22.3942 -22.3927 -22.3927
   -22.3801 -22.3801 -22.3774 -22.3774 -22.3622 -22.3622 -22.3602 -22.3602
   -22.3598 -22.3598 -22.3581 -22.3581 -22.3423 -22.3423 -22.3403 -22.3403
   -14.3839 -14.3839 -14.3134 -14.3134 -14.2966 -14.2966 -14.2444 -14.2444
    -6.5806  -6.5806  -6.5194  -6.5194  -6.3847  -6.3847  -5.9781  -5.9781
    -5.8446  -5.8446  -5.8163  -5.8163  -5.7913  -5.7913  -5.7865  -5.7865
    -5.7434  -5.7434  -5.7204  -5.7204  -5.6783  -5.6783  -5.6561  -5.6560
    -0.0457  -0.0456   0.0992   0.0992   0.2657   0.2658   0.2862   0.2862
     0.3600   0.3600   0.3905   0.3905   0.4728   0.4728   0.4898   0.4898
     0.5712   0.5712   0.6173   0.6174   0.6266   0.6266   0.6312   0.6312
     6.1861   6.1861   6.2709   6.2709   6.5047   6.5047   6.7052   6.7052
     6.8720   6.8720   7.1082   7.1082   7.1166   7.1166   7.1399   7.1399
     7.2751   7.2752   7.2939   7.2939   7.3523   7.3523   7.6228   7.6228
     7.7085   7.7085   7.7178   7.7178   7.8652   7.8652   7.8860   7.8860
     7.9237   7.9237   8.0063   8.0063   8.0561   8.0561   8.2481   8.2481
     8.4628   8.4628   8.6038   8.6038   8.7044   8.7044   8.8241   8.8241
     9.1202   9.1202   9.1334   9.1334   9.2424   9.2425   9.3381   9.3382
     9.3930   9.3931   9.6802   9.6802   9.7458   9.7458   9.7481   9.7481
     9.7598   9.7598   9.7878   9.7878   9.9215   9.9215  10.0958  10.0958
    12.7293  12.7293  13.2215  13.2215  13.2415  13.2415  13.2672  13.2672
    13.3816  13.3817  13.7829  13.7829  13.9105  13.9105  14.0261  14.0261
    14.0974  14.0974  14.0999  14.0999  14.2312  14.2312  14.3760  14.3760
    14.8448  14.8448  15.0959  15.0960  15.5796  15.5796  15.8385  15.8386
    16.6435  16.6436  16.6546  16.6546  16.7703  16.7703  16.9867  16.9867

          k = 0.2500-0.5000 0.2473 ( 34354 PWs)   bands (ev):

   -46.1081 -46.1081 -46.1074 -46.1074 -46.1073 -46.1073 -46.1067 -46.1067
   -22.4347 -22.4347 -22.4326 -22.4326 -22.4012 -22.4012 -22.3996 -22.3996
   -22.3797 -22.3797 -22.3778 -22.3778 -22.3619 -22.3619 -22.3601 -22.3601
   -22.3599 -22.3599 -22.3584 -22.3584 -22.3420 -22.3420 -22.3406 -22.3406
   -14.3714 -14.3713 -14.3096 -14.3096 -14.3035 -14.3035 -14.2547 -14.2547
    -6.5315  -6.5315  -6.4499  -6.4499  -6.3857  -6.3857  -6.0763  -6.0763
    -5.8529  -5.8529  -5.8312  -5.8312  -5.7911  -5.7911  -5.7756  -5.7756
    -5.7481  -5.7480  -5.7233  -5.7233  -5.6833  -5.6833  -5.6641  -5.6641
     0.0125   0.0125   0.0691   0.0691   0.2794   0.2795   0.2811   0.2811
     0.3763   0.3763   0.3815   0.3815   0.3890   0.3890   0.4109   0.4109
     0.4297   0.4297   0.7061   0.7061   0.7142   0.7142   0.7145   0.7145
     6.3349   6.3349   6.4618   6.4618   6.4828   6.4828   6.7711   6.7711
     6.9522   6.9522   7.0538   7.0538   7.0783   7.0783   7.0991   7.0991
     7.3035   7.3035   7.3629   7.3629   7.4071   7.4071   7.5961   7.5961
     7.7076   7.7077   7.7116   7.7116   7.7734   7.7735   7.8787   7.8787
     7.9632   7.9632   7.9657   7.9657   7.9863   7.9863   8.1988   8.1988
     8.2540   8.2540   8.4165   8.4165   8.6271   8.6271   8.7461   8.7462
     9.2561   9.2561   9.2662   9.2662   9.2977   9.2977   9.3569   9.3569
     9.4737   9.4737   9.6108   9.6108   9.6184   9.6184   9.7151   9.7151
     9.7586   9.7586   9.8073   9.8073   9.8926   9.8926  10.0111  10.0111
    12.9276  12.9276  13.2747  13.2747  13.3222  13.3223  13.3613  13.3613
    13.3874  13.3874  13.8415  13.8415  13.8433  13.8433  13.9328  13.9328
    13.9409  13.9409  14.0511  14.0511  14.0960  14.0960  14.2597  14.2597
    15.1765  15.1765  15.5244  15.5244  15.5757  15.5757  15.9236  15.9236
    16.6554  16.6554  16.8090  16.8090  16.9861  16.9863  16.9923  16.9923

          k = 0.2500-0.5000-0.4946 ( 34368 PWs)   bands (ev):

   -46.1077 -46.1077 -46.1077 -46.1077 -46.1070 -46.1070 -46.1070 -46.1070
   -22.4180 -22.4180 -22.4180 -22.4180 -22.4162 -22.4162 -22.4162 -22.4162
   -22.3788 -22.3788 -22.3788 -22.3788 -22.3610 -22.3610 -22.3610 -22.3610
   -22.3592 -22.3592 -22.3592 -22.3592 -22.3413 -22.3413 -22.3413 -22.3413
   -14.3408 -14.3408 -14.3407 -14.3407 -14.2793 -14.2793 -14.2792 -14.2792
    -6.4333  -6.4333  -6.4332  -6.4332  -6.2735  -6.2734  -6.2733  -6.2733
    -5.8676  -5.8676  -5.8675  -5.8675  -5.7668  -5.7668  -5.7667  -5.7667
    -5.7395  -5.7394  -5.7393  -5.7393  -5.6829  -5.6829  -5.6828  -5.6828
     0.1170   0.1170   0.1170   0.1170   0.1872   0.1872   0.1872   0.1872
     0.3155   0.3155   0.3155   0.3155   0.3633   0.3633   0.3633   0.3633
     0.6299   0.6299   0.6299   0.6299   0.7688   0.7688   0.7688   0.7688
     6.4469   6.4469   6.4470   6.4471   6.8136   6.8136   6.8137   6.8137
     7.0089   7.0089   7.0090   7.0090   7.2487   7.2487   7.2488   7.2488
     7.2643   7.2643   7.2644   7.2644   7.4844   7.4844   7.4844   7.4844
     7.5690   7.5690   7.5690   7.5691   7.8984   7.8984   7.8985   7.8985
     7.9081   7.9081   7.9081   7.9081   8.0508   8.0508   8.0508   8.0508
     8.1183   8.1183   8.1183   8.1183   8.5527   8.5527   8.5527   8.5527
     9.3738   9.3738   9.3739   9.3739   9.4405   9.4405   9.4405   9.4406
     9.5376   9.5376   9.5377   9.5377   9.6848   9.6848   9.6848   9.6848
     9.7375   9.7375   9.7375   9.7375   9.8633   9.8633   9.8635   9.8635
    13.2882  13.2882  13.2882  13.2883  13.4263  13.4263  13.4264  13.4264
    13.5825  13.5825  13.5826  13.5826  13.7252  13.7253  13.7253  13.7253
    13.9919  13.9919  13.9919  13.9919  14.0397  14.0398  14.0398  14.0398
    15.5182  15.5182  15.5182  15.5182  16.3420  16.3420  16.3421  16.3421
    16.4141  16.4141  16.4142  16.4142  17.0646  17.0646  17.0646  17.0646

          k =-0.5000-0.5000 0.0000 ( 34312 PWs)   bands (ev):

   -46.1078 -46.1078 -46.1078 -46.1078 -46.1069 -46.1069 -46.1069 -46.1069
   -22.4405 -22.4405 -22.4405 -22.4405 -22.3935 -22.3935 -22.3935 -22.3935
   -22.3616 -22.3616 -22.3616 -22.3616 -22.3608 -22.3608 -22.3608 -22.3608
   -22.3591 -22.3591 -22.3591 -22.3591 -22.3587 -22.3587 -22.3587 -22.3587
   -14.3490 -14.3490 -14.3490 -14.3490 -14.2707 -14.2707 -14.2707 -14.2707
    -6.5262  -6.5262  -6.5262  -6.5262  -6.1941  -6.1941  -6.1941  -6.1941
    -5.8022  -5.8022  -5.8022  -5.8022  -5.7788  -5.7788  -5.7788  -5.7788
    -5.7761  -5.7761  -5.7761  -5.7761  -5.6803  -5.6803  -5.6803  -5.6803
     0.0557   0.0557   0.0558   0.0558   0.2892   0.2892   0.2892   0.2892
     0.3389   0.3389   0.3389   0.3389   0.5049   0.5049   0.5050   0.5050
     0.5341   0.5342   0.5342   0.5342   0.6466   0.6466   0.6466   0.6466
     6.2602   6.2602   6.2602   6.2602   6.8937   6.8937   6.8937   6.8937
     6.9109   6.9109   6.9109   6.9109   7.3031   7.3031   7.3031   7.3031
     7.3163   7.3163   7.3163   7.3163   7.3696   7.3696   7.3696   7.3696
     7.6957   7.6957   7.6957   7.6958   7.8490   7.8490   7.8490   7.8490
     7.9068   7.9068   7.9068   7.9068   8.2213   8.2213   8.2213   8.2213
     8.2419   8.2419   8.2419   8.2419   8.5212   8.5212   8.5212   8.5212
     9.2562   9.2562   9.2562   9.2562   9.4840   9.4840   9.4840   9.4840
     9.5179   9.5179   9.5179   9.5179   9.6882   9.6882   9.6882   9.6883
     9.7768   9.7768   9.7768   9.7768   9.8987   9.8987   9.8987   9.8987
    13.1226  13.1226  13.1226  13.1226  13.3419  13.3419  13.3419  13.3419
    13.5374  13.5374  13.5374  13.5374  13.7319  13.7319  13.7319  13.7319
    14.1463  14.1463  14.1463  14.1463  14.1811  14.1811  14.1811  14.1811
    15.0671  15.0671  15.0671  15.0671  16.3606  16.3606  16.3606  16.3606
    16.4420  16.4420  16.4420  16.4420  17.3269  17.3278  17.3282  17.3284

          k =-0.5000-0.5000 0.2473 ( 34388 PWs)   bands (ev):

   -46.1077 -46.1077 -46.1077 -46.1077 -46.1071 -46.1071 -46.1071 -46.1071
   -22.4337 -22.4337 -22.4337 -22.4337 -22.4004 -22.4004 -22.4004 -22.4004
   -22.3613 -22.3613 -22.3613 -22.3613 -22.3605 -22.3605 -22.3605 -22.3605
   -22.3595 -22.3595 -22.3595 -22.3595 -22.3591 -22.3591 -22.3591 -22.3590
   -14.3377 -14.3377 -14.3377 -14.3377 -14.2824 -14.2823 -14.2823 -14.2823
    -6.4666  -6.4666  -6.4666  -6.4666  -6.2216  -6.2216  -6.2216  -6.2215
    -5.8224  -5.8224  -5.8224  -5.8224  -5.7933  -5.7933  -5.7933  -5.7933
    -5.7648  -5.7648  -5.7648  -5.7648  -5.6952  -5.6952  -5.6952  -5.6952
     0.0975   0.0975   0.0975   0.0975   0.2235   0.2235   0.2235   0.2235
     0.2977   0.2977   0.2977   0.2977   0.3656   0.3657   0.3657   0.3657
     0.6314   0.6314   0.6315   0.6315   0.7639   0.7639   0.7639   0.7639
     6.4376   6.4376   6.4376   6.4376   6.8105   6.8105   6.8105   6.8105
     6.9219   6.9219   6.9219   6.9219   7.3093   7.3093   7.3093   7.3093
     7.3577   7.3578   7.3578   7.3578   7.4805   7.4805   7.4805   7.4806
     7.5474   7.5474   7.5474   7.5474   7.9221   7.9221   7.9221   7.9221
     7.9224   7.9224   7.9224   7.9224   8.1337   8.1337   8.1337   8.1337
     8.1339   8.1340   8.1340   8.1340   8.3442   8.3442   8.3442   8.3442
     9.4071   9.4071   9.4071   9.4071   9.4427   9.4427   9.4427   9.4428
     9.5508   9.5508   9.5508   9.5508   9.6780   9.6780   9.6780   9.6780
     9.7795   9.7795   9.7795   9.7796   9.8493   9.8493   9.8493   9.8494
    13.2765  13.2765  13.2765  13.2765  13.4229  13.4229  13.4229  13.4229
    13.5718  13.5718  13.5718  13.5718  13.7011  13.7012  13.7012  13.7012
    13.9865  13.9865  13.9866  13.9866  14.0261  14.0261  14.0261  14.0261
    15.4980  15.4980  15.4980  15.4980  16.3786  16.3786  16.3786  16.3786
    16.4344  16.4345  16.4345  16.4345  17.0866  17.0866  17.0866  17.0867

          k =-0.5000-0.5000-0.4946 ( 34432 PWs)   bands (ev):

   -46.1074 -46.1074 -46.1074 -46.1074 -46.1074 -46.1074 -46.1074 -46.1074
   -22.4171 -22.4171 -22.4171 -22.4171 -22.4171 -22.4171 -22.4171 -22.4171
   -22.3604 -22.3604 -22.3604 -22.3604 -22.3604 -22.3604 -22.3604 -22.3604
   -22.3598 -22.3598 -22.3598 -22.3598 -22.3598 -22.3598 -22.3598 -22.3598
   -14.3103 -14.3103 -14.3102 -14.3102 -14.3102 -14.3101 -14.3101 -14.3101
    -6.3297  -6.3297  -6.3297  -6.3297  -6.3296  -6.3296  -6.3296  -6.3296
    -5.8250  -5.8250  -5.8250  -5.8250  -5.8249  -5.8249  -5.8249  -5.8249
    -5.7305  -5.7305  -5.7305  -5.7305  -5.7304  -5.7303  -5.7303  -5.7303
     0.1978   0.1978   0.1978   0.1978   0.1979   0.1979   0.1979   0.1979
     0.2266   0.2266   0.2267   0.2267   0.2267   0.2267   0.2267   0.2268
     0.7704   0.7704   0.7704   0.7704   0.7704   0.7704   0.7704   0.7704
     6.6556   6.6556   6.6556   6.6556   6.6557   6.6557   6.6557   6.6557
     7.2413   7.2413   7.2413   7.2413   7.2414   7.2414   7.2414   7.2414
     7.3305   7.3305   7.3305   7.3305   7.3306   7.3306   7.3306   7.3306
     7.8474   7.8474   7.8474   7.8474   7.8475   7.8475   7.8475   7.8475
     7.9846   7.9846   7.9846   7.9846   7.9846   7.9846   7.9846   7.9847
     7.9901   7.9902   7.9902   7.9902   7.9902   7.9902   7.9902   7.9902
     9.5766   9.5766   9.5766   9.5766   9.5767   9.5767   9.5767   9.5767
     9.5818   9.5818   9.5818   9.5819   9.5819   9.5819   9.5819   9.5819
     9.7724   9.7724   9.7724   9.7725   9.7725   9.7726   9.7726   9.7726
    13.5920  13.5920  13.5920  13.5920  13.5920  13.5921  13.5921  13.5921
    13.6654  13.6654  13.6654  13.6654  13.6655  13.6655  13.6655  13.6655
    13.6953  13.6953  13.6953  13.6953  13.6954  13.6954  13.6954  13.6954
    16.3794  16.3794  16.3794  16.3794  16.3796  16.3796  16.3796  16.3796
    16.4113  16.4113  16.4113  16.4113  16.4113  16.4114  16.4114  16.4114

     highest occupied, lowest unoccupied level (ev):    10.4080   12.2294

!    total energy              =   -5964.62504940 Ry
     total all-electron energy =   -147449.078622 Ry
     estimated scf accuracy    <          6.8E-11 Ry

     The total energy is the sum of the following terms:
     one-electron contribution =    -550.49453433 Ry
     hartree contribution      =     483.89717495 Ry
     xc contribution           =    -491.50923689 Ry
     ewald contribution        =   -1653.96634398 Ry
     one-center paw contrib.   =   -3752.55210915 Ry

     convergence has been achieved in   7 iterations

     Forces acting on atoms (cartesian axes, Ry/au):

     atom    1 type  1   force =     0.00000000    0.00000000   -0.00097754
     atom    2 type  1   force =     0.00000000    0.00000000   -0.00094395
     atom    3 type  1   force =     0.00000000    0.00000000   -0.00096394
     atom    4 type  1   force =     0.00000000    0.00000000   -0.00095237
     atom    5 type  1   force =     0.00000000    0.00000000   -0.00096394
     atom    6 type  1   force =     0.00000000    0.00000000   -0.00095237
     atom    7 type  1   force =     0.00000000    0.00000000   -0.00098246
     atom    8 type  1   force =     0.00000000    0.00000000   -0.00094365
     atom    9 type  2   force =    -0.00000081   -0.00000081    0.00024058
     atom   10 type  2   force =    -0.00000132   -0.00000132    0.00024966
     atom   11 type  2   force =    -0.00000081    0.00000081    0.00024058
     atom   12 type  2   force =    -0.00000132    0.00000132    0.00024966
     atom   13 type  2   force =     0.00000081   -0.00000081    0.00024058
     atom   14 type  2   force =     0.00000132   -0.00000132    0.00024966
     atom   15 type  2   force =     0.00000081    0.00000081    0.00024058
     atom   16 type  2   force =     0.00000132    0.00000132    0.00024966
     atom   17 type  3   force =    -0.00000145   -0.00000145   -0.00014214
     atom   18 type  3   force =    -0.00000234   -0.00000234   -0.00013422
     atom   19 type  3   force =    -0.00000145    0.00000145   -0.00014214
     atom   20 type  3   force =    -0.00000234    0.00000234   -0.00013422
     atom   21 type  3   force =     0.00000145   -0.00000145   -0.00014214
     atom   22 type  3   force =     0.00000234   -0.00000234   -0.00013422
     atom   23 type  3   force =     0.00000145    0.00000145   -0.00014214
     atom   24 type  3   force =     0.00000234    0.00000234   -0.00013422
     atom   25 type  3   force =    -0.00000209    0.00000000    0.00042073
     atom   26 type  3   force =    -0.00000542    0.00000000    0.00042534
     atom   27 type  3   force =     0.00000083    0.00000000    0.00042528
     atom   28 type  3   force =     0.00000305    0.00000000    0.00043482
     atom   29 type  3   force =     0.00000209    0.00000000    0.00042073
     atom   30 type  3   force =     0.00000542    0.00000000    0.00042534
     atom   31 type  3   force =    -0.00000083    0.00000000    0.00042528
     atom   32 type  3   force =    -0.00000305    0.00000000    0.00043482
     atom   33 type  3   force =     0.00000000   -0.00000209    0.00042073
     atom   34 type  3   force =     0.00000000   -0.00000542    0.00042534
     atom   35 type  3   force =     0.00000000    0.00000209    0.00042073
     atom   36 type  3   force =     0.00000000    0.00000542    0.00042534
     atom   37 type  3   force =    -0.00000000    0.00000083    0.00042528
     atom   38 type  3   force =     0.00000000    0.00000305    0.00043482
     atom   39 type  3   force =     0.00000000   -0.00000083    0.00042528
     atom   40 type  3   force =     0.00000000   -0.00000305    0.00043482

     Total force =     0.003305     Total SCF correction =     0.000003


     Computing stress (Cartesian axis) and pressure

          total   stress  (Ry/bohr**3)                   (kbar)     P=       40.16
   0.00024367   0.00000000   0.00000000           35.84        0.00        0.00
   0.00000000   0.00024367   0.00000000            0.00       35.84        0.00
   0.00000000   0.00000000   0.00033159            0.00        0.00       48.78


     Writing all to output data dir ./tmp/70_ecut_4_kmesh_PBE.save/ :
     XML data file, charge density, pseudopotentials, collected wavefunctions

     init_run     :      1.65s CPU      2.86s WALL (       1 calls)
     electrons    :     14.22s CPU     14.75s WALL (       1 calls)
     forces       :      0.51s CPU      0.52s WALL (       1 calls)
     stress       :      1.17s CPU      1.21s WALL (       1 calls)

     Called by init_run:
     wfcinit      :      0.45s CPU      1.43s WALL (       1 calls)
     potinit      :      0.19s CPU      0.30s WALL (       1 calls)
     hinit0       :      0.76s CPU      0.85s WALL (       1 calls)

     Called by electrons:
     c_bands      :     11.30s CPU     11.63s WALL (       8 calls)
     sum_band     :      1.92s CPU      2.01s WALL (       8 calls)
     v_of_rho     :      0.23s CPU      0.26s WALL (       8 calls)
     newd         :      0.24s CPU      0.25s WALL (       8 calls)
     PAW_pot      :      0.37s CPU      0.38s WALL (       8 calls)
     mix_rho      :      0.01s CPU      0.02s WALL (       8 calls)

     Called by c_bands:
     init_us_2    :      0.32s CPU      0.33s WALL (      54 calls)
     cegterg      :     10.41s CPU     10.71s WALL (      24 calls)

     Called by *egterg:
     cdiaghg      :      1.28s CPU      1.36s WALL (      78 calls)
     h_psi        :      5.70s CPU      5.82s WALL (      84 calls)
     s_psi        :      0.79s CPU      0.80s WALL (      84 calls)
     g_psi        :      0.01s CPU      0.01s WALL (      60 calls)

     Called by h_psi:
     h_psi:calbec :      1.01s CPU      1.05s WALL (      84 calls)
     vloc_psi     :      3.86s CPU      3.92s WALL (      84 calls)
                                        0.00s GPU  (      84 calls)
     add_vuspsi   :      0.79s CPU      0.80s WALL (      84 calls)

     General routines
     calbec       :      2.46s CPU      2.55s WALL (     159 calls)
     fft          :      0.87s CPU      0.94s WALL (     128 calls)
     ffts         :      0.09s CPU      0.09s WALL (      16 calls)
     fftw         :      4.54s CPU      4.60s WALL (   25644 calls)
     interpolate  :      0.10s CPU      0.10s WALL (       8 calls)

     Parallel routines

     PWSCF        :     18.84s CPU     22.06s WALL


   This run was terminated on:   0:15:14  21May2026            

=------------------------------------------------------------------------------=
   JOB DONE.
=------------------------------------------------------------------------------=
