
     Program PWSCF v.7.5 starts on 21May2026 at  0:13:47 

     This program is part of the open-source Quantum ESPRESSO suite
     for quantum simulation of materials; please cite
         "P. Giannozzi et al., J. Phys.:Condens. Matter 21 395502 (2009);
         "P. Giannozzi et al., J. Phys.:Condens. Matter 29 465901 (2017);
         "P. Giannozzi et al., J. Chem. Phys. 152 154105 (2020);
          URL http://www.quantum-espresso.org", 
     in publications or presentations arising from this work. More details at
     http://www.quantum-espresso.org/quote

     Parallel version (MPI & OpenMP), running on     192 processor cores
     Number of MPI processes:               192
     Threads/MPI process:                     1

     MPI processes distributed on     1 nodes
     606716 MiB available memory on the printing compute node when the environment starts

     Waiting for input...
     Reading input from standard input

     Current dimensions of program PWSCF are:
     Max number of different atomic species (ntypx) = 10
     Max number of k-points (npk) =  40000
     Max angular momentum in pseudopotentials (lmaxx) =  4
     file Ba.pbe-spn-kjpaw_psl.1.0.0.UPF: wavefunction(s)  5S 6S renormalized
     file Ti.pbe-spn-kjpaw_psl.1.0.0.UPF: wavefunction(s)  3S 3P 3D renormalized
     file O.pbe-n-kjpaw_psl.1.0.0.UPF: wavefunction(s)  2S 2P renormalized

     IMPORTANT: XC functional enforced from input :
     Exchange-correlation= PBE
                           (   1   4   3   4   0   0   0)
     Any further DFT definition will be discarded
     Please, verify this is what you really want

     Found identity + ( -0.5000 -0.5000  0.0000) symmetry
     This is a supercell, fractional translations are disabled

     K-points division:     npool     =       8
     R & G space division:  proc/nbgrp/npool/nimage =      24
     Subspace diagonalization in iterative solution of the eigenvalue problem:
     one sub-group per band group will be used
     ELPA distributed-memory algorithm (size of sub-group:  2*  2 procs)


     Parallelization info
     --------------------
     sticks:   dense  smooth     PW     G-vecs:    dense   smooth      PW
     Min         301     150     41                19547     6905     997
     Max         302     152     42                19550     6908    1002
     Sum        7237    3605    997               469165   165745   23993

     Using Slab Decomposition



     bravais-lattice index     =            6
     lattice parameter (alat)  =      15.0876  a.u.
     unit-cell volume          =    3472.3239 (a.u.)^3
     number of atoms/cell      =           40
     number of atomic types    =            3
     number of electrons       =       320.00
     number of Kohn-Sham states=          200
     kinetic-energy cutoff     =      50.0000  Ry
     charge density cutoff     =     400.0000  Ry
     scf convergence threshold =      1.0E-10
     mixing beta               =       0.3000
     number of iterations used =           16  plain     mixing
     Exchange-correlation= PBE
                           (   1   4   3   4   0   0   0)

     celldm(1)=  15.087600  celldm(2)=   0.000000  celldm(3)=   1.011020
     celldm(4)=   0.000000  celldm(5)=   0.000000  celldm(6)=   0.000000

     crystal axes: (cart. coord. in units of alat)
               a(1) = (   1.000000   0.000000   0.000000 )  
               a(2) = (   0.000000   1.000000   0.000000 )  
               a(3) = (   0.000000   0.000000   1.011020 )  

     reciprocal axes: (cart. coord. in units 2 pi/alat)
               b(1) = (  1.000000  0.000000  0.000000 )  
               b(2) = (  0.000000  1.000000  0.000000 )  
               b(3) = (  0.000000  0.000000  0.989100 )  


     PseudoPot. # 1 for Ba read from file:
     /home/kylay/scratch/BTO/pseuds/Ba.pbe-spn-kjpaw_psl.1.0.0.UPF
     MD5 check sum: 7cfe25f1fe7574a4710541d5a11d6531
     Pseudo is Projector augmented-wave + core cor, Zval = 10.0
     Generated using &quot;atomic&quot; code by A. Dal Corso  v.6.2.2
     Shape of augmentation charge: PSQ
     Using radial grid of 1251 points,  7 beta functions with: 
                l(1) =   0
                l(2) =   0
                l(3) =   0
                l(4) =   1
                l(5) =   1
                l(6) =   2
                l(7) =   2
     Q(r) pseudized with 0 coefficients 


     PseudoPot. # 2 for Ti read from file:
     /home/kylay/scratch/BTO/pseuds/Ti.pbe-spn-kjpaw_psl.1.0.0.UPF
     MD5 check sum: 01f69b0d8ba4438b2e03ac6ea4af1c0b
     Pseudo is Projector augmented-wave + core cor, Zval = 12.0
     Generated using &quot;atomic&quot; code by A. Dal Corso  v.6.2.2
     Shape of augmentation charge: PSQ
     Using radial grid of 1177 points,  6 beta functions with: 
                l(1) =   0
                l(2) =   0
                l(3) =   1
                l(4) =   1
                l(5) =   2
                l(6) =   2
     Q(r) pseudized with 0 coefficients 


     PseudoPot. # 3 for O  read from file:
     /home/kylay/scratch/BTO/pseuds/O.pbe-n-kjpaw_psl.1.0.0.UPF
     MD5 check sum: e99d9cef9b487d1ca56f5b95ecd0fd7a
     Pseudo is Projector augmented-wave + core cor, Zval =  6.0
     Generated using &quot;atomic&quot; code by A. Dal Corso  v.6.3
     Shape of augmentation charge: PSQ
     Using radial grid of 1095 points,  4 beta functions with: 
                l(1) =   0
                l(2) =   0
                l(3) =   1
                l(4) =   1
     Q(r) pseudized with 0 coefficients 


     atomic species   valence    mass     pseudopotential
     Ba               10.00   137.32700     Ba( 1.00)
     Ti               12.00    47.86700     Ti( 1.00)
     O                 6.00    15.99900     O ( 1.00)

      8 Sym. Ops. (no inversion) found



   Cartesian axes

     site n.     atom                  positions (alat units)
         1        Ba     tau(   1) = (   0.0000000   0.0000000  -0.0010787  )
         2        Ba     tau(   2) = (   0.0000000   0.0000000   0.5044220  )
         3        Ba     tau(   3) = (   0.0000000   0.5000000  -0.0010832  )
         4        Ba     tau(   4) = (   0.0000000   0.5000000   0.5044235  )
         5        Ba     tau(   5) = (   0.5000000   0.0000000  -0.0010832  )
         6        Ba     tau(   6) = (   0.5000000   0.0000000   0.5044235  )
         7        Ba     tau(   7) = (   0.5000000   0.5000000  -0.0010766  )
         8        Ba     tau(   8) = (   0.5000000   0.5000000   0.5044202  )
         9        Ti     tau(   9) = (   0.2500002   0.2500002   0.2436990  )
        10        Ti     tau(  10) = (   0.2500007   0.2500007   0.7492042  )
        11        Ti     tau(  11) = (   0.2500002   0.7499998   0.2436990  )
        12        Ti     tau(  12) = (   0.2500007   0.7499993   0.7492042  )
        13        Ti     tau(  13) = (   0.7499998   0.2500002   0.2436990  )
        14        Ti     tau(  14) = (   0.7499993   0.2500007   0.7492042  )
        15        Ti     tau(  15) = (   0.7499998   0.7499998   0.2436990  )
        16        Ti     tau(  16) = (   0.7499993   0.7499993   0.7492042  )
        17        O      tau(  17) = (   0.2500011   0.2500011   0.0113903  )
        18        O      tau(  18) = (   0.2500007   0.2500007   0.5168954  )
        19        O      tau(  19) = (   0.2500011   0.7499989   0.0113903  )
        20        O      tau(  20) = (   0.2500007   0.7499993   0.5168954  )
        21        O      tau(  21) = (   0.7499989   0.2500011   0.0113903  )
        22        O      tau(  22) = (   0.7499993   0.2500007   0.5168954  )
        23        O      tau(  23) = (   0.7499989   0.7499989   0.0113903  )
        24        O      tau(  24) = (   0.7499993   0.7499993   0.5168954  )
        25        O      tau(  25) = (   0.2500005   0.0000000   0.2592128  )
        26        O      tau(  26) = (   0.2500020   0.0000000   0.7647195  )
        27        O      tau(  27) = (   0.2499999   0.5000000   0.2592107  )
        28        O      tau(  28) = (   0.2499998   0.5000000   0.7647148  )
        29        O      tau(  29) = (   0.7499995   0.0000000   0.2592128  )
        30        O      tau(  30) = (   0.7499980   0.0000000   0.7647195  )
        31        O      tau(  31) = (   0.7500001   0.5000000   0.2592107  )
        32        O      tau(  32) = (   0.7500002   0.5000000   0.7647148  )
        33        O      tau(  33) = (   0.0000000   0.2500005   0.2592128  )
        34        O      tau(  34) = (   0.0000000   0.2500020   0.7647195  )
        35        O      tau(  35) = (   0.0000000   0.7499995   0.2592128  )
        36        O      tau(  36) = (   0.0000000   0.7499980   0.7647195  )
        37        O      tau(  37) = (   0.5000000   0.2499999   0.2592107  )
        38        O      tau(  38) = (   0.5000000   0.2499998   0.7647148  )
        39        O      tau(  39) = (   0.5000000   0.7500001   0.2592107  )
        40        O      tau(  40) = (   0.5000000   0.7500002   0.7647148  )

     number of k points=    40
                       cart. coord. in units 2pi/alat
        k(    1) = (   0.0000000   0.0000000   0.0000000), wk =   0.0092593
        k(    2) = (   0.0000000   0.0000000   0.1648500), wk =   0.0185185
        k(    3) = (   0.0000000   0.0000000   0.3297000), wk =   0.0185185
        k(    4) = (   0.0000000   0.0000000  -0.4945501), wk =   0.0092593
        k(    5) = (   0.0000000   0.1666667   0.0000000), wk =   0.0370370
        k(    6) = (   0.0000000   0.1666667   0.1648500), wk =   0.0740741
        k(    7) = (   0.0000000   0.1666667   0.3297000), wk =   0.0740741
        k(    8) = (   0.0000000   0.1666667  -0.4945501), wk =   0.0370370
        k(    9) = (   0.0000000   0.3333333   0.0000000), wk =   0.0370370
        k(   10) = (   0.0000000   0.3333333   0.1648500), wk =   0.0740741
        k(   11) = (   0.0000000   0.3333333   0.3297000), wk =   0.0740741
        k(   12) = (   0.0000000   0.3333333  -0.4945501), wk =   0.0370370
        k(   13) = (   0.0000000  -0.5000000   0.0000000), wk =   0.0185185
        k(   14) = (   0.0000000  -0.5000000   0.1648500), wk =   0.0370370
        k(   15) = (   0.0000000  -0.5000000   0.3297000), wk =   0.0370370
        k(   16) = (   0.0000000  -0.5000000  -0.4945501), wk =   0.0185185
        k(   17) = (   0.1666667   0.1666667   0.0000000), wk =   0.0370370
        k(   18) = (   0.1666667   0.1666667   0.1648500), wk =   0.0740741
        k(   19) = (   0.1666667   0.1666667   0.3297000), wk =   0.0740741
        k(   20) = (   0.1666667   0.1666667  -0.4945501), wk =   0.0370370
        k(   21) = (   0.1666667   0.3333333   0.0000000), wk =   0.0740741
        k(   22) = (   0.1666667   0.3333333   0.1648500), wk =   0.1481481
        k(   23) = (   0.1666667   0.3333333   0.3297000), wk =   0.1481481
        k(   24) = (   0.1666667   0.3333333  -0.4945501), wk =   0.0740741
        k(   25) = (   0.1666667  -0.5000000   0.0000000), wk =   0.0370370
        k(   26) = (   0.1666667  -0.5000000   0.1648500), wk =   0.0740741
        k(   27) = (   0.1666667  -0.5000000   0.3297000), wk =   0.0740741
        k(   28) = (   0.1666667  -0.5000000  -0.4945501), wk =   0.0370370
        k(   29) = (   0.3333333   0.3333333   0.0000000), wk =   0.0370370
        k(   30) = (   0.3333333   0.3333333   0.1648500), wk =   0.0740741
        k(   31) = (   0.3333333   0.3333333   0.3297000), wk =   0.0740741
        k(   32) = (   0.3333333   0.3333333  -0.4945501), wk =   0.0370370
        k(   33) = (   0.3333333  -0.5000000   0.0000000), wk =   0.0370370
        k(   34) = (   0.3333333  -0.5000000   0.1648500), wk =   0.0740741
        k(   35) = (   0.3333333  -0.5000000   0.3297000), wk =   0.0740741
        k(   36) = (   0.3333333  -0.5000000  -0.4945501), wk =   0.0370370
        k(   37) = (  -0.5000000  -0.5000000   0.0000000), wk =   0.0092593
        k(   38) = (  -0.5000000  -0.5000000   0.1648500), wk =   0.0185185
        k(   39) = (  -0.5000000  -0.5000000   0.3297000), wk =   0.0185185
        k(   40) = (  -0.5000000  -0.5000000  -0.4945501), wk =   0.0092593

     Dense  grid:   469165 G-vectors     FFT dimensions: ( 100, 100, 100)

     Smooth grid:   165745 G-vectors     FFT dimensions: (  72,  72,  72)

     Estimated max dynamical RAM per process >      65.20 MB

     Estimated total dynamical RAM >      10.66 GB

     Check: negative core charge=   -0.000005

     The initial density is read from file :
     ./tmp/50_ecut_6_kmesh_PBE.save/charge-density

     Starting wfcs from file
     Checking if some PAW data can be deallocated... 

     total cpu time spent up to now is        4.6 secs

     per-process dynamical memory:   120.5 Mb

     Self-consistent Calculation

     iteration #  1     ecut=    50.00 Ry     beta= 0.30
     Davidson diagonalization with overlap
     ethr =  1.00E-05,  avg # of iterations =  1.0

     Threshold (ethr) on eigenvalues was too large:
     Diagonalizing with lowered threshold

     Davidson diagonalization with overlap
     ethr =  1.32E-11,  avg # of iterations =  2.2

     total cpu time spent up to now is        8.7 secs

     total energy              =   -5964.58030711 Ry
     estimated scf accuracy    <       0.00000005 Ry

     iteration #  2     ecut=    50.00 Ry     beta= 0.30
     Davidson diagonalization with overlap
     ethr =  1.55E-11,  avg # of iterations =  2.0

     total cpu time spent up to now is       10.6 secs

     total energy              =   -5964.58030711 Ry
     estimated scf accuracy    <          9.5E-09 Ry

     iteration #  3     ecut=    50.00 Ry     beta= 0.30
     Davidson diagonalization with overlap
     ethr =  2.97E-12,  avg # of iterations =  3.8

     total cpu time spent up to now is       13.0 secs

     total energy              =   -5964.58030712 Ry
     estimated scf accuracy    <          4.7E-10 Ry

     iteration #  4     ecut=    50.00 Ry     beta= 0.30
     Davidson diagonalization with overlap
     ethr =  1.46E-13,  avg # of iterations =  6.6

     total cpu time spent up to now is       16.6 secs

     total energy              =   -5964.58030712 Ry
     estimated scf accuracy    <          2.4E-10 Ry

     iteration #  5     ecut=    50.00 Ry     beta= 0.30
     Davidson diagonalization with overlap
     ethr =  1.00E-13,  avg # of iterations =  1.6

     total cpu time spent up to now is       18.5 secs

     End of self-consistent calculation

          k = 0.0000 0.0000 0.0000 ( 20651 PWs)   bands (ev):

   -46.1120 -46.1112 -46.1110 -46.1110 -46.1101 -46.1101 -46.1099 -46.1090
   -22.4465 -22.4428 -22.4428 -22.4398 -22.3978 -22.3959 -22.3959 -22.3941
   -22.3920 -22.3920 -22.3887 -22.3887 -22.3884 -22.3884 -22.3859 -22.3859
   -22.3378 -22.3378 -22.3362 -22.3362 -22.3360 -22.3360 -22.3343 -22.3343
   -14.4575 -14.3459 -14.3365 -14.3365 -14.2670 -14.2670 -14.2591 -14.1986
    -6.7750  -6.7750  -6.7227  -6.5323  -6.2540  -6.1410  -6.1410  -5.9067
    -5.9067  -5.9058  -5.8452  -5.8452  -5.8113  -5.7791  -5.7474  -5.7474
    -5.7444  -5.7444  -5.7359  -5.6701  -5.5767  -5.5767  -5.5151  -5.5151
    -0.3535  -0.3535  -0.2914   0.2992   0.2992   0.3153   0.3153   0.3655
     0.3709   0.3709   0.3750   0.3750   0.5281   0.5281   0.5329   0.5330
     0.5498   0.5498   0.7385   0.7428   0.7428   0.7628   0.7628   0.8066
     5.9200   6.0781   6.1031   6.1031   6.2960   6.2960   6.3348   6.3506
     6.4075   6.4075   6.5600   6.5600   6.5604   6.5821   6.5978   7.5269
     7.5269   7.5779   7.5779   7.6251   7.6251   7.6262   7.6262   7.6399
     7.6399   7.7391   7.7391   7.9245   7.9245   7.9540   8.0515   8.0863
     8.0863   8.0919   8.0919   8.3862   8.3862   8.4550   8.4584   8.4708
     8.4708   8.5516   8.5516   8.6155   8.6912   8.6912   8.7160   8.7160
     9.0506   9.0506   9.2292   9.3439   9.3439   9.3769   9.3769   9.4737
     9.4737   9.4822   9.4822   9.5007   9.5007   9.7150   9.7150   9.9953
    10.0601  10.0601  10.1768  10.1768  10.2470  10.2470  10.3383  10.4089
    12.2321  12.3785  12.5502  12.5502  12.6669  12.6669  13.9475  13.9475
    13.9762  13.9762  14.0035  14.0035  14.0096  14.0096  14.0243  14.0243
    14.0262  14.0262  14.3677  14.3677  14.3967  14.4665  14.4671  14.5532
    14.5532  14.6135  14.6135  14.6186  14.6212  15.1017  15.3022  15.3022
    15.3438  15.4902  16.2977  16.2977  16.4940  16.8981  17.1088  17.1089

          k = 0.0000 0.0000 0.1649 ( 20678 PWs)   bands (ev):

   -46.1120 -46.1112 -46.1109 -46.1109 -46.1102 -46.1102 -46.1099 -46.1091
   -22.4431 -22.4397 -22.4397 -22.4369 -22.4013 -22.3992 -22.3992 -22.3971
   -22.3917 -22.3917 -22.3890 -22.3890 -22.3883 -22.3883 -22.3862 -22.3862
   -22.3377 -22.3377 -22.3363 -22.3363 -22.3359 -22.3359 -22.3345 -22.3344
   -14.4502 -14.3536 -14.3320 -14.3319 -14.2718 -14.2717 -14.2551 -14.2027
    -6.7418  -6.7418  -6.7007  -6.5302  -6.2215  -6.2094  -6.2094  -5.9080
    -5.8782  -5.8782  -5.8415  -5.8415  -5.8091  -5.7813  -5.7731  -5.7338
    -5.7338  -5.7317  -5.7317  -5.6982  -5.5886  -5.5886  -5.5304  -5.5304
    -0.3120  -0.3120  -0.2337   0.2527   0.2527   0.3425   0.3425   0.3792
     0.3792   0.3848   0.3848   0.3955   0.5174   0.5174   0.5193   0.5193
     0.5621   0.5621   0.6540   0.7291   0.7291   0.7301   0.7301   0.7774
     5.9643   6.0794   6.1593   6.1593   6.3672   6.3672   6.3951   6.3951
     6.4422   6.4730   6.5831   6.5968   6.6167   6.6167   6.6384   7.5316
     7.5316   7.5755   7.5755   7.6040   7.6040   7.6663   7.6663   7.6752
     7.6752   7.7882   7.7882   7.7903   7.7903   7.8575   7.9182   7.9182
     7.9288   8.0668   8.0668   8.4098   8.4098   8.4230   8.4932   8.4932
     8.4994   8.5348   8.5356   8.5357   8.7240   8.7240   8.9756   8.9756
     9.0122   9.0122   9.1674   9.2849   9.2849   9.3777   9.3777   9.4132
     9.4132   9.4253   9.4253   9.4326   9.4326   9.7356   9.7356   9.8432
    10.0358  10.0358  10.1381  10.1381  10.1670  10.1670  10.3430  10.4041
    12.2415  12.3683  12.6625  12.6625  12.7683  12.7683  13.9201  13.9201
    13.9388  13.9388  13.9497  13.9497  13.9744  13.9744  14.0083  14.0083
    14.0613  14.0613  14.3232  14.3232  14.4111  14.4663  14.4664  14.5662
    14.5662  14.6055  14.6856  14.6856  14.7990  15.2929  15.2929  15.3149
    15.4747  15.6204  16.3789  16.3789  16.4006  16.8915  17.1950  17.2777

          k = 0.0000 0.0000 0.3297 ( 20666 PWs)   bands (ev):

   -46.1118 -46.1114 -46.1108 -46.1108 -46.1103 -46.1103 -46.1097 -46.1093
   -22.4343 -22.4311 -22.4311 -22.4287 -22.4103 -22.4077 -22.4077 -22.4055
   -22.3911 -22.3911 -22.3895 -22.3895 -22.3878 -22.3878 -22.3867 -22.3867
   -22.3374 -22.3374 -22.3367 -22.3367 -22.3355 -22.3355 -22.3347 -22.3347
   -14.4302 -14.3744 -14.3194 -14.3194 -14.2847 -14.2846 -14.2441 -14.2139
    -6.6479  -6.6479  -6.6443  -6.5385  -6.3520  -6.3520  -6.1311  -5.8976
    -5.8726  -5.8434  -5.8434  -5.8336  -5.8336  -5.8033  -5.7872  -5.7692
    -5.7045  -5.7045  -5.6888  -5.6888  -5.6208  -5.6208  -5.5726  -5.5726
    -0.1973  -0.1973  -0.0697   0.1282   0.1282   0.4036   0.4036   0.4120
     0.4120   0.4189   0.4189   0.4380   0.4771   0.4841   0.4842   0.4884
     0.4884   0.5960   0.5960   0.6427   0.6427   0.6924   0.6924   0.6974
     6.0366   6.0808   6.2568   6.2568   6.3641   6.3641   6.5753   6.5753
     6.5860   6.5939   6.7408   6.7930   6.8275   6.8275   6.9126   7.3245
     7.3246   7.4739   7.4739   7.5433   7.5433   7.5684   7.5684   7.5878
     7.5989   7.7579   7.7579   7.7715   7.7715   7.8941   7.8941   7.9321
     7.9321   7.9474   8.0053   8.0053   8.3371   8.3371   8.4842   8.4842
     8.6248   8.7280   8.7281   8.7546   8.8002   8.8002   8.8198   8.8198
     9.0079   9.1390   9.1390   9.2130   9.2130   9.2460   9.2460   9.3065
     9.3065   9.4327   9.4327   9.4867   9.5286   9.5286   9.7941   9.7941
     9.9644   9.9644   9.9687   9.9687  10.0115  10.0115  10.3557  10.3910
    12.2675  12.3407  12.9532  12.9532  13.0333  13.0333  13.6724  13.6724
    13.7035  13.7035  13.9554  13.9554  13.9696  13.9696  14.0357  14.0357
    14.1590  14.1590  14.2168  14.2168  14.4467  14.4467  14.4510  14.4655
    14.4657  14.5632  14.9509  14.9509  15.2291  15.2542  15.2542  15.8298
    15.8387  15.9904  16.1302  16.6441  16.6441  16.7934  16.8152  17.1619

          k = 0.0000 0.0000-0.4946 ( 20690 PWs)   bands (ev):

   -46.1116 -46.1116 -46.1105 -46.1105 -46.1105 -46.1105 -46.1095 -46.1095
   -22.4225 -22.4225 -22.4194 -22.4194 -22.4194 -22.4194 -22.4172 -22.4172
   -22.3903 -22.3903 -22.3903 -22.3903 -22.3872 -22.3872 -22.3872 -22.3872
   -22.3371 -22.3371 -22.3371 -22.3371 -22.3352 -22.3352 -22.3351 -22.3351
   -14.4025 -14.4024 -14.3022 -14.3021 -14.3021 -14.3020 -14.2291 -14.2290
    -6.5796  -6.5795  -6.5096  -6.5096  -6.5095  -6.5095  -6.0042  -6.0041
    -5.8485  -5.8484  -5.8305  -5.8305  -5.8304  -5.8304  -5.7953  -5.7952
    -5.6634  -5.6634  -5.6633  -5.6633  -5.6306  -5.6306  -5.6305  -5.6304
    -0.0371  -0.0371  -0.0370  -0.0370   0.1715   0.1716   0.4411   0.4412
     0.4412   0.4413   0.4497   0.4497   0.4498   0.4498   0.5280   0.5280
     0.5281   0.5281   0.5876   0.5877   0.6434   0.6434   0.6435   0.6435
     6.0726   6.0727   6.3212   6.3212   6.3213   6.3213   6.5899   6.5900
     6.9036   6.9036   6.9037   6.9037   7.1617   7.1619   7.1715   7.1715
     7.1717   7.1717   7.2025   7.2025   7.3860   7.3862   7.5569   7.5569
     7.5571   7.5571   7.8407   7.8407   7.8408   7.8408   7.9001   7.9001
     7.9002   7.9002   8.1310   8.1310   8.1311   8.1311   8.6171   8.6171
     8.6172   8.6172   8.8079   8.8081   8.9673   8.9673   8.9674   8.9674
     8.9888   8.9888   8.9889   8.9889   9.0895   9.0895   9.1964   9.1964
     9.1964   9.1964   9.7248   9.7248   9.7248   9.7248   9.7776   9.7776
     9.7776   9.7776   9.8789   9.8789   9.8790   9.8790  10.3732  10.3734
    12.3036  12.3037  13.3229  13.3229  13.3230  13.3230  13.3753  13.3753
    13.3754  13.3754  13.9627  13.9627  13.9627  13.9627  14.1065  14.1065
    14.1066  14.1066  14.2979  14.2979  14.2979  14.2979  14.4653  14.4654
    14.5065  14.5065  15.1536  15.1536  15.1536  15.1536  15.7165  15.7166
    16.3163  16.3165  16.4219  16.4221  16.5395  16.5397  17.0785  17.0785

          k = 0.0000 0.1667 0.0000 ( 20712 PWs)   bands (ev):

   -46.1120 -46.1111 -46.1111 -46.1109 -46.1102 -46.1100 -46.1100 -46.1091
   -22.4461 -22.4431 -22.4426 -22.4401 -22.3977 -22.3961 -22.3958 -22.3942
   -22.3918 -22.3887 -22.3886 -22.3885 -22.3863 -22.3853 -22.3851 -22.3827
   -22.3415 -22.3398 -22.3396 -22.3379 -22.3377 -22.3361 -22.3361 -22.3344
   -14.4496 -14.3448 -14.3408 -14.3314 -14.2724 -14.2643 -14.2625 -14.2033
    -6.7516  -6.7436  -6.6893  -6.5362  -6.2943  -6.1906  -6.1059  -5.9007
    -5.8958  -5.8917  -5.8478  -5.8367  -5.8081  -5.7730  -5.7485  -5.7476
    -5.7396  -5.7366  -5.7287  -5.6857  -5.6169  -5.5888  -5.5470  -5.5301
    -0.3111  -0.2982  -0.2435   0.2675   0.3121   0.3227   0.3265   0.3271
     0.3760   0.3862   0.3971   0.4017   0.5105   0.5207   0.5211   0.5375
     0.5416   0.5545   0.6531   0.7245   0.7275   0.7286   0.7373   0.7745
     5.9679   6.1033   6.1362   6.1546   6.3247   6.3426   6.3928   6.4223
     6.4238   6.5138   6.5603   6.5671   6.6393   6.6506   6.6660   7.5631
     7.5646   7.5750   7.5771   7.6236   7.6304   7.6362   7.6369   7.6638
     7.6908   7.7350   7.7679   7.8255   7.9168   7.9210   7.9214   7.9528
     7.9626   8.0406   8.0682   8.1448   8.1691   8.3263   8.5006   8.5269
     8.5290   8.5627   8.6533   8.6834   8.7461   8.7520   8.9409   8.9423
     8.9881   9.0575   9.1135   9.1931   9.3141   9.3393   9.3804   9.4033
     9.4649   9.5113   9.5167   9.5423   9.5476   9.5903   9.6193   9.8278
     9.9859  10.0597  10.1368  10.1751  10.1814  10.2408  10.2957  10.3309
    12.3778  12.5108  12.5605  12.6089  12.6575  12.7199  13.8502  13.8816
    13.8927  13.9152  13.9561  13.9888  14.0058  14.0104  14.0134  14.0232
    14.0243  14.0416  14.3149  14.3451  14.3841  14.5575  14.5591  14.5601
    14.5652  14.5988  14.6221  14.6903  14.7376  15.1166  15.2907  15.4807
    15.5247  15.6247  16.2271  16.3967  16.5772  16.9577  17.2107  17.3198

          k = 0.0000 0.1667 0.1649 ( 20705 PWs)   bands (ev):

   -46.1119 -46.1112 -46.1110 -46.1109 -46.1102 -46.1101 -46.1099 -46.1092
   -22.4429 -22.4398 -22.4394 -22.4371 -22.4011 -22.3993 -22.3991 -22.3972
   -22.3915 -22.3888 -22.3885 -22.3882 -22.3864 -22.3855 -22.3849 -22.3828
   -22.3414 -22.3399 -22.3394 -22.3379 -22.3376 -22.3362 -22.3360 -22.3346
   -14.4425 -14.3482 -14.3401 -14.3269 -14.2774 -14.2672 -14.2603 -14.2074
    -6.7198  -6.7104  -6.6690  -6.5313  -6.2616  -6.2394  -6.1764  -5.9043
    -5.8797  -5.8656  -5.8448  -5.8327  -5.8059  -5.7934  -5.7756  -5.7377
    -5.7260  -5.7225  -5.7197  -5.7129  -5.6203  -5.5986  -5.5615  -5.5436
    -0.2823  -0.2707  -0.1655   0.2612   0.2816   0.2956   0.3250   0.3364
     0.3693   0.3961   0.4190   0.4431   0.4733   0.4975   0.5039   0.5307
     0.5496   0.5929   0.6542   0.6554   0.6950   0.7140   0.7145   0.7541
     6.0166   6.1375   6.1593   6.2181   6.3815   6.4145   6.4304   6.4796
     6.4997   6.5314   6.6169   6.6231   6.6404   6.6804   6.6988   7.5510
     7.5645   7.5794   7.6054   7.6194   7.6213   7.6337   7.6646   7.6704
     7.7157   7.7202   7.7562   7.7865   7.8113   7.8660   7.8685   7.9155
     7.9291   7.9806   7.9918   8.0510   8.1124   8.3491   8.4665   8.5023
     8.5326   8.5791   8.5919   8.7785   8.8267   8.9139   8.9339   8.9636
     9.0157   9.0369   9.0823   9.1962   9.3029   9.3237   9.3598   9.3724
     9.4299   9.4583   9.4634   9.4646   9.4854   9.6191   9.6409   9.7246
     9.9591   9.9986  10.0973  10.1046  10.1399  10.1589  10.2984  10.3352
    12.3862  12.5015  12.6718  12.7067  12.7595  12.8183  13.8527  13.8766
    13.8997  13.9004  13.9212  13.9402  13.9556  13.9570  13.9607  14.0099
    14.0129  14.0577  14.2646  14.3394  14.3593  14.5084  14.5427  14.5585
    14.5960  14.6216  14.6906  14.8368  14.8811  15.2815  15.3289  15.5179
    15.6057  15.7531  16.3077  16.4619  16.4829  16.9809  17.2688  17.3793

          k = 0.0000 0.1667 0.3297 ( 20710 PWs)   bands (ev):

   -46.1118 -46.1113 -46.1108 -46.1107 -46.1104 -46.1103 -46.1098 -46.1093
   -22.4341 -22.4313 -22.4309 -22.4288 -22.4101 -22.4079 -22.4076 -22.4057
   -22.3910 -22.3894 -22.3881 -22.3877 -22.3869 -22.3860 -22.3844 -22.3832
   -22.3412 -22.3402 -22.3391 -22.3382 -22.3374 -22.3365 -22.3358 -22.3349
   -14.4229 -14.3685 -14.3270 -14.3144 -14.2908 -14.2800 -14.2492 -14.2187
    -6.6302  -6.6176  -6.6163  -6.5314  -6.3579  -6.3201  -6.1704  -5.9035
    -5.8990  -5.8560  -5.8393  -5.8309  -5.8239  -5.7994  -5.7880  -5.7758
    -5.7106  -5.6949  -5.6935  -5.6840  -5.6398  -5.6250  -5.6000  -5.5807
    -0.1940  -0.1588   0.0096   0.1272   0.1595   0.3366   0.3649   0.3745
     0.3846   0.4135   0.4237   0.4607   0.4634   0.4714   0.4800   0.5014
     0.5217   0.5830   0.6050   0.6299   0.6516   0.6577   0.6779   0.6965
     6.0948   6.1390   6.2546   6.3338   6.3533   6.4638   6.6267   6.6432
     6.6495   6.6513   6.7235   6.8145   6.8298   6.8861   6.9120   7.3064
     7.3496   7.4648   7.5241   7.5386   7.5575   7.5684   7.5906   7.5954
     7.6146   7.6870   7.6928   7.7743   7.7875   7.8972   7.9065   7.9122
     7.9229   7.9294   7.9958   8.0406   8.1132   8.1409   8.3415   8.4218
     8.6012   8.6205   8.7291   8.7387   8.7546   8.8726   8.8745   9.0346
     9.0392   9.1216   9.1244   9.1830   9.1926   9.3081   9.3363   9.3501
     9.3803   9.4155   9.4423   9.4801   9.4979   9.4992   9.6967   9.7022
     9.8866   9.9001   9.9041   9.9601   9.9964  10.0061  10.3062  10.3300
    12.4097  12.4763  12.9600  12.9686  13.0259  13.0749  13.6550  13.6746
    13.6977  13.7259  13.8592  13.8772  13.9351  13.9723  14.0003  14.0451
    14.0652  14.1442  14.1511  14.2322  14.3795  14.3986  14.4304  14.5101
    14.6135  14.6203  14.9507  15.1388  15.2437  15.3000  15.4815  15.8552
    15.9443  16.1198  16.2100  16.5723  16.6873  16.8706  16.8939  17.4638

          k = 0.0000 0.1667-0.4946 ( 20696 PWs)   bands (ev):

   -46.1115 -46.1115 -46.1106 -46.1106 -46.1105 -46.1105 -46.1096 -46.1096
   -22.4222 -22.4222 -22.4196 -22.4196 -22.4192 -22.4192 -22.4174 -22.4174
   -22.3901 -22.3901 -22.3875 -22.3875 -22.3868 -22.3868 -22.3839 -22.3839
   -22.3407 -22.3406 -22.3386 -22.3386 -22.3369 -22.3369 -22.3353 -22.3353
   -14.3959 -14.3959 -14.3090 -14.3089 -14.2973 -14.2972 -14.2341 -14.2340
    -6.5615  -6.5614  -6.5005  -6.5003  -6.4780  -6.4778  -6.0410  -6.0409
    -5.8569  -5.8568  -5.8404  -5.8403  -5.8194  -5.8193  -5.7903  -5.7902
    -5.6741  -5.6740  -5.6605  -5.6603  -5.6492  -5.6491  -5.6320  -5.6319
    -0.0430  -0.0430  -0.0022  -0.0021   0.2369   0.2370   0.3654   0.3655
     0.4091   0.4092   0.4206   0.4207   0.4620   0.4621   0.4870   0.4871
     0.5652   0.5653   0.6130   0.6130   0.6297   0.6298   0.6511   0.6512
     6.1315   6.1316   6.3145   6.3146   6.4126   6.4127   6.6470   6.6471
     6.9329   6.9330   6.9523   6.9524   7.1344   7.1346   7.1766   7.1767
     7.1797   7.1798   7.2179   7.2180   7.3592   7.3593   7.5754   7.5755
     7.6036   7.6037   7.8019   7.8020   7.8531   7.8532   7.8871   7.8871
     7.8983   7.8984   8.0482   8.0483   8.1309   8.1310   8.3604   8.3604
     8.5544   8.5545   8.7385   8.7385   8.9337   8.9338   8.9453   8.9454
     9.0167   9.0167   9.1585   9.1586   9.1793   9.1793   9.2458   9.2458
     9.2626   9.2626   9.6677   9.6677   9.7147   9.7147   9.7634   9.7634
     9.7909   9.7910   9.7914   9.7915   9.8005   9.8005  10.3179  10.3181
    12.4426  12.4427  13.3160  13.3161  13.3271  13.3271  13.3693  13.3694
    13.4063  13.4064  13.8679  13.8680  13.9867  13.9867  14.0182  14.0183
    14.1200  14.1201  14.2178  14.2179  14.2851  14.2851  14.4534  14.4535
    14.6181  14.6181  15.1470  15.1470  15.3721  15.3721  15.7916  15.7917
    16.4103  16.4105  16.4561  16.4563  16.6664  16.6666  17.0046  17.0047

          k = 0.0000 0.3333 0.0000 ( 20754 PWs)   bands (ev):

   -46.1118 -46.1113 -46.1109 -46.1107 -46.1104 -46.1102 -46.1098 -46.1093
   -22.4455 -22.4436 -22.4421 -22.4407 -22.3975 -22.3966 -22.3955 -22.3946
   -22.3911 -22.3893 -22.3881 -22.3867 -22.3787 -22.3758 -22.3755 -22.3733
   -22.3518 -22.3494 -22.3491 -22.3474 -22.3374 -22.3365 -22.3357 -22.3348
   -14.4279 -14.3674 -14.3265 -14.3174 -14.2871 -14.2787 -14.2501 -14.2159
    -6.6905  -6.6559  -6.5957  -6.5598  -6.3984  -6.3125  -6.0085  -5.8849
    -5.8652  -5.8552  -5.8489  -5.8140  -5.7862  -5.7832  -5.7607  -5.7583
    -5.7324  -5.7278  -5.7235  -5.7068  -5.6860  -5.6284  -5.6215  -5.5713
    -0.1940  -0.1562  -0.0953   0.1395   0.1931   0.3496   0.3592   0.4055
     0.4057   0.4170   0.4254   0.4650   0.4703   0.4710   0.4738   0.4892
     0.5043   0.5792   0.5878   0.6376   0.6675   0.6864   0.6867   0.6891
     6.0479   6.1017   6.2289   6.2397   6.3001   6.3570   6.5247   6.5617
     6.5668   6.6384   6.7503   6.8081   6.8518   6.9213   6.9304   7.2710
     7.4225   7.4828   7.5550   7.6084   7.6233   7.6260   7.6276   7.6426
     7.6445   7.6612   7.7440   7.7659   7.7739   7.8289   7.8342   7.8899
     7.9371   7.9862   8.0065   8.0617   8.1470   8.1663   8.2841   8.6039
     8.6855   8.7129   8.7180   8.7275   8.7357   8.8406   8.8590   8.8836
     8.9005   9.0633   9.1423   9.2219   9.2738   9.3697   9.3720   9.3910
     9.4041   9.4631   9.4842   9.5139   9.5315   9.6151   9.6152   9.6706
     9.8197   9.9329   9.9945  10.0064  10.1235  10.1580  10.1942  10.2319
    12.5652  12.6324  12.7560  12.8407  12.8417  12.9252  13.5779  13.6007
    13.6190  13.6293  13.9891  13.9933  14.0126  14.0170  14.0189  14.0201
    14.1177  14.1193  14.1900  14.2212  14.4233  14.4292  14.4314  14.5532
    14.5704  14.5760  14.9105  14.9337  15.1294  15.1781  15.2444  15.8631
    15.9964  16.0103  16.0542  16.7084  16.8356  16.9270  16.9577  17.1847

          k = 0.0000 0.3333 0.1649 ( 20721 PWs)   bands (ev):

   -46.1117 -46.1112 -46.1110 -46.1107 -46.1104 -46.1101 -46.1099 -46.1094
   -22.4422 -22.4404 -22.4390 -22.4376 -22.4008 -22.3996 -22.3986 -22.3976
   -22.3909 -22.3892 -22.3883 -22.3869 -22.3785 -22.3759 -22.3754 -22.3734
   -22.3516 -22.3496 -22.3490 -22.3475 -22.3373 -22.3364 -22.3359 -22.3349
   -14.4213 -14.3621 -14.3335 -14.3130 -14.2926 -14.2746 -14.2547 -14.2202
    -6.6626  -6.6226  -6.5809  -6.5474  -6.3654  -6.3298  -6.0861  -5.8905
    -5.8612  -5.8576  -5.8544  -5.8293  -5.8091  -5.7856  -5.7709  -5.7525
    -5.7428  -5.7234  -5.6971  -5.6954  -5.6815  -5.6400  -5.6256  -5.5798
    -0.1762  -0.1563   0.0032   0.1701   0.1805   0.2888   0.3514   0.3627
     0.3814   0.4035   0.4274   0.4483   0.4648   0.4665   0.4993   0.5159
     0.5178   0.5678   0.6014   0.6240   0.6523   0.6689   0.6736   0.6889
     6.1031   6.1578   6.2389   6.3124   6.3485   6.4014   6.5869   6.6183
     6.6245   6.7068   6.7733   6.7880   6.8547   6.9299   6.9580   7.3103
     7.3719   7.4774   7.5035   7.5937   7.6055   7.6299   7.6417   7.6523
     7.6782   7.6818   7.6847   7.7416   7.8134   7.8345   7.8582   7.8955
     7.9029   7.9252   7.9954   8.0209   8.0564   8.1074   8.1875   8.5384
     8.5658   8.5675   8.7461   8.7514   8.7627   8.7677   8.9313   8.9676
     9.0552   9.1234   9.1413   9.2203   9.2913   9.2989   9.3920   9.4074
     9.4154   9.4334   9.4471   9.5135   9.5180   9.5591   9.5615   9.6393
     9.7861   9.8817   9.9225   9.9928  10.0935  10.1463  10.1552  10.1963
    12.6574  12.7360  12.7794  12.8332  12.9047  13.0120  13.5815  13.6142
    13.6161  13.6823  13.9061  13.9244  13.9351  14.0001  14.0285  14.0393
    14.0475  14.1099  14.1259  14.2347  14.3635  14.3839  14.4158  14.5068
    14.6831  14.6976  14.9090  15.1129  15.2360  15.2600  15.3398  15.9705
    16.0543  16.0892  16.1230  16.7380  16.7397  16.9901  17.0176  17.5335

          k = 0.0000 0.3333 0.3297 ( 20732 PWs)   bands (ev):

   -46.1116 -46.1111 -46.1110 -46.1106 -46.1105 -46.1101 -46.1100 -46.1095
   -22.4336 -22.4320 -22.4305 -22.4293 -22.4096 -22.4084 -22.4071 -22.4061
   -22.3903 -22.3889 -22.3887 -22.3874 -22.3779 -22.3765 -22.3749 -22.3738
   -22.3511 -22.3499 -22.3487 -22.3478 -22.3370 -22.3362 -22.3360 -22.3352
   -14.4030 -14.3523 -14.3476 -14.3075 -14.3008 -14.2672 -14.2632 -14.2318
    -6.5865  -6.5466  -6.5285  -6.5240  -6.3884  -6.2727  -6.2323  -5.9902
    -5.8965  -5.8719  -5.8556  -5.8218  -5.7975  -5.7958  -5.7810  -5.7588
    -5.7306  -5.7089  -5.6873  -5.6710  -5.6693  -5.6670  -5.6369  -5.6033
    -0.1322  -0.0518   0.1443   0.1780   0.1788   0.2474   0.2557   0.2998
     0.3497   0.3660   0.4116   0.4149   0.4561   0.5046   0.5371   0.5442
     0.5474   0.5480   0.5579   0.5865   0.6390   0.6451   0.6564   0.6782
     6.1893   6.2366   6.2486   6.3277   6.4998   6.6786   6.7338   6.7678
     6.8132   6.8366   6.8515   6.8621   6.8893   6.9697   7.1025   7.2018
     7.3519   7.4021   7.4105   7.4194   7.4431   7.5705   7.5763   7.6078
     7.7029   7.7070   7.7291   7.7341   7.7801   7.7947   7.8502   7.8996
     7.9075   7.9353   7.9430   7.9451   7.9585   8.1967   8.2186   8.2587
     8.3073   8.3668   8.5428   8.5905   8.8262   8.8299   8.9711   9.0202
     9.1581   9.1942   9.2648   9.2880   9.2962   9.3066   9.3655   9.3691
     9.3980   9.4279   9.4318   9.4848   9.4988   9.5669   9.6247   9.6446
     9.6982   9.7404   9.8216   9.9372   9.9465   9.9955  10.1499  10.1600
    12.7506  12.8128  12.9871  13.0052  13.0911  13.2384  13.5902  13.5917
    13.6740  13.6748  13.6811  13.7120  13.8227  13.8246  13.9690  14.0264
    14.0716  14.0883  14.1288  14.2097  14.2723  14.2745  14.3681  14.3977
    14.8248  14.9019  14.9437  15.2027  15.5172  15.5752  15.8657  16.0209
    16.2595  16.3525  16.4621  16.4888  16.8552  16.9413  17.1053  17.1670

          k = 0.0000 0.3333-0.4946 ( 20740 PWs)   bands (ev):

   -46.1113 -46.1113 -46.1108 -46.1108 -46.1103 -46.1103 -46.1098 -46.1097
   -22.4217 -22.4217 -22.4202 -22.4202 -22.4189 -22.4188 -22.4177 -22.4177
   -22.3896 -22.3896 -22.3881 -22.3881 -22.3772 -22.3772 -22.3743 -22.3743
   -22.3505 -22.3505 -22.3483 -22.3483 -22.3366 -22.3366 -22.3357 -22.3357
   -14.3779 -14.3778 -14.3277 -14.3276 -14.2841 -14.2840 -14.2476 -14.2475
    -6.5199  -6.5198  -6.4840  -6.4839  -6.3902  -6.3900  -6.1387  -6.1386
    -5.8759  -5.8758  -5.8645  -5.8644  -5.7888  -5.7887  -5.7713  -5.7711
    -5.7043  -5.7042  -5.6926  -5.6925  -5.6529  -5.6528  -5.6366  -5.6365
    -0.0146  -0.0146   0.0951   0.0952   0.2175   0.2176   0.3713   0.3714
     0.3740   0.3740   0.3773   0.3774   0.3784   0.3784   0.4961   0.4961
     0.5928   0.5929   0.6165   0.6165   0.6168   0.6168   0.6442   0.6443
     6.2270   6.2271   6.2989   6.2990   6.6477   6.6477   6.8685   6.8686
     6.9992   6.9993   7.0537   7.0539   7.0653   7.0654   7.1278   7.1279
     7.1922   7.1923   7.3087   7.3088   7.3928   7.3929   7.5439   7.5440
     7.5450   7.5452   7.7212   7.7213   7.8730   7.8730   7.8862   7.8863
     7.9368   7.9368   7.9902   7.9902   8.0311   8.0312   8.1475   8.1477
     8.3590   8.3591   8.3970   8.3971   8.8656   8.8657   8.9662   8.9662
     9.1543   9.1544   9.2695   9.2696   9.3068   9.3068   9.3111   9.3112
     9.5049   9.5050   9.5291   9.5292   9.5870   9.5870   9.6975   9.6975
     9.7331   9.7332   9.7528   9.7528   9.8111   9.8111  10.1491  10.1493
    12.7843  12.7844  13.3401  13.3402  13.3482  13.3483  13.3717  13.3717
    13.5341  13.5342  13.6088  13.6089  13.7973  13.7973  14.0130  14.0130
    14.0580  14.0580  14.1569  14.1570  14.2486  14.2487  14.3257  14.3258
    14.8817  14.8817  15.1191  15.1191  15.8669  15.8670  16.0412  16.0413
    16.4829  16.4831  16.6652  16.6654  16.7806  16.7807  17.1318  17.1320

          k = 0.0000-0.5000 0.0000 ( 20694 PWs)   bands (ev):

   -46.1115 -46.1115 -46.1106 -46.1106 -46.1105 -46.1105 -46.1096 -46.1096
   -22.4445 -22.4445 -22.4414 -22.4414 -22.3970 -22.3970 -22.3950 -22.3950
   -22.3902 -22.3902 -22.3874 -22.3874 -22.3651 -22.3651 -22.3626 -22.3626
   -22.3623 -22.3623 -22.3603 -22.3603 -22.3369 -22.3369 -22.3354 -22.3354
   -14.3979 -14.3979 -14.3069 -14.3069 -14.2982 -14.2982 -14.2331 -14.2331
    -6.6161  -6.6161  -6.5311  -6.5310  -6.4604  -6.4604  -5.8730  -5.8730
    -5.8673  -5.8673  -5.8206  -5.8206  -5.7899  -5.7899  -5.7853  -5.7852
    -5.7390  -5.7389  -5.7224  -5.7224  -5.6648  -5.6648  -5.6283  -5.6283
    -0.0299  -0.0299   0.0194   0.0194   0.1478   0.1478   0.4064   0.4064
     0.4089   0.4090   0.4468   0.4468   0.4601   0.4601   0.5186   0.5186
     0.5712   0.5712   0.5772   0.5772   0.6319   0.6319   0.6364   0.6365
     6.0897   6.0897   6.2696   6.2696   6.3095   6.3095   6.5641   6.5641
     6.8557   6.8557   6.9795   6.9795   7.1667   7.1667   7.1992   7.1992
     7.2200   7.2200   7.2929   7.2929   7.3732   7.3732   7.6204   7.6204
     7.6595   7.6595   7.8521   7.8521   7.8893   7.8893   7.8910   7.8910
     7.8982   7.8982   7.9569   7.9569   8.0092   8.0092   8.4788   8.4789
     8.6946   8.6947   8.7798   8.7798   8.8779   8.8779   8.9139   8.9139
     8.9730   8.9730   9.1289   9.1289   9.1568   9.1568   9.2974   9.2975
     9.3129   9.3130   9.6388   9.6388   9.7631   9.7631   9.7651   9.7651
     9.7845   9.7845   9.8792   9.8793   9.9057   9.9057  10.2122  10.2122
    12.5997  12.5997  13.1851  13.1851  13.2136  13.2136  13.2450  13.2450
    13.2636  13.2636  14.0107  14.0107  14.0161  14.0161  14.0643  14.0643
    14.0911  14.0912  14.2594  14.2594  14.2679  14.2679  14.4912  14.4912
    14.5760  14.5760  15.0850  15.0850  15.1302  15.1302  15.6476  15.6477
    16.3976  16.3976  16.5417  16.5417  16.6300  16.6300  17.1812  17.1812

          k = 0.0000-0.5000 0.1649 ( 20710 PWs)   bands (ev):

   -46.1115 -46.1115 -46.1107 -46.1107 -46.1104 -46.1104 -46.1096 -46.1096
   -22.4413 -22.4413 -22.4383 -22.4383 -22.4002 -22.4002 -22.3982 -22.3982
   -22.3900 -22.3900 -22.3876 -22.3876 -22.3650 -22.3650 -22.3628 -22.3628
   -22.3622 -22.3622 -22.3605 -22.3605 -22.3368 -22.3368 -22.3354 -22.3354
   -14.3919 -14.3919 -14.3131 -14.3131 -14.2939 -14.2939 -14.2375 -14.2375
    -6.5950  -6.5950  -6.4978  -6.4978  -6.4568  -6.4568  -5.9657  -5.9657
    -5.8703  -5.8703  -5.8155  -5.8155  -5.7788  -5.7788  -5.7717  -5.7717
    -5.7337  -5.7337  -5.7281  -5.7281  -5.6617  -5.6617  -5.6301  -5.6301
    -0.0063  -0.0063   0.0041   0.0041   0.2290   0.2290   0.3377   0.3377
     0.3927   0.3927   0.4180   0.4180   0.4710   0.4710   0.4789   0.4790
     0.5965   0.5965   0.5990   0.5990   0.6198   0.6198   0.6434   0.6434
     6.1462   6.1463   6.3049   6.3049   6.3645   6.3645   6.6212   6.6212
     6.9090   6.9090   6.9949   6.9950   7.1492   7.1492   7.1881   7.1882
     7.2045   7.2045   7.3263   7.3263   7.3546   7.3546   7.6234   7.6234
     7.6955   7.6955   7.7903   7.7903   7.8860   7.8860   7.8911   7.8911
     7.9014   7.9014   7.9582   7.9582   7.9790   7.9790   8.3019   8.3020
     8.6242   8.6242   8.6486   8.6486   8.9341   8.9341   8.9731   8.9731
     9.0591   9.0591   9.1568   9.1568   9.1834   9.1834   9.2850   9.2850
     9.3193   9.3193   9.5963   9.5963   9.7211   9.7211   9.7218   9.7218
     9.7816   9.7816   9.8676   9.8676   9.8956   9.8956  10.1592  10.1593
    12.7043  12.7043  13.1915  13.1915  13.2391  13.2391  13.2458  13.2459
    13.3329  13.3329  13.9295  13.9295  13.9859  13.9859  14.0322  14.0322
    14.1032  14.1032  14.1886  14.1887  14.2553  14.2554  14.4450  14.4450
    14.6980  14.6980  15.1247  15.1247  15.2875  15.2875  15.7241  15.7241
    16.4773  16.4773  16.6488  16.6488  16.6728  16.6728  17.1347  17.1347

          k = 0.0000-0.5000 0.3297 ( 20752 PWs)   bands (ev):

   -46.1113 -46.1113 -46.1109 -46.1109 -46.1102 -46.1102 -46.1098 -46.1098
   -22.4328 -22.4328 -22.4298 -22.4298 -22.4090 -22.4090 -22.4067 -22.4067
   -22.3895 -22.3895 -22.3881 -22.3881 -22.3645 -22.3645 -22.3633 -22.3633
   -22.3618 -22.3618 -22.3608 -22.3608 -22.3365 -22.3365 -22.3358 -22.3358
   -14.3755 -14.3755 -14.3300 -14.3300 -14.2821 -14.2821 -14.2496 -14.2496
    -6.5421  -6.5421  -6.4578  -6.4578  -6.4040  -6.4040  -6.1112  -6.1112
    -5.8791  -5.8791  -5.8591  -5.8591  -5.7627  -5.7627  -5.7444  -5.7444
    -5.7368  -5.7368  -5.7332  -5.7332  -5.6537  -5.6537  -5.6355  -5.6355
     0.0023   0.0023   0.0990   0.0990   0.2023   0.2023   0.3673   0.3673
     0.3729   0.3729   0.3743   0.3743   0.3778   0.3778   0.5014   0.5014
     0.5872   0.5872   0.6123   0.6123   0.6297   0.6297   0.6355   0.6355
     6.2343   6.2343   6.2937   6.2937   6.6133   6.6133   6.8448   6.8448
     7.0292   7.0292   7.0481   7.0481   7.0910   7.0911   7.1092   7.1092
     7.2180   7.2180   7.3176   7.3176   7.4503   7.4503   7.5347   7.5347
     7.5530   7.5530   7.7740   7.7740   7.8697   7.8697   7.8975   7.8975
     7.9003   7.9003   7.9862   7.9862   8.0068   8.0068   8.0622   8.0622
     8.3445   8.3445   8.4451   8.4451   8.8740   8.8740   8.9704   8.9704
     9.2338   9.2338   9.2368   9.2368   9.2872   9.2872   9.3419   9.3419
     9.3732   9.3732   9.4884   9.4884   9.5625   9.5625   9.7404   9.7404
     9.8077   9.8077   9.8386   9.8386   9.8751   9.8751  10.0043  10.0043
    12.9697  12.9697  13.2153  13.2153  13.2220  13.2220  13.3542  13.3542
    13.5154  13.5154  13.6917  13.6917  13.7856  13.7856  14.0027  14.0027
    14.0943  14.0943  14.1381  14.1381  14.2207  14.2207  14.3331  14.3331
    14.9144  14.9144  15.1028  15.1028  15.7835  15.7835  15.9927  15.9928
    16.6129  16.6129  16.6992  16.6992  16.8479  16.8479  17.2067  17.2070

          k = 0.0000-0.5000-0.4946 ( 20772 PWs)   bands (ev):

   -46.1111 -46.1111 -46.1111 -46.1111 -46.1100 -46.1100 -46.1100 -46.1100
   -22.4209 -22.4209 -22.4209 -22.4209 -22.4183 -22.4183 -22.4183 -22.4183
   -22.3889 -22.3889 -22.3888 -22.3888 -22.3640 -22.3640 -22.3639 -22.3639
   -22.3613 -22.3613 -22.3613 -22.3613 -22.3362 -22.3362 -22.3362 -22.3362
   -14.3529 -14.3529 -14.3529 -14.3528 -14.2659 -14.2659 -14.2659 -14.2658
    -6.4864  -6.4864  -6.4862  -6.4862  -6.2668  -6.2668  -6.2667  -6.2667
    -5.8826  -5.8826  -5.8825  -5.8825  -5.7465  -5.7465  -5.7464  -5.7464
    -5.7375  -5.7375  -5.7374  -5.7373  -5.6440  -5.6440  -5.6439  -5.6439
     0.0769   0.0769   0.0770   0.0770   0.2332   0.2332   0.2332   0.2333
     0.3591   0.3591   0.3591   0.3591   0.5155   0.5155   0.5155   0.5155
     0.5437   0.5437   0.5438   0.5438   0.6470   0.6470   0.6470   0.6470
     6.2759   6.2759   6.2760   6.2760   6.9018   6.9018   6.9018   6.9018
     7.0672   7.0672   7.0673   7.0673   7.1758   7.1758   7.1759   7.1759
     7.2500   7.2500   7.2500   7.2501   7.3255   7.3256   7.3257   7.3257
     7.6973   7.6973   7.6974   7.6974   7.8362   7.8362   7.8363   7.8363
     7.8888   7.8888   7.8888   7.8889   8.1170   8.1170   8.1170   8.1170
     8.2311   8.2311   8.2312   8.2312   8.8749   8.8749   8.8750   8.8750
     9.3160   9.3160   9.3160   9.3160   9.3559   9.3559   9.3559   9.3559
     9.3891   9.3891   9.3891   9.3891   9.6955   9.6955   9.6955   9.6955
     9.7983   9.7983   9.7983   9.7983   9.8725   9.8725   9.8726   9.8726
    13.1847  13.1847  13.1848  13.1848  13.3727  13.3727  13.3727  13.3727
    13.5471  13.5471  13.5472  13.5472  13.7581  13.7581  13.7582  13.7582
    14.1701  14.1701  14.1701  14.1702  14.2108  14.2108  14.2108  14.2108
    15.0462  15.0462  15.0462  15.0462  16.3191  16.3191  16.3192  16.3193
    16.4247  16.4247  16.4248  16.4248  17.0230  17.0230  17.0232  17.0232

          k = 0.1667 0.1667 0.0000 ( 20702 PWs)   bands (ev):

   -46.1119 -46.1110 -46.1110 -46.1110 -46.1101 -46.1101 -46.1101 -46.1092
   -22.4459 -22.4429 -22.4429 -22.4403 -22.3977 -22.3959 -22.3959 -22.3944
   -22.3882 -22.3882 -22.3854 -22.3852 -22.3852 -22.3851 -22.3828 -22.3827
   -22.3416 -22.3412 -22.3397 -22.3396 -22.3396 -22.3395 -22.3380 -22.3380
   -14.4419 -14.3396 -14.3395 -14.3356 -14.2698 -14.2679 -14.2678 -14.2080
    -6.7219  -6.7219  -6.6559  -6.5374  -6.3247  -6.1558  -6.1558  -5.8944
    -5.8824  -5.8824  -5.8392  -5.8392  -5.8073  -5.7665  -5.7588  -5.7494
    -5.7290  -5.7290  -5.7232  -5.6995  -5.6661  -5.5912  -5.5616  -5.5615
    -0.3016  -0.2282  -0.1840   0.2735   0.2735   0.3046   0.3501   0.3501
     0.3707   0.3715   0.3869   0.4492   0.4605   0.5059   0.5060   0.5404
     0.5404   0.5797   0.6531   0.6532   0.7107   0.7147   0.7147   0.7415
     6.0187   6.1551   6.1551   6.1993   6.3162   6.4421   6.4421   6.4973
     6.4973   6.5036   6.6061   6.6611   6.6611   6.6846   6.6964   7.5252
     7.5968   7.5968   7.6043   7.6043   7.6316   7.6613   7.6691   7.6691
     7.7149   7.7354   7.7604   7.7604   7.7992   7.8813   7.9144   7.9537
     8.0011   8.0011   8.0148   8.0253   8.1108   8.2047   8.2047   8.5566
     8.5567   8.6805   8.7081   8.7081   8.8266   8.8665   8.9145   8.9948
     8.9961   8.9962   9.2064   9.2221   9.2377   9.2377   9.3557   9.4172
     9.4481   9.4481   9.5080   9.5081   9.5785   9.5785   9.5832   9.6181
    10.0024  10.0277  10.1394  10.1394  10.1425  10.1996  10.2572  10.2594
    12.4843  12.6058  12.6282  12.6414  12.7107  12.7107  13.8586  13.8586
    13.8835  13.8968  13.8968  13.9205  13.9205  13.9438  13.9827  14.0066
    14.0389  14.0389  14.2886  14.3314  14.3314  14.5063  14.5419  14.5476
    14.6987  14.6987  14.7127  14.7860  14.7937  15.1294  15.5155  15.5155
    15.6176  15.7499  16.3238  16.3238  16.6460  17.0655  17.2372  17.3984

          k = 0.1667 0.1667 0.1649 ( 20719 PWs)   bands (ev):

   -46.1118 -46.1111 -46.1109 -46.1109 -46.1102 -46.1102 -46.1100 -46.1092
   -22.4427 -22.4397 -22.4397 -22.4373 -22.4010 -22.3992 -22.3992 -22.3973
   -22.3880 -22.3880 -22.3853 -22.3853 -22.3852 -22.3849 -22.3830 -22.3829
   -22.3415 -22.3412 -22.3398 -22.3396 -22.3396 -22.3396 -22.3381 -22.3381
   -14.4350 -14.3429 -14.3348 -14.3348 -14.2728 -14.2727 -14.2658 -14.2122
    -6.6899  -6.6899  -6.6372  -6.5301  -6.2920  -6.2062  -6.2062  -5.8994
    -5.8690  -5.8690  -5.8359  -5.8359  -5.8127  -5.8046  -5.7692  -5.7394
    -5.7262  -5.7172  -5.7171  -5.7164  -5.6563  -5.6024  -5.5743  -5.5743
    -0.2628  -0.2310  -0.0920   0.2618   0.2899   0.2899   0.3120   0.3573
     0.3574   0.3761   0.3766   0.4544   0.4660   0.4660   0.4934   0.5526
     0.5563   0.5563   0.6567   0.6583   0.6583   0.7025   0.7025   0.7370
     6.0736   6.2013   6.2189   6.2189   6.4200   6.4840   6.4840   6.4996
     6.4996   6.5960   6.6686   6.6851   6.6954   6.7093   6.7093   7.5433
     7.5563   7.5563   7.6071   7.6071   7.6513   7.6513   7.6619   7.6828
     7.6842   7.7397   7.7955   7.8042   7.8042   7.8340   7.8340   7.8812
     7.9098   7.9287   7.9681   7.9980   8.1390   8.1439   8.1439   8.4978
     8.5834   8.5834   8.7620   8.7851   8.9005   8.9341   8.9342   8.9665
     8.9665   8.9928   9.2254   9.2254   9.2406   9.2648   9.3582   9.3582
     9.3971   9.4630   9.4960   9.4960   9.5122   9.5122   9.5472   9.6070
     9.9492   9.9684  10.0687  10.1044  10.1044  10.1139  10.2601  10.2738
    12.4988  12.6191  12.7064  12.7314  12.8094  12.8094  13.8638  13.8638
    13.8933  13.9063  13.9063  13.9118  13.9118  13.9180  13.9261  13.9587
    13.9587  13.9783  14.2812  14.2812  14.3029  14.4805  14.4915  14.5064
    14.7866  14.7923  14.8439  14.8439  14.8979  15.3409  15.5083  15.5083
    15.7359  15.8750  16.3880  16.3880  16.5505  17.0725  17.3430  17.3690

          k = 0.1667 0.1667 0.3297 ( 20727 PWs)   bands (ev):

   -46.1117 -46.1112 -46.1108 -46.1108 -46.1103 -46.1103 -46.1098 -46.1094
   -22.4339 -22.4312 -22.4312 -22.4290 -22.4099 -22.4078 -22.4078 -22.4059
   -22.3874 -22.3874 -22.3859 -22.3859 -22.3848 -22.3846 -22.3836 -22.3834
   -22.3411 -22.3409 -22.3401 -22.3399 -22.3392 -22.3392 -22.3384 -22.3384
   -14.4158 -14.3627 -14.3219 -14.3219 -14.2861 -14.2860 -14.2545 -14.2236
    -6.6000  -6.6000  -6.5906  -6.5227  -6.3264  -6.3264  -6.2007  -5.9301
    -5.8985  -5.8445  -5.8445  -5.8295  -5.8295  -5.7972  -5.7925  -5.7768
    -5.7116  -5.6981  -5.6893  -5.6893  -5.6576  -5.6326  -5.6082  -5.6081
    -0.1589  -0.1557   0.0866   0.1466   0.1625   0.3228   0.3228   0.3862
     0.3929   0.3952   0.3952   0.4082   0.4083   0.4378   0.4918   0.5080
     0.5360   0.5361   0.5737   0.6688   0.6688   0.6844   0.6844   0.7107
     6.1616   6.2046   6.3313   6.3313   6.4506   6.4506   6.6813   6.6813
     6.6868   6.6929   6.7066   6.8419   6.8942   6.8942   6.9093   7.3118
     7.3118   7.4899   7.5090   7.5359   7.5359   7.6136   7.6136   7.6157
     7.6481   7.6482   7.6850   7.7451   7.7973   7.8648   7.8923   7.9070
     7.9196   7.9196   7.9446   8.0864   8.0904   8.1346   8.1346   8.2211
     8.5585   8.5896   8.6504   8.6504   8.8230   8.8230   8.9946   9.0164
     9.1111   9.1111   9.2208   9.2211   9.2211   9.3114   9.3114   9.3338
     9.4005   9.4406   9.4406   9.4835   9.4835   9.5205   9.5730   9.6745
     9.8238   9.8725   9.8813   9.9310   9.9888   9.9888  10.2633  10.2762
    12.5266  12.5944  12.9785  12.9793  13.0667  13.0667  13.6493  13.6742
    13.7182  13.7182  13.8768  13.8768  13.9095  13.9095  13.9459  13.9459
    14.0394  14.0747  14.1605  14.1605  14.3421  14.3595  14.3660  14.4543
    14.7876  14.7901  15.1415  15.1415  15.3420  15.4725  15.4725  15.8686
    16.0580  16.2339  16.2733  16.6122  16.6122  16.9314  16.9739  17.4607

          k = 0.1667 0.1667-0.4946 ( 20728 PWs)   bands (ev):

   -46.1115 -46.1115 -46.1105 -46.1105 -46.1105 -46.1105 -46.1096 -46.1096
   -22.4220 -22.4220 -22.4194 -22.4194 -22.4194 -22.4194 -22.4175 -22.4174
   -22.3867 -22.3866 -22.3866 -22.3866 -22.3842 -22.3842 -22.3839 -22.3839
   -22.3407 -22.3407 -22.3405 -22.3405 -22.3388 -22.3388 -22.3388 -22.3388
   -14.3895 -14.3894 -14.3041 -14.3041 -14.3040 -14.3040 -14.2392 -14.2391
    -6.5428  -6.5427  -6.4698  -6.4698  -6.4697  -6.4697  -6.0704  -6.0703
    -5.8622  -5.8621  -5.8295  -5.8295  -5.8294  -5.8294  -5.7871  -5.7869
    -5.6752  -5.6751  -5.6728  -5.6727  -5.6511  -5.6511  -5.6510  -5.6510
    -0.0145  -0.0145  -0.0066  -0.0065   0.3018   0.3019   0.3589   0.3589
     0.3590   0.3590   0.4152   0.4153   0.4288   0.4288   0.4682   0.4682
     0.4683   0.4683   0.6532   0.6533   0.6769   0.6769   0.6769   0.6769
     6.1994   6.1995   6.4037   6.4037   6.4038   6.4038   6.6896   6.6897
     6.9656   6.9656   6.9656   6.9656   7.1050   7.1051   7.1477   7.1477
     7.2257   7.2257   7.2258   7.2258   7.3762   7.3764   7.6236   7.6236
     7.6237   7.6237   7.7369   7.7370   7.8531   7.8532   7.8548   7.8548
     7.9121   7.9121   8.0546   8.0546   8.0547   8.0547   8.3467   8.3468
     8.3591   8.3592   8.7235   8.7235   8.7236   8.7236   9.1196   9.1196
     9.1210   9.1210   9.1483   9.1483   9.1484   9.1484   9.3240   9.3240
     9.3240   9.3240   9.6217   9.6218   9.7020   9.7021   9.7125   9.7125
     9.7732   9.7733   9.7745   9.7745   9.7745   9.7745  10.2696  10.2698
    12.5608  12.5608  13.3149  13.3150  13.3339  13.3340  13.3987  13.3987
    13.3988  13.3988  13.8931  13.8931  13.8931  13.8931  14.0329  14.0329
    14.0330  14.0330  14.1956  14.1956  14.2138  14.2138  14.3970  14.3970
    14.7886  14.7886  15.3677  15.3677  15.3677  15.3677  15.8466  15.8467
    16.4821  16.4823  16.5048  16.5050  16.7727  16.7728  17.0118  17.0118

          k = 0.1667 0.3333 0.0000 ( 20738 PWs)   bands (ev):

   -46.1117 -46.1112 -46.1108 -46.1108 -46.1103 -46.1103 -46.1099 -46.1094
   -22.4452 -22.4434 -22.4423 -22.4408 -22.3974 -22.3963 -22.3956 -22.3947
   -22.3876 -22.3859 -22.3846 -22.3833 -22.3784 -22.3757 -22.3756 -22.3735
   -22.3516 -22.3494 -22.3493 -22.3474 -22.3411 -22.3400 -22.3392 -22.3383
   -14.4207 -14.3616 -14.3250 -14.3215 -14.2848 -14.2824 -14.2553 -14.2208
    -6.6657  -6.6397  -6.5621  -6.5532  -6.4094  -6.2783  -6.0593  -5.8761
    -5.8566  -5.8464  -5.8439  -5.8163  -5.7926  -5.7916  -5.7721  -5.7613
    -5.7511  -5.7363  -5.7227  -5.6995  -5.6985  -5.6417  -5.6176  -5.6009
    -0.2072  -0.1051  -0.0130   0.1331   0.2243   0.2948   0.3270   0.3822
     0.3941   0.4171   0.4270   0.4471   0.4532   0.4615   0.4669   0.5047
     0.5247   0.5720   0.6154   0.6505   0.6509   0.6538   0.6723   0.6736
     6.1015   6.1536   6.2330   6.2960   6.3177   6.4565   6.5786   6.5974
     6.6277   6.7237   6.7853   6.7951   6.8753   6.9267   6.9312   7.2336
     7.4307   7.4924   7.5655   7.5877   7.5907   7.6327   7.6339   7.6626
     7.6659   7.6691   7.6839   7.7679   7.7975   7.8106   7.8454   7.8948
     7.9291   7.9528   7.9783   8.0464   8.1460   8.1763   8.1999   8.3074
     8.6115   8.6650   8.7041   8.7130   8.7350   8.7914   8.9527   8.9642
     8.9933   9.1211   9.1327   9.1550   9.2850   9.2930   9.3043   9.3938
     9.4190   9.4314   9.4429   9.4582   9.5757   9.5960   9.6276   9.6652
     9.8743   9.9230   9.9833  10.0036  10.0553  10.1396  10.1475  10.1798
    12.6114  12.6857  12.8191  12.8627  12.9167  12.9289  13.5873  13.6107
    13.6191  13.6657  13.8882  13.9173  13.9175  13.9908  14.0200  14.0301
    14.0302  14.1134  14.1524  14.2068  14.3639  14.3763  14.4102  14.4996
    14.7126  14.7262  14.9430  15.1037  15.1388  15.2459  15.4713  15.9996
    16.0520  16.0995  16.1005  16.6304  16.8699  17.0162  17.0555  17.2937

          k = 0.1667 0.3333 0.1649 ( 20730 PWs)   bands (ev):

   -46.1117 -46.1111 -46.1109 -46.1107 -46.1104 -46.1102 -46.1100 -46.1094
   -22.4420 -22.4403 -22.4392 -22.4378 -22.4006 -22.3996 -22.3988 -22.3978
   -22.3874 -22.3857 -22.3848 -22.3835 -22.3783 -22.3757 -22.3755 -22.3736
   -22.3514 -22.3494 -22.3492 -22.3476 -22.3410 -22.3399 -22.3394 -22.3384
   -14.4142 -14.3564 -14.3283 -14.3204 -14.2878 -14.2806 -14.2601 -14.2251
    -6.6376  -6.6075  -6.5487  -6.5392  -6.3767  -6.2966  -6.1149  -5.8828
    -5.8780  -5.8547  -5.8453  -5.8385  -5.8120  -5.7898  -5.7682  -5.7531
    -5.7467  -5.7271  -5.7160  -5.6954  -5.6928  -5.6518  -5.6252  -5.6090
    -0.1751  -0.1199   0.0803   0.1596   0.2080   0.2833   0.3001   0.3796
     0.3798   0.3908   0.3956   0.3973   0.4243   0.4459   0.4868   0.5059
     0.5327   0.5518   0.5733   0.6621   0.6650   0.6804   0.6922   0.6998
     6.1666   6.2186   6.3148   6.3169   6.3948   6.4457   6.6289   6.6363
     6.6713   6.7651   6.7743   6.8272   6.8812   6.9251   6.9676   7.2636
     7.3657   7.4673   7.5332   7.5632   7.6126   7.6180   7.6259   7.6784
     7.6802   7.6831   7.6974   7.7359   7.8287   7.8373   7.8489   7.8742
     7.8966   7.9336   7.9349   8.0473   8.0709   8.0731   8.1727   8.2366
     8.5310   8.5557   8.6336   8.6987   8.7100   8.8942   8.9316   9.0387
     9.0532   9.1629   9.1673   9.2065   9.2192   9.2521   9.3447   9.3999
     9.4144   9.4198   9.4626   9.4963   9.5011   9.5724   9.5978   9.6427
     9.8296   9.8689   9.9131   9.9868  10.0338  10.1058  10.1350  10.1535
    12.7016  12.7850  12.8431  12.9206  12.9218  13.0030  13.5955  13.6264
    13.6589  13.6716  13.9021  13.9024  13.9296  13.9339  13.9460  13.9488
    14.0107  14.0442  14.1433  14.1664  14.3261  14.3375  14.3605  14.4496
    14.8563  14.8673  15.1044  15.1220  15.2942  15.3484  15.4646  16.0502
    16.0987  16.1615  16.2196  16.6584  16.7720  17.0797  17.0923  17.5262

          k = 0.1667 0.3333 0.3297 ( 20740 PWs)   bands (ev):

   -46.1115 -46.1111 -46.1110 -46.1106 -46.1105 -46.1101 -46.1100 -46.1096
   -22.4333 -22.4317 -22.4306 -22.4294 -22.4095 -22.4083 -22.4074 -22.4063
   -22.3868 -22.3854 -22.3852 -22.3840 -22.3778 -22.3763 -22.3751 -22.3740
   -22.3509 -22.3498 -22.3489 -22.3479 -22.3406 -22.3397 -22.3396 -22.3387
   -14.3963 -14.3467 -14.3421 -14.3078 -14.3025 -14.2730 -14.2690 -14.2370
    -6.5604  -6.5186  -6.5169  -6.5107  -6.3578  -6.2852  -6.2399  -6.0080
    -5.8918  -5.8634  -5.8461  -5.8232  -5.8117  -5.8028  -5.7828  -5.7582
    -5.7317  -5.7063  -5.7060  -5.6866  -5.6778  -5.6749  -5.6460  -5.6303
    -0.1029  -0.0570   0.1616   0.1961   0.2329   0.2361   0.2529   0.3045
     0.3152   0.3617   0.3807   0.3914   0.4023   0.4277   0.4480   0.4663
     0.4778   0.5868   0.5920   0.6502   0.6945   0.6973   0.7159   0.7255
     6.2707   6.3161   6.3264   6.4192   6.4908   6.6626   6.7104   6.7913
     6.7930   6.8293   6.8562   6.9522   6.9526   6.9583   7.1058   7.1958
     7.3395   7.3581   7.3739   7.3777   7.5344   7.6079   7.6083   7.6415
     7.6548   7.6869   7.6974   7.7164   7.8282   7.8596   7.8642   7.8808
     7.8980   7.9001   7.9140   7.9349   7.9598   8.1470   8.1893   8.2015
     8.2390   8.3166   8.4732   8.5157   8.7040   8.7757   8.8895   9.0555
     9.1635   9.2175   9.2312   9.3067   9.3072   9.3157   9.3828   9.3887
     9.4024   9.4679   9.4810   9.4861   9.5447   9.6060   9.6075   9.6151
     9.7155   9.7437   9.8001   9.9072   9.9235   9.9728  10.1255  10.1263
    12.8205  12.8974  13.0153  13.0434  13.1058  13.2286  13.6140  13.6254
    13.6654  13.6886  13.6997  13.7314  13.8102  13.8131  13.9338  13.9766
    13.9871  14.0032  14.0374  14.1927  14.2046  14.2052  14.3001  14.3337
    15.0466  15.1035  15.1426  15.4337  15.5255  15.5742  15.8746  16.0166
    16.3710  16.3825  16.4878  16.5677  16.7718  16.9779  17.2167  17.2528

          k = 0.1667 0.3333-0.4946 ( 20728 PWs)   bands (ev):

   -46.1113 -46.1113 -46.1107 -46.1107 -46.1104 -46.1103 -46.1098 -46.1098
   -22.4215 -22.4215 -22.4200 -22.4200 -22.4190 -22.4190 -22.4178 -22.4178
   -22.3861 -22.3860 -22.3846 -22.3846 -22.3770 -22.3770 -22.3746 -22.3745
   -22.3504 -22.3504 -22.3484 -22.3484 -22.3402 -22.3402 -22.3392 -22.3392
   -14.3717 -14.3716 -14.3224 -14.3223 -14.2905 -14.2905 -14.2531 -14.2530
    -6.4990  -6.4989  -6.4561  -6.4560  -6.3855  -6.3854  -6.1534  -6.1533
    -5.8751  -5.8750  -5.8549  -5.8548  -5.7991  -5.7990  -5.7712  -5.7711
    -5.7101  -5.7100  -5.6950  -5.6949  -5.6707  -5.6706  -5.6566  -5.6564
     0.0113   0.0113   0.0788   0.0789   0.2291   0.2292   0.3399   0.3400
     0.3437   0.3437   0.3659   0.3659   0.4275   0.4275   0.4380   0.4380
     0.4447   0.4448   0.6654   0.6654   0.7075   0.7075   0.7162   0.7162
     6.3104   6.3105   6.3843   6.3844   6.6262   6.6263   6.8709   6.8710
     6.9932   6.9932   7.0166   7.0167   7.0647   7.0648   7.1117   7.1117
     7.2550   7.2551   7.3778   7.3779   7.3810   7.3811   7.5109   7.5110
     7.5924   7.5926   7.7480   7.7481   7.7918   7.7919   7.8766   7.8766
     7.9444   7.9445   7.9679   7.9679   8.0832   8.0833   8.0859   8.0860
     8.2885   8.2886   8.3418   8.3418   8.6924   8.6925   8.9150   8.9151
     9.2125   9.2125   9.2958   9.2958   9.3112   9.3112   9.4024   9.4024
     9.5258   9.5258   9.5461   9.5463   9.5949   9.5950   9.6944   9.6945
     9.7216   9.7216   9.7373   9.7374   9.7895   9.7895  10.1199  10.1201
    12.8639  12.8640  13.3440  13.3441  13.3738  13.3739  13.3893  13.3894
    13.5235  13.5235  13.6397  13.6397  13.8143  13.8144  13.9693  13.9693
    13.9981  13.9982  14.0727  14.0728  14.1678  14.1678  14.2603  14.2603
    15.0932  15.0932  15.3452  15.3452  15.8696  15.8696  16.0542  16.0543
    16.4982  16.4983  16.7597  16.7599  16.7818  16.7819  17.0479  17.0480

          k = 0.1667-0.5000 0.0000 ( 20740 PWs)   bands (ev):

   -46.1115 -46.1115 -46.1106 -46.1106 -46.1105 -46.1105 -46.1096 -46.1096
   -22.4442 -22.4442 -22.4416 -22.4416 -22.3969 -22.3969 -22.3952 -22.3952
   -22.3867 -22.3867 -22.3840 -22.3840 -22.3650 -22.3650 -22.3625 -22.3625
   -22.3624 -22.3624 -22.3605 -22.3605 -22.3406 -22.3406 -22.3388 -22.3388
   -14.3914 -14.3913 -14.3050 -14.3050 -14.3021 -14.3020 -14.2381 -14.2381
    -6.5997  -6.5997  -6.5254  -6.5254  -6.4265  -6.4265  -5.9234  -5.9234
    -5.8579  -5.8579  -5.8204  -5.8204  -5.7909  -5.7909  -5.7867  -5.7867
    -5.7331  -5.7331  -5.7311  -5.7310  -5.6585  -5.6585  -5.6525  -5.6525
    -0.0465  -0.0465   0.0575   0.0576   0.2189   0.2189   0.3356   0.3356
     0.3792   0.3792   0.4193   0.4193   0.4597   0.4597   0.5368   0.5369
     0.5508   0.5508   0.6050   0.6051   0.6259   0.6259   0.6397   0.6397
     6.1423   6.1423   6.2710   6.2710   6.4011   6.4011   6.6232   6.6232
     6.8637   6.8637   7.0458   7.0458   7.1349   7.1349   7.1848   7.1849
     7.2275   7.2275   7.2939   7.2939   7.3650   7.3650   7.6501   7.6502
     7.6629   7.6629   7.8086   7.8086   7.8539   7.8539   7.8893   7.8893
     7.9353   7.9353   7.9558   7.9558   8.0297   8.0297   8.4119   8.4119
     8.4993   8.4993   8.6704   8.6704   8.8996   8.8996   8.9681   8.9681
     9.0365   9.0365   9.0723   9.0723   9.1062   9.1062   9.3250   9.3251
     9.3632   9.3632   9.6555   9.6555   9.7558   9.7558   9.7691   9.7692
     9.7893   9.7893   9.8216   9.8216   9.9150   9.9150  10.1612  10.1612
    12.6515  12.6515  13.2060  13.2060  13.2324  13.2324  13.2552  13.2552
    13.3081  13.3081  13.9058  13.9058  14.0083  14.0083  14.0159  14.0159
    14.0823  14.0823  14.1896  14.1896  14.2496  14.2497  14.4378  14.4378
    14.7221  14.7221  15.0933  15.0933  15.3491  15.3491  15.7279  15.7279
    16.5154  16.5154  16.6386  16.6386  16.6520  16.6520  17.0960  17.0960

          k = 0.1667-0.5000 0.1649 ( 20746 PWs)   bands (ev):

   -46.1114 -46.1114 -46.1106 -46.1106 -46.1105 -46.1105 -46.1097 -46.1097
   -22.4411 -22.4411 -22.4385 -22.4385 -22.4001 -22.4001 -22.3983 -22.3983
   -22.3866 -22.3866 -22.3842 -22.3842 -22.3648 -22.3648 -22.3626 -22.3626
   -22.3624 -22.3624 -22.3606 -22.3606 -22.3405 -22.3405 -22.3389 -22.3389
   -14.3855 -14.3855 -14.3082 -14.3081 -14.3006 -14.3006 -14.2427 -14.2427
    -6.5778  -6.5778  -6.4929  -6.4929  -6.4241  -6.4241  -5.9913  -5.9913
    -5.8610  -5.8610  -5.8141  -5.8141  -5.7911  -5.7911  -5.7807  -5.7807
    -5.7376  -5.7375  -5.7287  -5.7287  -5.6591  -5.6591  -5.6547  -5.6547
    -0.0189  -0.0189   0.0369   0.0370   0.2963   0.2963   0.3306   0.3306
     0.3350   0.3350   0.4150   0.4150   0.4260   0.4260   0.4639   0.4639
     0.5014   0.5014   0.6463   0.6463   0.6685   0.6685   0.6752   0.6752
     6.2092   6.2092   6.3633   6.3633   6.3943   6.3943   6.6636   6.6636
     6.9074   6.9074   7.0412   7.0412   7.1184   7.1184   7.1499   7.1500
     7.2403   7.2404   7.3250   7.3250   7.3743   7.3743   7.6683   7.6683
     7.6896   7.6896   7.7413   7.7413   7.8469   7.8469   7.8662   7.8662
     7.9561   7.9561   7.9601   7.9602   7.9783   7.9783   8.3149   8.3150
     8.4180   8.4180   8.5875   8.5875   8.8446   8.8446   8.9730   8.9730
     9.1223   9.1223   9.1445   9.1445   9.1469   9.1469   9.3067   9.3067
     9.3917   9.3917   9.6310   9.6310   9.6964   9.6964   9.7341   9.7341
     9.7680   9.7680   9.8376   9.8376   9.9031   9.9031  10.1151  10.1151
    12.7508  12.7508  13.2207  13.2207  13.2608  13.2608  13.3006  13.3006
    13.3237  13.3238  13.9296  13.9296  13.9300  13.9300  14.0048  14.0048
    14.0212  14.0212  14.1628  14.1628  14.1922  14.1922  14.3875  14.3875
    14.8650  14.8650  15.2955  15.2955  15.3458  15.3458  15.7827  15.7827
    16.5899  16.5900  16.6625  16.6625  16.7558  16.7558  17.0993  17.0994

          k = 0.1667-0.5000 0.3297 ( 20748 PWs)   bands (ev):

   -46.1112 -46.1112 -46.1108 -46.1108 -46.1103 -46.1103 -46.1099 -46.1099
   -22.4326 -22.4326 -22.4301 -22.4301 -22.4089 -22.4089 -22.4068 -22.4068
   -22.3860 -22.3860 -22.3847 -22.3847 -22.3644 -22.3644 -22.3631 -22.3631
   -22.3620 -22.3620 -22.3610 -22.3610 -22.3401 -22.3401 -22.3392 -22.3392
   -14.3694 -14.3694 -14.3248 -14.3247 -14.2885 -14.2885 -14.2551 -14.2550
    -6.5223  -6.5223  -6.4286  -6.4286  -6.4016  -6.4016  -6.1223  -6.1223
    -5.8710  -5.8710  -5.8552  -5.8552  -5.7666  -5.7666  -5.7628  -5.7628
    -5.7428  -5.7428  -5.7316  -5.7316  -5.6622  -5.6622  -5.6600  -5.6600
     0.0248   0.0248   0.0841   0.0841   0.2129   0.2129   0.3339   0.3339
     0.3384   0.3385   0.3675   0.3675   0.4245   0.4245   0.4394   0.4394
     0.4569   0.4569   0.6605   0.6605   0.7035   0.7035   0.7185   0.7185
     6.3160   6.3161   6.3795   6.3795   6.5990   6.5990   6.8415   6.8415
     7.0305   7.0305   7.0368   7.0368   7.0450   7.0450   7.1058   7.1058
     7.2736   7.2736   7.3771   7.3771   7.4310   7.4310   7.5162   7.5162
     7.6013   7.6013   7.7822   7.7822   7.7842   7.7842   7.8927   7.8927
     7.9105   7.9105   7.9848   7.9848   8.0305   8.0305   8.0700   8.0700
     8.3089   8.3089   8.3258   8.3258   8.7551   8.7551   8.8306   8.8306
     9.2316   9.2316   9.2926   9.2926   9.2954   9.2954   9.4163   9.4163
     9.4350   9.4350   9.5449   9.5449   9.5614   9.5614   9.7206   9.7206
     9.7857   9.7857   9.8246   9.8246   9.8780   9.8780   9.9805   9.9805
    13.0044  13.0044  13.2528  13.2528  13.2785  13.2785  13.3698  13.3698
    13.5042  13.5043  13.6968  13.6968  13.8050  13.8050  13.9875  13.9875
    13.9995  13.9995  14.0583  14.0583  14.1448  14.1448  14.2649  14.2649
    15.1265  15.1265  15.3290  15.3290  15.7926  15.7926  16.0057  16.0058
    16.6218  16.6218  16.8000  16.8000  16.8478  16.8478  17.0957  17.0958

          k = 0.1667-0.5000-0.4946 ( 20748 PWs)   bands (ev):

   -46.1110 -46.1110 -46.1110 -46.1110 -46.1101 -46.1101 -46.1101 -46.1101
   -22.4208 -22.4208 -22.4208 -22.4208 -22.4185 -22.4185 -22.4184 -22.4184
   -22.3854 -22.3854 -22.3853 -22.3853 -22.3638 -22.3638 -22.3637 -22.3637
   -22.3615 -22.3615 -22.3615 -22.3615 -22.3397 -22.3397 -22.3397 -22.3397
   -14.3472 -14.3472 -14.3472 -14.3471 -14.2719 -14.2719 -14.2718 -14.2718
    -6.4621  -6.4621  -6.4620  -6.4620  -6.2693  -6.2693  -6.2692  -6.2692
    -5.8764  -5.8764  -5.8764  -5.8763  -5.7559  -5.7559  -5.7558  -5.7558
    -5.7393  -5.7393  -5.7392  -5.7392  -5.6641  -5.6641  -5.6639  -5.6639
     0.0956   0.0956   0.0956   0.0957   0.2047   0.2047   0.2047   0.2048
     0.3397   0.3398   0.3398   0.3398   0.4332   0.4332   0.4332   0.4332
     0.5754   0.5754   0.5754   0.5754   0.7308   0.7308   0.7308   0.7308
     6.3609   6.3609   6.3610   6.3610   6.8606   6.8606   6.8607   6.8607
     7.0094   7.0094   7.0094   7.0094   7.2486   7.2486   7.2486   7.2486
     7.2486   7.2486   7.2487   7.2487   7.3912   7.3912   7.3912   7.3913
     7.6212   7.6212   7.6213   7.6213   7.8928   7.8928   7.8928   7.8929
     7.8929   7.8929   7.8929   7.8930   8.0854   8.0854   8.0854   8.0854
     8.1729   8.1730   8.1730   8.1730   8.7280   8.7280   8.7280   8.7280
     9.3235   9.3235   9.3235   9.3235   9.4126   9.4126   9.4126   9.4126
     9.4601   9.4601   9.4602   9.4602   9.6936   9.6936   9.6936   9.6936
     9.7709   9.7709   9.7709   9.7709   9.8707   9.8707   9.8708   9.8708
    13.2306  13.2306  13.2307  13.2307  13.3924  13.3924  13.3925  13.3925
    13.5650  13.5650  13.5650  13.5651  13.7447  13.7447  13.7448  13.7448
    14.0881  14.0881  14.0882  14.0882  14.1321  14.1321  14.1322  14.1322
    15.2753  15.2753  15.2753  15.2753  16.3317  16.3317  16.3318  16.3318
    16.4214  16.4214  16.4215  16.4215  17.1896  17.1896  17.1896  17.1897

          k = 0.3333 0.3333 0.0000 ( 20720 PWs)   bands (ev):

   -46.1115 -46.1110 -46.1110 -46.1106 -46.1105 -46.1101 -46.1101 -46.1096
   -22.4446 -22.4429 -22.4429 -22.4414 -22.3971 -22.3961 -22.3961 -22.3951
   -22.3778 -22.3778 -22.3765 -22.3760 -22.3751 -22.3751 -22.3741 -22.3735
   -22.3514 -22.3507 -22.3498 -22.3498 -22.3491 -22.3486 -22.3478 -22.3478
   -14.4008 -14.3456 -14.3456 -14.3077 -14.3013 -14.2695 -14.2695 -14.2339
    -6.6002  -6.6002  -6.5461  -6.4678  -6.4481  -6.1828  -6.1828  -5.9010
    -5.8495  -5.8307  -5.8307  -5.8218  -5.8218  -5.7964  -5.7962  -5.7627
    -5.7612  -5.7312  -5.7225  -5.6962  -5.6962  -5.6754  -5.6754  -5.6300
    -0.1552   0.0041   0.1414   0.1414   0.1616   0.2830   0.3094   0.3095
     0.3193   0.3581   0.4018   0.4019   0.4478   0.5295   0.5362   0.5362
     0.5376   0.5376   0.5561   0.5931   0.6366   0.6397   0.6606   0.6607
     6.1848   6.2343   6.2343   6.2862   6.4900   6.7128   6.7128   6.7252
     6.7252   6.8086   6.9642   6.9701   6.9767   6.9767   6.9835   7.0890
     7.3351   7.4012   7.4899   7.4899   7.5500   7.5545   7.6083   7.6083
     7.7327   7.7543   7.7543   7.7665   7.7979   7.7979   7.8463   7.8463
     7.8973   7.9287   7.9489   7.9698   7.9918   8.2622   8.2622   8.3119
     8.3119   8.3608   8.5939   8.6184   8.6184   8.6280   8.7812   8.9170
     9.0902   9.0902   9.1758   9.2193   9.3062   9.3462   9.4006   9.4160
     9.4763   9.4763   9.5143   9.5143   9.5299   9.5299   9.7100   9.7100
     9.8159   9.8819   9.8842   9.9279   9.9995   9.9995  10.0598  10.0715
    12.7652  12.8922  12.8922  12.9418  13.0312  13.1674  13.5385  13.6107
    13.6107  13.6633  13.6633  13.7052  13.7991  13.7991  13.9827  14.0121
    14.0499  14.0915  14.0915  14.1993  14.2507  14.2507  14.3582  14.3760
    14.9058  14.9568  14.9568  15.1435  15.5118  15.5536  16.0122  16.0122
    16.3852  16.3889  16.3946  16.3946  16.9963  17.0935  17.2368  17.2721

          k = 0.3333 0.3333 0.1649 ( 20740 PWs)   bands (ev):

   -46.1115 -46.1109 -46.1109 -46.1107 -46.1104 -46.1102 -46.1102 -46.1096
   -22.4415 -22.4398 -22.4398 -22.4383 -22.4003 -22.3992 -22.3992 -22.3982
   -22.3777 -22.3777 -22.3764 -22.3758 -22.3753 -22.3753 -22.3742 -22.3738
   -22.3512 -22.3506 -22.3497 -22.3497 -22.3493 -22.3488 -22.3480 -22.3480
   -14.3947 -14.3406 -14.3406 -14.3141 -14.2968 -14.2747 -14.2747 -14.2385
    -6.5711  -6.5711  -6.5276  -6.4592  -6.4164  -6.2048  -6.2048  -5.9536
    -5.8588  -5.8370  -5.8370  -5.8198  -5.8198  -5.7919  -5.7832  -5.7768
    -5.7542  -5.7356  -5.7237  -5.6954  -5.6954  -5.6818  -5.6818  -5.6394
    -0.1243  -0.0187   0.1608   0.1608   0.2476   0.2806   0.2806   0.2866
     0.2885   0.3535   0.3785   0.3785   0.4025   0.4131   0.4660   0.4661
     0.4828   0.5884   0.5884   0.6513   0.6857   0.7025   0.7141   0.7141
     6.2669   6.3158   6.3158   6.3795   6.4822   6.7046   6.7046   6.7322
     6.7322   6.8174   6.9638   6.9688   7.0085   7.0135   7.0135   7.1103
     7.3388   7.3583   7.4301   7.4301   7.5668   7.6234   7.6329   7.6329
     7.6811   7.6811   7.7410   7.7552   7.8610   7.8610   7.8637   7.8673
     7.8674   7.8970   7.9223   7.9569   7.9879   8.1288   8.1288   8.3046
     8.3046   8.3447   8.4856   8.5096   8.6267   8.6267   8.7344   8.8667
     9.1792   9.1855   9.1855   9.2987   9.3627   9.3644   9.4017   9.4017
     9.4478   9.4524   9.4653   9.4653   9.5934   9.5934   9.6824   9.6824
     9.7561   9.8512   9.8634   9.8816   9.9755   9.9755  10.0488  10.0619
    12.8497  12.9774  12.9774  12.9950  13.0492  13.1575  13.5947  13.6326
    13.6326  13.6766  13.6766  13.7386  13.7877  13.7877  13.9252  13.9670
    13.9975  14.0119  14.0119  14.1817  14.1885  14.1885  14.2978  14.3176
    15.1006  15.1376  15.1376  15.3518  15.5161  15.5510  16.0096  16.0096
    16.4168  16.4168  16.4676  16.4909  16.8937  17.1200  17.2680  17.3202

          k = 0.3333 0.3333 0.3297 ( 20738 PWs)   bands (ev):

   -46.1113 -46.1109 -46.1108 -46.1108 -46.1103 -46.1103 -46.1102 -46.1098
   -22.4328 -22.4312 -22.4312 -22.4299 -22.4091 -22.4079 -22.4079 -22.4066
   -22.3772 -22.3772 -22.3759 -22.3758 -22.3758 -22.3753 -22.3746 -22.3742
   -22.3509 -22.3502 -22.3497 -22.3493 -22.3493 -22.3491 -22.3483 -22.3483
   -14.3779 -14.3314 -14.3269 -14.3268 -14.2888 -14.2888 -14.2846 -14.2510
    -6.4911  -6.4911  -6.4845  -6.4441  -6.3280  -6.2748  -6.2748  -6.0669
    -5.8755  -5.8390  -5.8390  -5.8330  -5.8187  -5.8187  -5.7802  -5.7528
    -5.7477  -5.7308  -5.7280  -5.6974  -5.6973  -5.6948  -5.6948  -5.6645
    -0.0392  -0.0037   0.1978   0.2132   0.2133   0.2369   0.2512   0.2512
     0.3030   0.3166   0.3166   0.3406   0.3548   0.3737   0.3737   0.3989
     0.4087   0.6711   0.6780   0.6780   0.7322   0.7580   0.7580   0.7642
     6.4134   6.4704   6.4758   6.4758   6.6211   6.6508   6.6508   6.8480
     6.8480   6.9247   6.9633   6.9660   7.0795   7.1305   7.1305   7.1621
     7.2069   7.2691   7.2691   7.3968   7.6021   7.6021   7.6052   7.6659
     7.6825   7.6825   7.7015   7.7199   7.8121   7.8210   7.8210   7.8971
     7.8987   7.9097   7.9146   7.9146   8.0117   8.0117   8.0423   8.1695
     8.2584   8.2843   8.2843   8.2950   8.4636   8.4636   8.6493   8.7106
     9.3021   9.3500   9.3500   9.3608   9.3608   9.4050   9.4070   9.4803
     9.4803   9.5047   9.5331   9.5528   9.6246   9.6246   9.6414   9.6414
     9.6818   9.7419   9.7636   9.7979   9.8927   9.8927  10.0277  10.0401
    13.0160  13.1294  13.1525  13.1569  13.2002  13.2002  13.6855  13.6855
    13.6979  13.7308  13.7308  13.7368  13.7368  13.7420  13.7420  13.8187
    13.8187  13.8343  14.0339  14.0339  14.0385  14.1171  14.1502  14.1813
    15.5260  15.5430  15.5430  15.5447  15.5762  15.8771  15.9837  15.9837
    16.5164  16.5164  16.5935  16.6912  16.8026  17.0423  17.1757  17.1953

          k = 0.3333 0.3333-0.4946 ( 20708 PWs)   bands (ev):

   -46.1111 -46.1111 -46.1105 -46.1105 -46.1105 -46.1105 -46.1100 -46.1100
   -22.4210 -22.4210 -22.4195 -22.4195 -22.4195 -22.4195 -22.4183 -22.4183
   -22.3765 -22.3764 -22.3764 -22.3764 -22.3753 -22.3753 -22.3748 -22.3747
   -22.3503 -22.3503 -22.3497 -22.3496 -22.3488 -22.3488 -22.3488 -22.3488
   -14.3548 -14.3547 -14.3080 -14.3079 -14.3079 -14.3079 -14.2679 -14.2678
    -6.4486  -6.4484  -6.3814  -6.3814  -6.3813  -6.3813  -6.2021  -6.2020
    -5.8721  -5.8720  -5.8274  -5.8274  -5.8273  -5.8273  -5.7641  -5.7639
    -5.7371  -5.7370  -5.7007  -5.7006  -5.7005  -5.7005  -5.6981  -5.6980
     0.0783   0.0784   0.0856   0.0857   0.2598   0.2598   0.2598   0.2598
     0.2918   0.2918   0.2919   0.2919   0.3222   0.3222   0.3521   0.3522
     0.5671   0.5671   0.7443   0.7443   0.7443   0.7443   0.7757   0.7758
     6.4632   6.4633   6.5791   6.5791   6.5792   6.5792   6.9099   6.9099
     6.9638   6.9638   7.0670   7.0670   7.0670   7.0670   7.1127   7.1128
     7.3695   7.3695   7.3695   7.3695   7.4134   7.4135   7.4973   7.4973
     7.6636   7.6637   7.7315   7.7315   7.7316   7.7316   7.9004   7.9005
     7.9262   7.9263   7.9804   7.9804   7.9804   7.9805   8.0571   8.0572
     8.1402   8.1403   8.3068   8.3068   8.3068   8.3068   8.6134   8.6135
     9.3547   9.3547   9.3547   9.3547   9.4369   9.4370   9.5263   9.5263
     9.6052   9.6052   9.6053   9.6053   9.6321   9.6322   9.6477   9.6478
     9.6701   9.6701   9.7355   9.7355   9.7355   9.7355  10.0232  10.0234
    13.0862  13.0863  13.4115  13.4115  13.4374  13.4374  13.4906  13.4906
    13.4907  13.4907  13.7350  13.7350  13.7350  13.7350  13.8596  13.8596
    13.8597  13.8597  13.9385  13.9386  13.9798  13.9798  14.0974  14.0974
    15.5362  15.5362  15.8660  15.8660  15.8661  15.8661  16.1267  16.1269
    16.5095  16.5097  16.7943  16.7943  16.7944  16.7944  17.0245  17.2244

          k = 0.3333-0.5000 0.0000 ( 20742 PWs)   bands (ev):

   -46.1113 -46.1113 -46.1107 -46.1107 -46.1104 -46.1104 -46.1098 -46.1098
   -22.4437 -22.4437 -22.4422 -22.4422 -22.3965 -22.3965 -22.3956 -22.3956
   -22.3771 -22.3771 -22.3745 -22.3745 -22.3645 -22.3645 -22.3631 -22.3631
   -22.3620 -22.3620 -22.3609 -22.3609 -22.3504 -22.3504 -22.3484 -22.3484
   -14.3734 -14.3734 -14.3236 -14.3236 -14.2887 -14.2887 -14.2518 -14.2518
    -6.5612  -6.5612  -6.5176  -6.5176  -6.3317  -6.3316  -6.0468  -6.0467
    -5.8286  -5.8286  -5.8134  -5.8133  -5.7954  -5.7954  -5.7875  -5.7875
    -5.7576  -5.7575  -5.7121  -5.7121  -5.7092  -5.7092  -5.6610  -5.6610
    -0.0280  -0.0280   0.1543   0.1543   0.1914   0.1914   0.3459   0.3459
     0.3613   0.3613   0.3664   0.3664   0.4301   0.4301   0.4911   0.4911
     0.5730   0.5730   0.6061   0.6061   0.6221   0.6221   0.6424   0.6424
     6.2234   6.2234   6.2713   6.2713   6.6343   6.6343   6.8184   6.8184
     6.8861   6.8861   7.0794   7.0794   7.1024   7.1024   7.1956   7.1956
     7.2975   7.2975   7.3388   7.3388   7.3720   7.3720   7.5652   7.5653
     7.6070   7.6070   7.7628   7.7628   7.8804   7.8804   7.8824   7.8824
     7.9201   7.9201   8.0674   8.0674   8.0761   8.0761   8.1008   8.1008
     8.4085   8.4085   8.5084   8.5084   8.5518   8.5518   8.6767   8.6767
     9.1912   9.1912   9.1998   9.1998   9.3606   9.3606   9.3866   9.3866
     9.4409   9.4409   9.6510   9.6510   9.6762   9.6762   9.7375   9.7375
     9.7390   9.7390   9.8177   9.8177   9.9258   9.9258  10.0063  10.0063
    12.8525  12.8525  13.2264  13.2265  13.2445  13.2446  13.3354  13.3354
    13.4855  13.4855  13.6359  13.6359  13.7953  13.7953  13.9922  13.9923
    14.0572  14.0572  14.1228  14.1228  14.2133  14.2133  14.3099  14.3099
    14.9546  14.9546  15.0997  15.0997  15.8533  15.8534  16.0110  16.0110
    16.6275  16.6276  16.7926  16.7926  16.8420  16.8420  16.9715  16.9715

          k = 0.3333-0.5000 0.1649 ( 20760 PWs)   bands (ev):

   -46.1112 -46.1112 -46.1107 -46.1107 -46.1104 -46.1104 -46.1099 -46.1099
   -22.4406 -22.4406 -22.4390 -22.4390 -22.3997 -22.3997 -22.3988 -22.3988
   -22.3769 -22.3769 -22.3747 -22.3747 -22.3643 -22.3643 -22.3630 -22.3630
   -22.3622 -22.3622 -22.3610 -22.3610 -22.3503 -22.3503 -22.3485 -22.3485
   -14.3678 -14.3678 -14.3188 -14.3188 -14.2945 -14.2945 -14.2567 -14.2567
    -6.5371  -6.5371  -6.4872  -6.4872  -6.3334  -6.3333  -6.0777  -6.0777
    -5.8324  -5.8324  -5.8130  -5.8130  -5.8114  -5.8114  -5.7832  -5.7832
    -5.7588  -5.7588  -5.7149  -5.7149  -5.7126  -5.7126  -5.6667  -5.6667
    -0.0028  -0.0028   0.1247   0.1248   0.2035   0.2035   0.3176   0.3176
     0.3555   0.3555   0.3814   0.3814   0.4253   0.4253   0.4352   0.4352
     0.4440   0.4440   0.6638   0.6638   0.7038   0.7038   0.7088   0.7088
     6.3076   6.3076   6.3592   6.3592   6.6158   6.6158   6.8173   6.8173
     6.9071   6.9071   7.0370   7.0370   7.1120   7.1120   7.1747   7.1747
     7.3295   7.3295   7.3682   7.3682   7.3834   7.3834   7.5771   7.5771
     7.6077   7.6077   7.7778   7.7778   7.7886   7.7886   7.8858   7.8858
     7.9336   7.9336   8.0410   8.0410   8.0506   8.0506   8.1163   8.1163
     8.2940   8.2940   8.4721   8.4721   8.4832   8.4832   8.6439   8.6439
     9.2575   9.2575   9.2780   9.2780   9.3486   9.3486   9.3682   9.3682
     9.5039   9.5039   9.6031   9.6031   9.6361   9.6361   9.7412   9.7412
     9.7612   9.7612   9.7875   9.7875   9.9089   9.9089   9.9801   9.9801
    12.9363  12.9363  13.2804  13.2804  13.2936  13.2936  13.3507  13.3507
    13.4746  13.4746  13.6667  13.6667  13.8100  13.8100  13.9743  13.9743
    13.9768  13.9768  14.0475  14.0475  14.1425  14.1425  14.2490  14.2490
    15.1417  15.1417  15.3027  15.3027  15.8557  15.8557  16.0215  16.0215
    16.6330  16.6330  16.8419  16.8419  16.8766  16.8766  17.0336  17.1550

          k = 0.3333-0.5000 0.3297 ( 20718 PWs)   bands (ev):

   -46.1110 -46.1110 -46.1106 -46.1106 -46.1105 -46.1105 -46.1101 -46.1101
   -22.4320 -22.4320 -22.4306 -22.4306 -22.4084 -22.4084 -22.4072 -22.4072
   -22.3764 -22.3764 -22.3751 -22.3751 -22.3639 -22.3639 -22.3627 -22.3627
   -22.3625 -22.3625 -22.3614 -22.3614 -22.3499 -22.3499 -22.3488 -22.3488
   -14.3526 -14.3525 -14.3102 -14.3102 -14.3059 -14.3059 -14.2700 -14.2700
    -6.4741  -6.4741  -6.4031  -6.4031  -6.3500  -6.3500  -6.1653  -6.1653
    -5.8460  -5.8460  -5.8455  -5.8455  -5.8012  -5.8012  -5.7774  -5.7774
    -5.7546  -5.7546  -5.7240  -5.7240  -5.7168  -5.7168  -5.6830  -5.6830
     0.0647   0.0647   0.1144   0.1144   0.2361   0.2361   0.2390   0.2390
     0.2984   0.2984   0.3221   0.3221   0.3259   0.3259   0.3421   0.3421
     0.5694   0.5694   0.7395   0.7395   0.7462   0.7462   0.7729   0.7729
     6.4645   6.4645   6.5650   6.5650   6.5748   6.5748   6.8993   6.8993
     6.9202   6.9202   7.0158   7.0158   7.1287   7.1287   7.1466   7.1466
     7.3655   7.3655   7.4045   7.4045   7.4672   7.4672   7.4830   7.4830
     7.6509   7.6509   7.7315   7.7315   7.7454   7.7454   7.9007   7.9007
     7.9622   7.9623   7.9796   7.9796   7.9869   7.9869   8.0970   8.0970
     8.1268   8.1268   8.2277   8.2277   8.3909   8.3909   8.4701   8.4701
     9.3588   9.3588   9.3946   9.3946   9.4198   9.4198   9.4749   9.4749
     9.5739   9.5739   9.5787   9.5787   9.5805   9.5805   9.7236   9.7236
     9.7339   9.7339   9.7608   9.7608   9.8709   9.8710   9.9041   9.9042
    13.1531  13.1531  13.3685  13.3685  13.4204  13.4204  13.4424  13.4424
    13.4702  13.4702  13.7566  13.7566  13.7574  13.7574  13.8513  13.8513
    13.8516  13.8516  13.9171  13.9171  13.9756  13.9756  14.0970  14.0970
    15.5587  15.5587  15.8055  15.8055  15.8540  15.8540  16.0917  16.0918
    16.6133  16.6133  16.8460  16.8461  16.8512  16.8513  17.1501  17.1502

          k = 0.3333-0.5000-0.4946 ( 20728 PWs)   bands (ev):

   -46.1108 -46.1108 -46.1108 -46.1108 -46.1103 -46.1103 -46.1103 -46.1103
   -22.4203 -22.4203 -22.4203 -22.4203 -22.4189 -22.4189 -22.4189 -22.4189
   -22.3758 -22.3758 -22.3757 -22.3757 -22.3633 -22.3633 -22.3633 -22.3633
   -22.3620 -22.3620 -22.3619 -22.3619 -22.3494 -22.3494 -22.3494 -22.3494
   -14.3315 -14.3315 -14.3315 -14.3314 -14.2880 -14.2880 -14.2880 -14.2879
    -6.4003  -6.4003  -6.4002  -6.4002  -6.2855  -6.2855  -6.2854  -6.2854
    -5.8581  -5.8580  -5.8580  -5.8580  -5.7852  -5.7852  -5.7852  -5.7851
    -5.7407  -5.7407  -5.7405  -5.7405  -5.7043  -5.7043  -5.7042  -5.7042
     0.1444   0.1444   0.1444   0.1444   0.1819   0.1819   0.1819   0.1820
     0.2805   0.2805   0.2806   0.2806   0.3058   0.3058   0.3058   0.3058
     0.6857   0.6857   0.6858   0.6858   0.7893   0.7893   0.7893   0.7893
     6.5347   6.5347   6.5348   6.5348   6.7612   6.7612   6.7613   6.7613
     7.0621   7.0621   7.0621   7.0621   7.2526   7.2526   7.2527   7.2527
     7.2731   7.2731   7.2731   7.2731   7.5119   7.5119   7.5119   7.5120
     7.6023   7.6023   7.6023   7.6023   7.9060   7.9060   7.9060   7.9060
     7.9121   7.9122   7.9122   7.9122   8.0163   8.0163   8.0163   8.0163
     8.0664   8.0664   8.0664   8.0664   8.3455   8.3455   8.3455   8.3455
     9.4438   9.4438   9.4439   9.4439   9.4807   9.4807   9.4807   9.4807
     9.6154   9.6154   9.6155   9.6155   9.6666   9.6666   9.6666   9.6666
     9.7007   9.7007   9.7007   9.7008   9.8486   9.8486   9.8487   9.8487
    13.3763  13.3763  13.3764  13.3764  13.4905  13.4905  13.4906  13.4906
    13.6114  13.6114  13.6115  13.6115  13.7046  13.7046  13.7046  13.7047
    13.8799  13.8799  13.8800  13.8800  13.9315  13.9315  13.9315  13.9315
    15.8108  15.8108  15.8108  15.8108  16.3600  16.3601  16.3602  16.3602
    16.4103  16.4104  16.4105  16.4105  16.8941  16.8941  16.8941  16.8941

          k =-0.5000-0.5000 0.0000 ( 20768 PWs)   bands (ev):

   -46.1110 -46.1110 -46.1110 -46.1110 -46.1101 -46.1101 -46.1101 -46.1101
   -22.4429 -22.4429 -22.4429 -22.4429 -22.3961 -22.3961 -22.3961 -22.3961
   -22.3644 -22.3644 -22.3644 -22.3644 -22.3634 -22.3634 -22.3634 -22.3634
   -22.3617 -22.3617 -22.3617 -22.3617 -22.3611 -22.3611 -22.3611 -22.3611
   -14.3487 -14.3486 -14.3486 -14.3486 -14.2704 -14.2703 -14.2703 -14.2703
    -6.5273  -6.5273  -6.5273  -6.5273  -6.1952  -6.1952  -6.1952  -6.1952
    -5.8036  -5.8036  -5.8036  -5.8036  -5.7800  -5.7800  -5.7800  -5.7800
    -5.7774  -5.7774  -5.7774  -5.7774  -5.6815  -5.6815  -5.6815  -5.6815
     0.0562   0.0562   0.0562   0.0562   0.2895   0.2895   0.2895   0.2895
     0.3392   0.3392   0.3393   0.3393   0.5052   0.5052   0.5052   0.5052
     0.5345   0.5345   0.5346   0.5346   0.6468   0.6468   0.6468   0.6468
     6.2611   6.2611   6.2611   6.2611   6.8947   6.8947   6.8947   6.8947
     6.9122   6.9122   6.9122   6.9122   7.3044   7.3044   7.3044   7.3044
     7.3174   7.3174   7.3174   7.3174   7.3708   7.3709   7.3709   7.3709
     7.6969   7.6969   7.6969   7.6970   7.8500   7.8500   7.8500   7.8500
     7.9080   7.9080   7.9080   7.9080   8.2225   8.2225   8.2225   8.2225
     8.2432   8.2432   8.2432   8.2432   8.5222   8.5222   8.5222   8.5222
     9.2572   9.2572   9.2572   9.2572   9.4846   9.4846   9.4846   9.4846
     9.5189   9.5189   9.5189   9.5189   9.6892   9.6892   9.6892   9.6892
     9.7777   9.7777   9.7777   9.7777   9.8996   9.8996   9.8996   9.8997
    13.1252  13.1252  13.1252  13.1252  13.3445  13.3445  13.3445  13.3445
    13.5401  13.5401  13.5401  13.5401  13.7347  13.7348  13.7348  13.7348
    14.1491  14.1491  14.1491  14.1491  14.1841  14.1842  14.1842  14.1842
    15.0700  15.0700  15.0700  15.0700  16.3635  16.3635  16.3635  16.3635
    16.4449  16.4449  16.4449  16.4449  17.1350  17.1350  17.3276  17.3311

          k =-0.5000-0.5000 0.1649 ( 20724 PWs)   bands (ev):

   -46.1109 -46.1109 -46.1109 -46.1109 -46.1102 -46.1102 -46.1102 -46.1102
   -22.4398 -22.4398 -22.4398 -22.4398 -22.3992 -22.3992 -22.3992 -22.3992
   -22.3641 -22.3641 -22.3641 -22.3641 -22.3632 -22.3632 -22.3632 -22.3632
   -22.3618 -22.3618 -22.3618 -22.3618 -22.3613 -22.3613 -22.3613 -22.3613
   -14.3435 -14.3435 -14.3435 -14.3435 -14.2757 -14.2757 -14.2757 -14.2757
    -6.5000  -6.5000  -6.5000  -6.5000  -6.2062  -6.2062  -6.2062  -6.2062
    -5.8145  -5.8145  -5.8145  -5.8145  -5.7854  -5.7854  -5.7854  -5.7854
    -5.7736  -5.7736  -5.7736  -5.7736  -5.6884  -5.6883  -5.6883  -5.6883
     0.0753   0.0753   0.0753   0.0753   0.2487   0.2488   0.2488   0.2488
     0.3204   0.3204   0.3204   0.3205   0.4323   0.4323   0.4323   0.4323
     0.5739   0.5739   0.5739   0.5739   0.7259   0.7259   0.7259   0.7259
     6.3480   6.3480   6.3480   6.3480   6.8554   6.8554   6.8554   6.8554
     6.9054   6.9054   6.9054   6.9054   7.3070   7.3071   7.3071   7.3071
     7.3655   7.3655   7.3655   7.3655   7.3970   7.3970   7.3970   7.3970
     7.6108   7.6108   7.6108   7.6108   7.9032   7.9032   7.9032   7.9033
     7.9144   7.9144   7.9144   7.9144   8.1806   8.1806   8.1806   8.1806
     8.1879   8.1880   8.1880   8.1880   8.4521   8.4521   8.4521   8.4521
     9.3336   9.3336   9.3336   9.3336   9.4483   9.4483   9.4483   9.4483
     9.5343   9.5343   9.5343   9.5343   9.6871   9.6872   9.6872   9.6872
     9.7803   9.7803   9.7803   9.7803   9.8763   9.8764   9.8764   9.8764
    13.1968  13.1969  13.1969  13.1969  13.3803  13.3803  13.3803  13.3803
    13.5557  13.5557  13.5557  13.5557  13.7210  13.7210  13.7210  13.7210
    14.0740  14.0740  14.0740  14.0740  14.1125  14.1125  14.1125  14.1125
    15.2731  15.2731  15.2731  15.2731  16.3722  16.3722  16.3722  16.3722
    16.4416  16.4417  16.4417  16.4417  17.2142  17.2142  17.2247  17.2248

          k =-0.5000-0.5000 0.3297 ( 20760 PWs)   bands (ev):

   -46.1108 -46.1108 -46.1108 -46.1108 -46.1103 -46.1103 -46.1103 -46.1103
   -22.4313 -22.4313 -22.4313 -22.4313 -22.4079 -22.4079 -22.4079 -22.4079
   -22.3636 -22.3636 -22.3636 -22.3636 -22.3628 -22.3628 -22.3628 -22.3628
   -22.3623 -22.3623 -22.3623 -22.3623 -22.3617 -22.3617 -22.3617 -22.3617
   -14.3294 -14.3293 -14.3293 -14.3293 -14.2902 -14.2902 -14.2902 -14.2902
    -6.4263  -6.4263  -6.4263  -6.4263  -6.2492  -6.2492  -6.2492  -6.2492
    -5.8302  -5.8302  -5.8302  -5.8302  -5.8056  -5.8056  -5.8056  -5.8056
    -5.7560  -5.7560  -5.7560  -5.7560  -5.7068  -5.7068  -5.7068  -5.7068
     0.1273   0.1273   0.1274   0.1274   0.2098   0.2098   0.2098   0.2098
     0.2689   0.2689   0.2689   0.2689   0.3070   0.3070   0.3070   0.3070
     0.6881   0.6881   0.6881   0.6881   0.7856   0.7856   0.7856   0.7856
     6.5299   6.5299   6.5299   6.5300   6.7602   6.7602   6.7602   6.7602
     6.9851   6.9851   6.9851   6.9851   7.3160   7.3160   7.3160   7.3160
     7.3507   7.3508   7.3508   7.3508   7.4747   7.4747   7.4747   7.4747
     7.5856   7.5856   7.5856   7.5857   7.9349   7.9349   7.9349   7.9349
     7.9385   7.9385   7.9385   7.9385   8.0808   8.0808   8.0808   8.0808
     8.0817   8.0817   8.0817   8.0817   8.1908   8.1908   8.1908   8.1908
     9.4714   9.4714   9.4714   9.4714   9.4843   9.4843   9.4843   9.4843
     9.5721   9.5721   9.5721   9.5721   9.6596   9.6596   9.6596   9.6596
     9.7771   9.7771   9.7771   9.7771   9.8197   9.8197   9.8197   9.8197
    13.3831  13.3832  13.3832  13.3832  13.4894  13.4894  13.4894  13.4894
    13.6004  13.6004  13.6004  13.6004  13.6802  13.6803  13.6803  13.6803
    13.8864  13.8864  13.8864  13.8864  13.9228  13.9229  13.9229  13.9229
    15.7795  15.7796  15.7796  15.7796  16.3925  16.3925  16.3925  16.3925
    16.4314  16.4314  16.4314  16.4314  16.8998  16.8999  16.8999  16.8999

          k =-0.5000-0.5000-0.4946 ( 20704 PWs)   bands (ev):

   -46.1105 -46.1105 -46.1105 -46.1105 -46.1105 -46.1105 -46.1105 -46.1105
   -22.4196 -22.4196 -22.4196 -22.4196 -22.4195 -22.4195 -22.4195 -22.4195
   -22.3630 -22.3630 -22.3630 -22.3630 -22.3629 -22.3629 -22.3629 -22.3629
   -22.3622 -22.3622 -22.3622 -22.3622 -22.3622 -22.3622 -22.3622 -22.3622
   -14.3099 -14.3099 -14.3099 -14.3099 -14.3099 -14.3098 -14.3098 -14.3098
    -6.3309  -6.3309  -6.3309  -6.3308  -6.3308  -6.3307  -6.3307  -6.3307
    -5.8262  -5.8262  -5.8262  -5.8262  -5.8261  -5.8261  -5.8261  -5.8261
    -5.7317  -5.7317  -5.7317  -5.7317  -5.7316  -5.7315  -5.7315  -5.7315
     0.1982   0.1982   0.1982   0.1982   0.1983   0.1983   0.1983   0.1983
     0.2270   0.2270   0.2271   0.2271   0.2271   0.2271   0.2271   0.2271
     0.7706   0.7706   0.7706   0.7706   0.7706   0.7706   0.7706   0.7706
     6.6566   6.6566   6.6566   6.6567   6.6567   6.6567   6.6567   6.6567
     7.2423   7.2423   7.2423   7.2423   7.2424   7.2424   7.2424   7.2425
     7.3318   7.3319   7.3319   7.3319   7.3319   7.3320   7.3320   7.3320
     7.8484   7.8484   7.8484   7.8484   7.8484   7.8484   7.8484   7.8485
     7.9858   7.9858   7.9858   7.9859   7.9859   7.9859   7.9859   7.9859
     7.9914   7.9914   7.9914   7.9914   7.9915   7.9915   7.9915   7.9915
     9.5776   9.5776   9.5776   9.5776   9.5776   9.5776   9.5776   9.5776
     9.5828   9.5828   9.5828   9.5828   9.5829   9.5829   9.5829   9.5829
     9.7734   9.7734   9.7734   9.7734   9.7735   9.7735   9.7736   9.7736
    13.5948  13.5948  13.5948  13.5948  13.5948  13.5949  13.5949  13.5949
    13.6682  13.6682  13.6682  13.6682  13.6683  13.6683  13.6683  13.6683
    13.6982  13.6982  13.6982  13.6982  13.6982  13.6982  13.6982  13.6982
    16.3824  16.3824  16.3824  16.3824  16.3825  16.3825  16.3825  16.3826
    16.4143  16.4143  16.4143  16.4143  16.4143  16.4143  16.4143  16.4143

     highest occupied, lowest unoccupied level (ev):    10.4089   12.2321

!    total energy              =   -5964.58030712 Ry
     total all-electron energy =   -147449.033880 Ry
     estimated scf accuracy    <          9.4E-11 Ry

     The total energy is the sum of the following terms:
     one-electron contribution =    -550.39689539 Ry
     hartree contribution      =     483.83942022 Ry
     xc contribution           =    -491.50771522 Ry
     ewald contribution        =   -1653.96634398 Ry
     one-center paw contrib.   =   -3752.54877276 Ry

     convergence has been achieved in   5 iterations

     Forces acting on atoms (cartesian axes, Ry/au):

     atom    1 type  1   force =     0.00000000    0.00000000   -0.00097130
     atom    2 type  1   force =     0.00000000    0.00000000   -0.00094099
     atom    3 type  1   force =     0.00000000    0.00000000   -0.00096110
     atom    4 type  1   force =     0.00000000    0.00000000   -0.00094682
     atom    5 type  1   force =     0.00000000    0.00000000   -0.00096110
     atom    6 type  1   force =     0.00000000    0.00000000   -0.00094682
     atom    7 type  1   force =     0.00000000    0.00000000   -0.00097539
     atom    8 type  1   force =     0.00000000    0.00000000   -0.00093872
     atom    9 type  2   force =    -0.00000080   -0.00000080    0.00034263
     atom   10 type  2   force =    -0.00000140   -0.00000140    0.00035122
     atom   11 type  2   force =    -0.00000080    0.00000080    0.00034263
     atom   12 type  2   force =    -0.00000140    0.00000140    0.00035122
     atom   13 type  2   force =     0.00000080   -0.00000080    0.00034263
     atom   14 type  2   force =     0.00000140   -0.00000140    0.00035122
     atom   15 type  2   force =     0.00000080    0.00000080    0.00034263
     atom   16 type  2   force =     0.00000140    0.00000140    0.00035122
     atom   17 type  3   force =    -0.00000145   -0.00000145   -0.00021427
     atom   18 type  3   force =    -0.00000238   -0.00000238   -0.00020544
     atom   19 type  3   force =    -0.00000145    0.00000145   -0.00021427
     atom   20 type  3   force =    -0.00000238    0.00000238   -0.00020544
     atom   21 type  3   force =     0.00000145   -0.00000145   -0.00021427
     atom   22 type  3   force =     0.00000238   -0.00000238   -0.00020544
     atom   23 type  3   force =     0.00000145    0.00000145   -0.00021427
     atom   24 type  3   force =     0.00000238    0.00000238   -0.00020544
     atom   25 type  3   force =    -0.00000194    0.00000000    0.00040344
     atom   26 type  3   force =    -0.00000554    0.00000000    0.00040782
     atom   27 type  3   force =     0.00000079    0.00000000    0.00040799
     atom   28 type  3   force =     0.00000304    0.00000000    0.00041717
     atom   29 type  3   force =     0.00000194    0.00000000    0.00040344
     atom   30 type  3   force =     0.00000554    0.00000000    0.00040782
     atom   31 type  3   force =    -0.00000079    0.00000000    0.00040799
     atom   32 type  3   force =    -0.00000304    0.00000000    0.00041717
     atom   33 type  3   force =     0.00000000   -0.00000194    0.00040344
     atom   34 type  3   force =     0.00000000   -0.00000554    0.00040782
     atom   35 type  3   force =     0.00000000    0.00000194    0.00040344
     atom   36 type  3   force =     0.00000000    0.00000554    0.00040782
     atom   37 type  3   force =     0.00000000    0.00000079    0.00040799
     atom   38 type  3   force =     0.00000000    0.00000304    0.00041717
     atom   39 type  3   force =     0.00000000   -0.00000079    0.00040799
     atom   40 type  3   force =    -0.00000000   -0.00000304    0.00041717

     Total force =     0.003361     Total SCF correction =     0.000004


     Computing stress (Cartesian axis) and pressure

          total   stress  (Ry/bohr**3)                   (kbar)     P=       40.26
   0.00024331   0.00000000   0.00000000           35.79        0.00        0.00
   0.00000000   0.00024331   0.00000000            0.00       35.79        0.00
   0.00000000   0.00000000   0.00033450            0.00        0.00       49.21


     Writing all to output data dir ./tmp/50_ecut_6_kmesh_PBE.save/ :
     XML data file, charge density, pseudopotentials, collected wavefunctions

     init_run     :      1.75s CPU      3.30s WALL (       1 calls)
     electrons    :     13.48s CPU     13.96s WALL (       1 calls)
     forces       :      0.44s CPU      0.47s WALL (       1 calls)
     stress       :      1.32s CPU      1.38s WALL (       1 calls)

     Called by init_run:
     wfcinit      :      0.54s CPU      1.92s WALL (       1 calls)
     potinit      :      0.53s CPU      0.57s WALL (       1 calls)
     hinit0       :      0.40s CPU      0.51s WALL (       1 calls)

     Called by electrons:
     c_bands      :     11.44s CPU     11.77s WALL (       6 calls)
     sum_band     :      1.38s CPU      1.43s WALL (       6 calls)
     v_of_rho     :      0.11s CPU      0.13s WALL (       6 calls)
     newd         :      0.10s CPU      0.10s WALL (       6 calls)
     PAW_pot      :      0.27s CPU      0.28s WALL (       6 calls)
     mix_rho      :      0.01s CPU      0.01s WALL (       6 calls)

     Called by c_bands:
     init_us_2    :      0.25s CPU      0.26s WALL (      70 calls)
     cegterg      :     10.60s CPU     10.91s WALL (      30 calls)

     Called by *egterg:
     cdiaghg      :      2.13s CPU      2.23s WALL (     119 calls)
     h_psi        :      5.13s CPU      5.27s WALL (     129 calls)
     s_psi        :      0.75s CPU      0.76s WALL (     129 calls)
     g_psi        :      0.01s CPU      0.01s WALL (      99 calls)

     Called by h_psi:
     h_psi:calbec :      1.01s CPU      1.08s WALL (     129 calls)
     vloc_psi     :      3.33s CPU      3.39s WALL (     129 calls)
                                        0.00s GPU  (     129 calls)
     add_vuspsi   :      0.76s CPU      0.77s WALL (     129 calls)

     General routines
     calbec       :      2.56s CPU      2.72s WALL (     244 calls)
     fft          :      0.44s CPU      0.49s WALL (     102 calls)
     ffts         :      0.45s CPU      0.45s WALL (      12 calls)
     fftw         :      3.82s CPU      3.89s WALL (   34624 calls)
     interpolate  :      0.45s CPU      0.46s WALL (       6 calls)

     Parallel routines

     PWSCF        :     18.41s CPU     22.56s WALL


   This run was terminated on:   0:14: 9  21May2026            

=------------------------------------------------------------------------------=
   JOB DONE.
=------------------------------------------------------------------------------=
