
     Program PWSCF v.7.5 starts on 21May2026 at  0:14:49 

     This program is part of the open-source Quantum ESPRESSO suite
     for quantum simulation of materials; please cite
         "P. Giannozzi et al., J. Phys.:Condens. Matter 21 395502 (2009);
         "P. Giannozzi et al., J. Phys.:Condens. Matter 29 465901 (2017);
         "P. Giannozzi et al., J. Chem. Phys. 152 154105 (2020);
          URL http://www.quantum-espresso.org", 
     in publications or presentations arising from this work. More details at
     http://www.quantum-espresso.org/quote

     Parallel version (MPI & OpenMP), running on     192 processor cores
     Number of MPI processes:               192
     Threads/MPI process:                     1

     MPI processes distributed on     1 nodes
     384669 MiB available memory on the printing compute node when the environment starts

     Waiting for input...
     Reading input from standard input

     Current dimensions of program PWSCF are:
     Max number of different atomic species (ntypx) = 10
     Max number of k-points (npk) =  40000
     Max angular momentum in pseudopotentials (lmaxx) =  4
     file Ba.pbe-spn-kjpaw_psl.1.0.0.UPF: wavefunction(s)  5S 6S renormalized
     file Ti.pbe-spn-kjpaw_psl.1.0.0.UPF: wavefunction(s)  3S 3P 3D renormalized
     file O.pbe-n-kjpaw_psl.1.0.0.UPF: wavefunction(s)  2S 2P renormalized

     IMPORTANT: XC functional enforced from input :
     Exchange-correlation= PBE
                           (   1   4   3   4   0   0   0)
     Any further DFT definition will be discarded
     Please, verify this is what you really want

     Found identity + ( -0.5000 -0.5000  0.0000) symmetry
     This is a supercell, fractional translations are disabled

     K-points division:     npool     =       8
     R & G space division:  proc/nbgrp/npool/nimage =      24
     Subspace diagonalization in iterative solution of the eigenvalue problem:
     one sub-group per band group will be used
     ELPA distributed-memory algorithm (size of sub-group:  2*  2 procs)


     Parallelization info
     --------------------
     sticks:   dense  smooth     PW     G-vecs:    dense   smooth      PW
     Min         422     211     57                32375    11445    1619
     Max         424     212     58                32377    11448    1623
     Sum       10137    5065   1369               777019   274705   38907

     Using Slab Decomposition



     bravais-lattice index     =            6
     lattice parameter (alat)  =      15.0876  a.u.
     unit-cell volume          =    3472.3239 (a.u.)^3
     number of atoms/cell      =           40
     number of atomic types    =            3
     number of electrons       =       320.00
     number of Kohn-Sham states=          200
     kinetic-energy cutoff     =      70.0000  Ry
     charge density cutoff     =     560.0000  Ry
     scf convergence threshold =      1.0E-10
     mixing beta               =       0.3000
     number of iterations used =           16  plain     mixing
     Exchange-correlation= PBE
                           (   1   4   3   4   0   0   0)

     celldm(1)=  15.087600  celldm(2)=   0.000000  celldm(3)=   1.011020
     celldm(4)=   0.000000  celldm(5)=   0.000000  celldm(6)=   0.000000

     crystal axes: (cart. coord. in units of alat)
               a(1) = (   1.000000   0.000000   0.000000 )  
               a(2) = (   0.000000   1.000000   0.000000 )  
               a(3) = (   0.000000   0.000000   1.011020 )  

     reciprocal axes: (cart. coord. in units 2 pi/alat)
               b(1) = (  1.000000  0.000000  0.000000 )  
               b(2) = (  0.000000  1.000000  0.000000 )  
               b(3) = (  0.000000  0.000000  0.989100 )  


     PseudoPot. # 1 for Ba read from file:
     /home/kylay/scratch/BTO/pseuds/Ba.pbe-spn-kjpaw_psl.1.0.0.UPF
     MD5 check sum: 7cfe25f1fe7574a4710541d5a11d6531
     Pseudo is Projector augmented-wave + core cor, Zval = 10.0
     Generated using &quot;atomic&quot; code by A. Dal Corso  v.6.2.2
     Shape of augmentation charge: PSQ
     Using radial grid of 1251 points,  7 beta functions with: 
                l(1) =   0
                l(2) =   0
                l(3) =   0
                l(4) =   1
                l(5) =   1
                l(6) =   2
                l(7) =   2
     Q(r) pseudized with 0 coefficients 


     PseudoPot. # 2 for Ti read from file:
     /home/kylay/scratch/BTO/pseuds/Ti.pbe-spn-kjpaw_psl.1.0.0.UPF
     MD5 check sum: 01f69b0d8ba4438b2e03ac6ea4af1c0b
     Pseudo is Projector augmented-wave + core cor, Zval = 12.0
     Generated using &quot;atomic&quot; code by A. Dal Corso  v.6.2.2
     Shape of augmentation charge: PSQ
     Using radial grid of 1177 points,  6 beta functions with: 
                l(1) =   0
                l(2) =   0
                l(3) =   1
                l(4) =   1
                l(5) =   2
                l(6) =   2
     Q(r) pseudized with 0 coefficients 


     PseudoPot. # 3 for O  read from file:
     /home/kylay/scratch/BTO/pseuds/O.pbe-n-kjpaw_psl.1.0.0.UPF
     MD5 check sum: e99d9cef9b487d1ca56f5b95ecd0fd7a
     Pseudo is Projector augmented-wave + core cor, Zval =  6.0
     Generated using &quot;atomic&quot; code by A. Dal Corso  v.6.3
     Shape of augmentation charge: PSQ
     Using radial grid of 1095 points,  4 beta functions with: 
                l(1) =   0
                l(2) =   0
                l(3) =   1
                l(4) =   1
     Q(r) pseudized with 0 coefficients 


     atomic species   valence    mass     pseudopotential
     Ba               10.00   137.32700     Ba( 1.00)
     Ti               12.00    47.86700     Ti( 1.00)
     O                 6.00    15.99900     O ( 1.00)

      8 Sym. Ops. (no inversion) found



   Cartesian axes

     site n.     atom                  positions (alat units)
         1        Ba     tau(   1) = (   0.0000000   0.0000000  -0.0010787  )
         2        Ba     tau(   2) = (   0.0000000   0.0000000   0.5044220  )
         3        Ba     tau(   3) = (   0.0000000   0.5000000  -0.0010832  )
         4        Ba     tau(   4) = (   0.0000000   0.5000000   0.5044235  )
         5        Ba     tau(   5) = (   0.5000000   0.0000000  -0.0010832  )
         6        Ba     tau(   6) = (   0.5000000   0.0000000   0.5044235  )
         7        Ba     tau(   7) = (   0.5000000   0.5000000  -0.0010766  )
         8        Ba     tau(   8) = (   0.5000000   0.5000000   0.5044202  )
         9        Ti     tau(   9) = (   0.2500002   0.2500002   0.2436990  )
        10        Ti     tau(  10) = (   0.2500007   0.2500007   0.7492042  )
        11        Ti     tau(  11) = (   0.2500002   0.7499998   0.2436990  )
        12        Ti     tau(  12) = (   0.2500007   0.7499993   0.7492042  )
        13        Ti     tau(  13) = (   0.7499998   0.2500002   0.2436990  )
        14        Ti     tau(  14) = (   0.7499993   0.2500007   0.7492042  )
        15        Ti     tau(  15) = (   0.7499998   0.7499998   0.2436990  )
        16        Ti     tau(  16) = (   0.7499993   0.7499993   0.7492042  )
        17        O      tau(  17) = (   0.2500011   0.2500011   0.0113903  )
        18        O      tau(  18) = (   0.2500007   0.2500007   0.5168954  )
        19        O      tau(  19) = (   0.2500011   0.7499989   0.0113903  )
        20        O      tau(  20) = (   0.2500007   0.7499993   0.5168954  )
        21        O      tau(  21) = (   0.7499989   0.2500011   0.0113903  )
        22        O      tau(  22) = (   0.7499993   0.2500007   0.5168954  )
        23        O      tau(  23) = (   0.7499989   0.7499989   0.0113903  )
        24        O      tau(  24) = (   0.7499993   0.7499993   0.5168954  )
        25        O      tau(  25) = (   0.2500005   0.0000000   0.2592128  )
        26        O      tau(  26) = (   0.2500020   0.0000000   0.7647195  )
        27        O      tau(  27) = (   0.2499999   0.5000000   0.2592107  )
        28        O      tau(  28) = (   0.2499998   0.5000000   0.7647148  )
        29        O      tau(  29) = (   0.7499995   0.0000000   0.2592128  )
        30        O      tau(  30) = (   0.7499980   0.0000000   0.7647195  )
        31        O      tau(  31) = (   0.7500001   0.5000000   0.2592107  )
        32        O      tau(  32) = (   0.7500002   0.5000000   0.7647148  )
        33        O      tau(  33) = (   0.0000000   0.2500005   0.2592128  )
        34        O      tau(  34) = (   0.0000000   0.2500020   0.7647195  )
        35        O      tau(  35) = (   0.0000000   0.7499995   0.2592128  )
        36        O      tau(  36) = (   0.0000000   0.7499980   0.7647195  )
        37        O      tau(  37) = (   0.5000000   0.2499999   0.2592107  )
        38        O      tau(  38) = (   0.5000000   0.2499998   0.7647148  )
        39        O      tau(  39) = (   0.5000000   0.7500001   0.2592107  )
        40        O      tau(  40) = (   0.5000000   0.7500002   0.7647148  )

     number of k points=    40
                       cart. coord. in units 2pi/alat
        k(    1) = (   0.0000000   0.0000000   0.0000000), wk =   0.0092593
        k(    2) = (   0.0000000   0.0000000   0.1648500), wk =   0.0185185
        k(    3) = (   0.0000000   0.0000000   0.3297000), wk =   0.0185185
        k(    4) = (   0.0000000   0.0000000  -0.4945501), wk =   0.0092593
        k(    5) = (   0.0000000   0.1666667   0.0000000), wk =   0.0370370
        k(    6) = (   0.0000000   0.1666667   0.1648500), wk =   0.0740741
        k(    7) = (   0.0000000   0.1666667   0.3297000), wk =   0.0740741
        k(    8) = (   0.0000000   0.1666667  -0.4945501), wk =   0.0370370
        k(    9) = (   0.0000000   0.3333333   0.0000000), wk =   0.0370370
        k(   10) = (   0.0000000   0.3333333   0.1648500), wk =   0.0740741
        k(   11) = (   0.0000000   0.3333333   0.3297000), wk =   0.0740741
        k(   12) = (   0.0000000   0.3333333  -0.4945501), wk =   0.0370370
        k(   13) = (   0.0000000  -0.5000000   0.0000000), wk =   0.0185185
        k(   14) = (   0.0000000  -0.5000000   0.1648500), wk =   0.0370370
        k(   15) = (   0.0000000  -0.5000000   0.3297000), wk =   0.0370370
        k(   16) = (   0.0000000  -0.5000000  -0.4945501), wk =   0.0185185
        k(   17) = (   0.1666667   0.1666667   0.0000000), wk =   0.0370370
        k(   18) = (   0.1666667   0.1666667   0.1648500), wk =   0.0740741
        k(   19) = (   0.1666667   0.1666667   0.3297000), wk =   0.0740741
        k(   20) = (   0.1666667   0.1666667  -0.4945501), wk =   0.0370370
        k(   21) = (   0.1666667   0.3333333   0.0000000), wk =   0.0740741
        k(   22) = (   0.1666667   0.3333333   0.1648500), wk =   0.1481481
        k(   23) = (   0.1666667   0.3333333   0.3297000), wk =   0.1481481
        k(   24) = (   0.1666667   0.3333333  -0.4945501), wk =   0.0740741
        k(   25) = (   0.1666667  -0.5000000   0.0000000), wk =   0.0370370
        k(   26) = (   0.1666667  -0.5000000   0.1648500), wk =   0.0740741
        k(   27) = (   0.1666667  -0.5000000   0.3297000), wk =   0.0740741
        k(   28) = (   0.1666667  -0.5000000  -0.4945501), wk =   0.0370370
        k(   29) = (   0.3333333   0.3333333   0.0000000), wk =   0.0370370
        k(   30) = (   0.3333333   0.3333333   0.1648500), wk =   0.0740741
        k(   31) = (   0.3333333   0.3333333   0.3297000), wk =   0.0740741
        k(   32) = (   0.3333333   0.3333333  -0.4945501), wk =   0.0370370
        k(   33) = (   0.3333333  -0.5000000   0.0000000), wk =   0.0370370
        k(   34) = (   0.3333333  -0.5000000   0.1648500), wk =   0.0740741
        k(   35) = (   0.3333333  -0.5000000   0.3297000), wk =   0.0740741
        k(   36) = (   0.3333333  -0.5000000  -0.4945501), wk =   0.0370370
        k(   37) = (  -0.5000000  -0.5000000   0.0000000), wk =   0.0092593
        k(   38) = (  -0.5000000  -0.5000000   0.1648500), wk =   0.0185185
        k(   39) = (  -0.5000000  -0.5000000   0.3297000), wk =   0.0185185
        k(   40) = (  -0.5000000  -0.5000000  -0.4945501), wk =   0.0092593

     Dense  grid:   777019 G-vectors     FFT dimensions: ( 120, 120, 120)

     Smooth grid:   274705 G-vectors     FFT dimensions: (  81,  81,  81)

     Estimated max dynamical RAM per process >     102.06 MB

     Estimated total dynamical RAM >      16.54 GB

     Check: negative core charge=   -0.000002

     The initial density is read from file :
     ./tmp/70_ecut_6_kmesh_PBE.save/charge-density

     Starting wfcs from file
     Checking if some PAW data can be deallocated... 

     total cpu time spent up to now is        4.7 secs

     per-process dynamical memory:   141.3 Mb

     Self-consistent Calculation

     iteration #  1     ecut=    70.00 Ry     beta= 0.30
     Davidson diagonalization with overlap
     ethr =  1.00E-05,  avg # of iterations =  1.2

     Threshold (ethr) on eigenvalues was too large:
     Diagonalizing with lowered threshold

     Davidson diagonalization with overlap
     ethr =  7.75E-13,  avg # of iterations =  6.4

     total cpu time spent up to now is       12.2 secs

     total energy              =   -5964.62505035 Ry
     estimated scf accuracy    <          5.9E-09 Ry

     iteration #  2     ecut=    70.00 Ry     beta= 0.30
     Davidson diagonalization with overlap
     ethr =  1.85E-12,  avg # of iterations =  2.0

     total cpu time spent up to now is       15.1 secs

     total energy              =   -5964.62505035 Ry
     estimated scf accuracy    <          9.9E-10 Ry

     iteration #  3     ecut=    70.00 Ry     beta= 0.30
     Davidson diagonalization with overlap
     ethr =  3.08E-13,  avg # of iterations =  6.0

     total cpu time spent up to now is       19.5 secs

     total energy              =   -5964.62505035 Ry
     estimated scf accuracy    <          2.1E-10 Ry

     iteration #  4     ecut=    70.00 Ry     beta= 0.30
     Davidson diagonalization with overlap
     ethr =  1.00E-13,  avg # of iterations =  2.6

     total cpu time spent up to now is       22.8 secs

     End of self-consistent calculation

          k = 0.0000 0.0000 0.0000 ( 34305 PWs)   bands (ev):

   -46.1088 -46.1079 -46.1078 -46.1078 -46.1069 -46.1069 -46.1068 -46.1059
   -22.4438 -22.4402 -22.4402 -22.4376 -22.3956 -22.3934 -22.3934 -22.3914
   -22.3896 -22.3896 -22.3864 -22.3864 -22.3861 -22.3861 -22.3838 -22.3838
   -22.3355 -22.3355 -22.3336 -22.3336 -22.3334 -22.3333 -22.3316 -22.3316
   -14.4579 -14.3463 -14.3369 -14.3368 -14.2674 -14.2674 -14.2594 -14.1989
    -6.7740  -6.7740  -6.7216  -6.5311  -6.2529  -6.1399  -6.1399  -5.9054
    -5.9054  -5.9046  -5.8440  -5.8440  -5.8102  -5.7780  -5.7462  -5.7462
    -5.7432  -5.7432  -5.7346  -5.6687  -5.5754  -5.5754  -5.5137  -5.5137
    -0.3540  -0.3540  -0.2919   0.2990   0.2990   0.3151   0.3151   0.3650
     0.3707   0.3707   0.3746   0.3746   0.5277   0.5277   0.5326   0.5326
     0.5494   0.5494   0.7382   0.7425   0.7425   0.7627   0.7627   0.8065
     5.9193   6.0772   6.1023   6.1023   6.2946   6.2946   6.3338   6.3491
     6.4062   6.4062   6.5586   6.5586   6.5592   6.5805   6.5963   7.5255
     7.5255   7.5768   7.5768   7.6242   7.6242   7.6251   7.6251   7.6385
     7.6385   7.7378   7.7378   7.9232   7.9232   7.9526   8.0507   8.0854
     8.0854   8.0906   8.0906   8.3850   8.3850   8.4540   8.4574   8.4697
     8.4697   8.5504   8.5504   8.6150   8.6905   8.6905   8.7148   8.7148
     9.0496   9.0496   9.2281   9.3431   9.3431   9.3760   9.3760   9.4727
     9.4727   9.4816   9.4816   9.4998   9.4998   9.7143   9.7143   9.9946
    10.0593  10.0593  10.1759  10.1759  10.2462  10.2462  10.3374  10.4080
    12.2295  12.3758  12.5474  12.5474  12.6640  12.6640  13.9449  13.9449
    13.9732  13.9732  14.0007  14.0007  14.0069  14.0069  14.0215  14.0215
    14.0234  14.0234  14.3648  14.3648  14.3938  14.4634  14.4637  14.5501
    14.5501  14.6104  14.6104  14.6154  14.6182  15.0989  15.2992  15.2992
    15.3436  15.4900  16.2948  16.2948  16.4909  16.8974  17.1085  17.1085

          k = 0.0000 0.0000 0.1649 ( 34345 PWs)   bands (ev):

   -46.1088 -46.1080 -46.1077 -46.1077 -46.1070 -46.1070 -46.1067 -46.1060
   -22.4406 -22.4371 -22.4371 -22.4345 -22.3989 -22.3966 -22.3966 -22.3945
   -22.3894 -22.3894 -22.3866 -22.3866 -22.3859 -22.3859 -22.3839 -22.3839
   -22.3353 -22.3353 -22.3337 -22.3337 -22.3332 -22.3332 -22.3317 -22.3317
   -14.4506 -14.3539 -14.3323 -14.3323 -14.2721 -14.2721 -14.2554 -14.2031
    -6.7408  -6.7408  -6.6997  -6.5291  -6.2203  -6.2083  -6.2083  -5.9068
    -5.8770  -5.8770  -5.8403  -5.8403  -5.8080  -5.7802  -5.7718  -5.7326
    -5.7326  -5.7304  -5.7304  -5.6969  -5.5873  -5.5873  -5.5291  -5.5291
    -0.3125  -0.3125  -0.2342   0.2525   0.2525   0.3423   0.3423   0.3789
     0.3790   0.3844   0.3844   0.3951   0.5170   0.5170   0.5189   0.5189
     0.5617   0.5617   0.6536   0.7288   0.7288   0.7299   0.7299   0.7772
     5.9636   6.0785   6.1584   6.1584   6.3658   6.3658   6.3938   6.3938
     6.4412   6.4715   6.5814   6.5952   6.6153   6.6153   6.6372   7.5302
     7.5302   7.5744   7.5744   7.6031   7.6031   7.6652   7.6652   7.6738
     7.6738   7.7870   7.7870   7.7889   7.7889   7.8562   7.9169   7.9169
     7.9281   8.0658   8.0658   8.4087   8.4087   8.4225   8.4920   8.4920
     8.4983   8.5338   8.5346   8.5346   8.7232   8.7233   8.9745   8.9745
     9.0111   9.0111   9.1665   9.2841   9.2841   9.3770   9.3770   9.4122
     9.4122   9.4243   9.4243   9.4316   9.4316   9.7349   9.7349   9.8425
    10.0350  10.0350  10.1372  10.1372  10.1661  10.1661  10.3420  10.4033
    12.2388  12.3655  12.6601  12.6601  12.7655  12.7655  13.9175  13.9175
    13.9359  13.9359  13.9469  13.9469  13.9714  13.9714  14.0056  14.0056
    14.0585  14.0585  14.3201  14.3201  14.4081  14.4630  14.4632  14.5631
    14.5631  14.6026  14.6825  14.6825  14.7959  15.2899  15.2899  15.3121
    15.4745  15.6203  16.3759  16.3759  16.3974  16.8907  17.1952  17.2775

          k = 0.0000 0.0000 0.3297 ( 34300 PWs)   bands (ev):

   -46.1086 -46.1082 -46.1076 -46.1076 -46.1072 -46.1072 -46.1066 -46.1061
   -22.4318 -22.4286 -22.4286 -22.4261 -22.4077 -22.4052 -22.4052 -22.4030
   -22.3888 -22.3888 -22.3872 -22.3872 -22.3855 -22.3855 -22.3844 -22.3844
   -22.3350 -22.3350 -22.3341 -22.3341 -22.3329 -22.3329 -22.3320 -22.3320
   -14.4305 -14.3747 -14.3197 -14.3197 -14.2850 -14.2850 -14.2445 -14.2142
    -6.6468  -6.6468  -6.6432  -6.5374  -6.3509  -6.3509  -6.1299  -5.8964
    -5.8713  -5.8422  -5.8422  -5.8324  -5.8324  -5.8022  -5.7861  -5.7680
    -5.7033  -5.7033  -5.6875  -5.6875  -5.6195  -5.6195  -5.5713  -5.5713
    -0.1977  -0.1977  -0.0702   0.1278   0.1278   0.4033   0.4033   0.4115
     0.4115   0.4187   0.4187   0.4376   0.4768   0.4838   0.4838   0.4880
     0.4880   0.5956   0.5956   0.6425   0.6425   0.6920   0.6920   0.6972
     6.0358   6.0798   6.2558   6.2558   6.3629   6.3629   6.5739   6.5739
     6.5844   6.5923   6.7398   6.7916   6.8264   6.8264   6.9114   7.3233
     7.3233   7.4731   7.4731   7.5420   7.5420   7.5673   7.5673   7.5864
     7.5981   7.7565   7.7565   7.7705   7.7705   7.8928   7.8928   7.9308
     7.9308   7.9467   8.0043   8.0043   8.3359   8.3359   8.4830   8.4830
     8.6237   8.7270   8.7270   8.7537   8.7991   8.7991   8.8190   8.8190
     9.0069   9.1382   9.1383   9.2122   9.2122   9.2450   9.2450   9.3055
     9.3055   9.4317   9.4317   9.4859   9.5277   9.5277   9.7934   9.7934
     9.9635   9.9635   9.9679   9.9679  10.0106  10.0106  10.3548  10.3902
    12.2648  12.3378  12.9508  12.9508  13.0307  13.0307  13.6697  13.6697
    13.7007  13.7007  13.9526  13.9526  13.9666  13.9666  14.0329  14.0329
    14.1561  14.1561  14.2137  14.2137  14.4437  14.4437  14.4479  14.4621
    14.4625  14.5602  14.9479  14.9479  15.2261  15.2512  15.2512  15.8297
    15.8361  15.9902  16.1272  16.6412  16.6412  16.7919  16.8151  17.1617

          k = 0.0000 0.0000-0.4946 ( 34352 PWs)   bands (ev):

   -46.1084 -46.1084 -46.1074 -46.1074 -46.1074 -46.1074 -46.1063 -46.1063
   -22.4198 -22.4198 -22.4169 -22.4169 -22.4169 -22.4169 -22.4146 -22.4146
   -22.3880 -22.3880 -22.3880 -22.3880 -22.3849 -22.3849 -22.3849 -22.3849
   -22.3345 -22.3345 -22.3345 -22.3345 -22.3325 -22.3325 -22.3325 -22.3325
   -14.4028 -14.4028 -14.3025 -14.3025 -14.3024 -14.3024 -14.2294 -14.2293
    -6.5785  -6.5784  -6.5085  -6.5085  -6.5084  -6.5084  -6.0029  -6.0028
    -5.8472  -5.8471  -5.8293  -5.8293  -5.8292  -5.8292  -5.7942  -5.7941
    -5.6621  -5.6621  -5.6620  -5.6620  -5.6293  -5.6293  -5.6292  -5.6292
    -0.0375  -0.0375  -0.0374  -0.0374   0.1710   0.1712   0.4408   0.4409
     0.4409   0.4410   0.4493   0.4493   0.4494   0.4494   0.5279   0.5279
     0.5279   0.5279   0.5874   0.5875   0.6431   0.6431   0.6432   0.6432
     6.0717   6.0718   6.3200   6.3200   6.3201   6.3201   6.5883   6.5884
     6.9022   6.9022   6.9024   6.9024   7.1608   7.1610   7.1706   7.1706
     7.1707   7.1707   7.2011   7.2011   7.3852   7.3854   7.5557   7.5557
     7.5559   7.5559   7.8394   7.8394   7.8395   7.8395   7.8990   7.8990
     7.8991   7.8991   8.1297   8.1297   8.1298   8.1298   8.6159   8.6159
     8.6160   8.6160   8.8068   8.8070   8.9666   8.9666   8.9666   8.9666
     8.9877   8.9877   8.9878   8.9878   9.0886   9.0887   9.1954   9.1954
     9.1955   9.1955   9.7238   9.7238   9.7239   9.7239   9.7766   9.7766
     9.7767   9.7767   9.8782   9.8782   9.8783   9.8783  10.3723  10.3725
    12.3009  12.3010  13.3202  13.3202  13.3203  13.3203  13.3726  13.3726
    13.3727  13.3727  13.9598  13.9598  13.9598  13.9598  14.1036  14.1036
    14.1036  14.1036  14.2950  14.2950  14.2950  14.2950  14.4620  14.4621
    14.5034  14.5035  15.1506  15.1506  15.1506  15.1506  15.7135  15.7136
    16.3162  16.3164  16.4197  16.4199  16.5393  16.5395  17.0757  17.0757

          k = 0.0000 0.1667 0.0000 ( 34328 PWs)   bands (ev):

   -46.1088 -46.1079 -46.1079 -46.1077 -46.1070 -46.1069 -46.1068 -46.1060
   -22.4436 -22.4405 -22.4401 -22.4378 -22.3955 -22.3936 -22.3933 -22.3915
   -22.3893 -22.3863 -22.3862 -22.3860 -22.3839 -22.3829 -22.3826 -22.3803
   -22.3391 -22.3371 -22.3369 -22.3353 -22.3351 -22.3335 -22.3334 -22.3317
   -14.4500 -14.3452 -14.3411 -14.3318 -14.2728 -14.2647 -14.2629 -14.2036
    -6.7506  -6.7425  -6.6883  -6.5351  -6.2931  -6.1894  -6.1048  -5.8995
    -5.8945  -5.8904  -5.8466  -5.8355  -5.8070  -5.7718  -5.7472  -5.7464
    -5.7384  -5.7354  -5.7275  -5.6844  -5.6156  -5.5875  -5.5456  -5.5287
    -0.3117  -0.2987  -0.2440   0.2673   0.3119   0.3225   0.3263   0.3269
     0.3756   0.3857   0.3969   0.4013   0.5101   0.5203   0.5207   0.5371
     0.5413   0.5541   0.6528   0.7242   0.7272   0.7285   0.7372   0.7744
     5.9672   6.1025   6.1353   6.1537   6.3237   6.3412   6.3915   6.4209
     6.4223   6.5126   6.5590   6.5658   6.6377   6.6492   6.6645   7.5617
     7.5635   7.5736   7.5760   7.6225   7.6293   7.6348   7.6360   7.6629
     7.6894   7.7337   7.7666   7.8243   7.9155   7.9199   7.9202   7.9515
     7.9616   8.0397   8.0672   8.1436   8.1679   8.3251   8.4998   8.5258
     8.5280   8.5615   8.6528   8.6822   8.7454   8.7509   8.9398   8.9412
     8.9870   9.0564   9.1126   9.1921   9.3132   9.3384   9.3797   9.4023
     9.4640   9.5104   9.5161   9.5414   9.5469   9.5896   9.6187   9.8270
     9.9851  10.0591  10.1358  10.1742  10.1805  10.2400  10.2948  10.3301
    12.3751  12.5081  12.5578  12.6062  12.6547  12.7170  13.8476  13.8787
    13.8901  13.9124  13.9533  13.9860  14.0030  14.0076  14.0105  14.0203
    14.0215  14.0388  14.3118  14.3423  14.3812  14.5542  14.5562  14.5571
    14.5624  14.5958  14.6190  14.6872  14.7343  15.1138  15.2877  15.4805
    15.5218  15.6245  16.2243  16.3938  16.5741  16.9570  17.2102  17.3037

          k = 0.0000 0.1667 0.1649 ( 34320 PWs)   bands (ev):

   -46.1087 -46.1079 -46.1078 -46.1077 -46.1071 -46.1069 -46.1068 -46.1060
   -22.4404 -22.4374 -22.4370 -22.4347 -22.3987 -22.3967 -22.3964 -22.3946
   -22.3891 -22.3864 -22.3862 -22.3858 -22.3841 -22.3831 -22.3824 -22.3805
   -22.3390 -22.3373 -22.3368 -22.3352 -22.3352 -22.3336 -22.3334 -22.3318
   -14.4429 -14.3486 -14.3404 -14.3272 -14.2777 -14.2676 -14.2607 -14.2077
    -6.7187  -6.7093  -6.6680  -6.5302  -6.2604  -6.2383  -6.1752  -5.9032
    -5.8785  -5.8644  -5.8436  -5.8315  -5.8047  -5.7921  -5.7744  -5.7364
    -5.7247  -5.7212  -5.7185  -5.7116  -5.6190  -5.5973  -5.5602  -5.5422
    -0.2828  -0.2712  -0.1660   0.2609   0.2813   0.2954   0.3247   0.3361
     0.3688   0.3957   0.4187   0.4427   0.4729   0.4971   0.5036   0.5304
     0.5492   0.5925   0.6539   0.6551   0.6948   0.7137   0.7144   0.7540
     6.0159   6.1366   6.1584   6.2172   6.3802   6.4131   6.4294   6.4782
     6.4985   6.5300   6.6156   6.6217   6.6388   6.6791   6.6975   7.5500
     7.5632   7.5781   7.6043   7.6184   7.6202   7.6327   7.6632   7.6693
     7.7144   7.7188   7.7549   7.7851   7.8100   7.8647   7.8677   7.9143
     7.9278   7.9795   7.9909   8.0500   8.1111   8.3479   8.4659   8.5010
     8.5318   8.5781   8.5909   8.7777   8.8256   8.9127   8.9328   8.9625
     9.0147   9.0360   9.0812   9.1952   9.3020   9.3229   9.3589   9.3715
     9.4292   9.4576   9.4625   9.4636   9.4844   9.6184   9.6402   9.7238
     9.9583   9.9978  10.0964  10.1037  10.1390  10.1580  10.2975  10.3344
    12.3836  12.4988  12.6693  12.7041  12.7567  12.8156  13.8500  13.8737
    13.8970  13.8977  13.9185  13.9374  13.9528  13.9541  13.9579  14.0071
    14.0101  14.0549  14.2616  14.3363  14.3564  14.5054  14.5398  14.5556
    14.5926  14.6186  14.6876  14.8338  14.8780  15.2784  15.3262  15.5150
    15.6055  15.7529  16.3049  16.4590  16.4797  16.9800  17.2682  17.3290

          k = 0.0000 0.1667 0.3297 ( 34299 PWs)   bands (ev):

   -46.1086 -46.1081 -46.1077 -46.1075 -46.1072 -46.1071 -46.1066 -46.1062
   -22.4316 -22.4288 -22.4284 -22.4263 -22.4076 -22.4054 -22.4050 -22.4031
   -22.3885 -22.3870 -22.3857 -22.3852 -22.3845 -22.3836 -22.3820 -22.3809
   -22.3386 -22.3376 -22.3365 -22.3356 -22.3349 -22.3339 -22.3330 -22.3322
   -14.4233 -14.3688 -14.3273 -14.3148 -14.2911 -14.2803 -14.2496 -14.2190
    -6.6291  -6.6165  -6.6153  -6.5302  -6.3568  -6.3190  -6.1692  -5.9022
    -5.8978  -5.8548  -5.8381  -5.8297  -5.8227  -5.7983  -5.7868  -5.7746
    -5.7093  -5.6937  -5.6922  -5.6827  -5.6385  -5.6237  -5.5987  -5.5794
    -0.1945  -0.1592   0.0091   0.1268   0.1592   0.3362   0.3647   0.3743
     0.3842   0.4131   0.4232   0.4604   0.4630   0.4711   0.4797   0.5010
     0.5213   0.5826   0.6049   0.6296   0.6514   0.6574   0.6775   0.6963
     6.0940   6.1380   6.2535   6.3328   6.3521   6.4626   6.6254   6.6417
     6.6480   6.6499   6.7226   6.8130   6.8286   6.8850   6.9109   7.3051
     7.3484   7.4639   7.5228   7.5376   7.5567   7.5671   7.5893   7.5943
     7.6134   7.6859   7.6916   7.7733   7.7862   7.8959   7.9052   7.9111
     7.9216   7.9281   7.9949   8.0398   8.1119   8.1398   8.3402   8.4206
     8.6001   8.6197   8.7281   8.7375   8.7535   8.8718   8.8736   9.0337
     9.0382   9.1206   9.1234   9.1822   9.1918   9.3073   9.3353   9.3491
     9.3793   9.4145   9.4416   9.4791   9.4969   9.4982   9.6960   9.7015
     9.8859   9.8992   9.9033   9.9592   9.9955  10.0051  10.3053  10.3292
    12.4071  12.4736  12.9575  12.9660  13.0232  13.0722  13.6523  13.6720
    13.6949  13.7231  13.8565  13.8744  13.9323  13.9695  13.9974  14.0423
    14.0624  14.1412  14.1483  14.2292  14.3766  14.3957  14.4274  14.5072
    14.6102  14.6171  14.9477  15.1357  15.2406  15.2969  15.4786  15.8526
    15.9441  16.1196  16.2070  16.5695  16.6845  16.8688  16.8938  17.2879

          k = 0.0000 0.1667-0.4946 ( 34344 PWs)   bands (ev):

   -46.1083 -46.1083 -46.1074 -46.1074 -46.1073 -46.1073 -46.1064 -46.1064
   -22.4196 -22.4196 -22.4171 -22.4171 -22.4168 -22.4168 -22.4147 -22.4147
   -22.3878 -22.3878 -22.3851 -22.3851 -22.3844 -22.3844 -22.3815 -22.3814
   -22.3381 -22.3381 -22.3360 -22.3360 -22.3344 -22.3344 -22.3326 -22.3326
   -14.3963 -14.3962 -14.3094 -14.3093 -14.2977 -14.2976 -14.2344 -14.2343
    -6.5604  -6.5603  -6.4994  -6.4992  -6.4769  -6.4767  -6.0398  -6.0397
    -5.8556  -5.8555  -5.8392  -5.8391  -5.8181  -5.8181  -5.7892  -5.7890
    -5.6728  -5.6727  -5.6592  -5.6590  -5.6480  -5.6478  -5.6308  -5.6306
    -0.0434  -0.0434  -0.0026  -0.0025   0.2366   0.2366   0.3651   0.3651
     0.4088   0.4089   0.4202   0.4203   0.4616   0.4617   0.4868   0.4869
     0.5650   0.5651   0.6127   0.6128   0.6294   0.6294   0.6508   0.6509
     6.1306   6.1307   6.3134   6.3134   6.4115   6.4115   6.6455   6.6456
     6.9315   6.9316   6.9510   6.9511   7.1336   7.1337   7.1756   7.1758
     7.1784   7.1784   7.2169   7.2170   7.3583   7.3585   7.5742   7.5743
     7.6024   7.6025   7.8008   7.8009   7.8519   7.8519   7.8858   7.8858
     7.8972   7.8973   8.0469   8.0470   8.1296   8.1298   8.3592   8.3593
     8.5532   8.5533   8.7376   8.7376   8.9327   8.9327   8.9442   8.9444
     9.0159   9.0159   9.1575   9.1576   9.1784   9.1785   9.2448   9.2448
     9.2616   9.2617   9.6668   9.6668   9.7138   9.7138   9.7624   9.7625
     9.7899   9.7900   9.7907   9.7907   9.7997   9.7998  10.3171  10.3173
    12.4399  12.4399  13.3134  13.3135  13.3244  13.3245  13.3665  13.3666
    13.4035  13.4036  13.8651  13.8651  13.9837  13.9838  14.0152  14.0153
    14.1170  14.1171  14.2150  14.2151  14.2823  14.2824  14.4506  14.4506
    14.6148  14.6148  15.1439  15.1439  15.3690  15.3690  15.7886  15.7887
    16.4101  16.4103  16.4538  16.4540  16.6662  16.6664  17.0017  17.0018

          k = 0.0000 0.3333 0.0000 ( 34340 PWs)   bands (ev):

   -46.1086 -46.1081 -46.1077 -46.1076 -46.1072 -46.1070 -46.1067 -46.1061
   -22.4429 -22.4411 -22.4396 -22.4383 -22.3951 -22.3940 -22.3929 -22.3919
   -22.3887 -22.3870 -22.3857 -22.3844 -22.3761 -22.3733 -22.3730 -22.3708
   -22.3491 -22.3469 -22.3466 -22.3447 -22.3349 -22.3339 -22.3331 -22.3321
   -14.4283 -14.3678 -14.3269 -14.3178 -14.2874 -14.2791 -14.2505 -14.2163
    -6.6894  -6.6548  -6.5947  -6.5587  -6.3973  -6.3114  -6.0073  -5.8837
    -5.8639  -5.8540  -5.8476  -5.8128  -5.7850  -5.7819  -5.7595  -5.7572
    -5.7312  -5.7265  -5.7222  -5.7055  -5.6848  -5.6272  -5.6202  -5.5700
    -0.1944  -0.1567  -0.0957   0.1392   0.1928   0.3493   0.3589   0.4051
     0.4055   0.4166   0.4251   0.4646   0.4699   0.4708   0.4735   0.4889
     0.5039   0.5788   0.5875   0.6375   0.6673   0.6861   0.6864   0.6889
     6.0472   6.1009   6.2280   6.2386   6.2991   6.3558   6.5234   6.5603
     6.5655   6.6369   6.7490   6.8069   6.8503   6.9200   6.9291   7.2697
     7.4212   7.4816   7.5538   7.6072   7.6221   7.6249   7.6263   7.6414
     7.6435   7.6599   7.7430   7.7649   7.7726   7.8275   7.8329   7.8887
     7.9358   7.9854   8.0055   8.0607   8.1456   8.1651   8.2829   8.6027
     8.6844   8.7117   8.7169   8.7264   8.7350   8.8394   8.8581   8.8826
     8.8998   9.0623   9.1413   9.2209   9.2728   9.3686   9.3711   9.3904
     9.4031   9.4624   9.4834   9.5131   9.5305   9.6142   9.6146   9.6697
     9.8189   9.9323   9.9936  10.0055  10.1227  10.1571  10.1933  10.2310
    12.5626  12.6298  12.7534  12.8379  12.8390  12.9224  13.5753  13.5981
    13.6162  13.6266  13.9861  13.9904  14.0098  14.0142  14.0160  14.0172
    14.1149  14.1164  14.1869  14.2182  14.4204  14.4263  14.4287  14.5502
    14.5674  14.5728  14.9074  14.9306  15.1266  15.1751  15.2414  15.8629
    15.9962  16.0075  16.0515  16.7055  16.8324  16.9269  16.9566  17.1845

          k = 0.0000 0.3333 0.1649 ( 34356 PWs)   bands (ev):

   -46.1085 -46.1080 -46.1078 -46.1075 -46.1072 -46.1070 -46.1067 -46.1062
   -22.4397 -22.4380 -22.4365 -22.4352 -22.3983 -22.3972 -22.3961 -22.3950
   -22.3885 -22.3868 -22.3859 -22.3846 -22.3759 -22.3734 -22.3728 -22.3709
   -22.3489 -22.3470 -22.3465 -22.3448 -22.3348 -22.3338 -22.3332 -22.3322
   -14.4216 -14.3625 -14.3338 -14.3134 -14.2929 -14.2749 -14.2551 -14.2205
    -6.6615  -6.6215  -6.5798  -6.5463  -6.3643  -6.3287  -6.0850  -5.8893
    -5.8599  -5.8563  -5.8532  -5.8280  -5.8079  -5.7844  -5.7697  -5.7512
    -5.7416  -5.7221  -5.6958  -5.6942  -5.6802  -5.6387  -5.6243  -5.5785
    -0.1767  -0.1568   0.0028   0.1698   0.1801   0.2885   0.3511   0.3625
     0.3810   0.4031   0.4269   0.4479   0.4644   0.4661   0.4991   0.5155
     0.5175   0.5675   0.6012   0.6237   0.6520   0.6687   0.6732   0.6887
     6.1023   6.1569   6.2379   6.3114   6.3473   6.4004   6.5856   6.6169
     6.6232   6.7054   6.7719   6.7869   6.8533   6.9286   6.9567   7.3090
     7.3706   7.4763   7.5022   7.5927   7.6042   7.6289   7.6405   7.6511
     7.6769   7.6806   7.6837   7.7405   7.8121   7.8332   7.8569   7.8947
     7.9016   7.9239   7.9944   8.0196   8.0552   8.1064   8.1863   8.5372
     8.5651   8.5664   8.7451   8.7503   8.7618   8.7665   8.9306   8.9665
     9.0542   9.1224   9.1402   9.2193   9.2903   9.2979   9.3913   9.4064
     9.4147   9.4326   9.4463   9.5126   9.5170   9.5583   9.5606   9.6383
     9.7852   9.8810   9.9216   9.9919  10.0927  10.1453  10.1542  10.1955
    12.6549  12.7332  12.7767  12.8304  12.9021  13.0092  13.5788  13.6115
    13.6134  13.6796  13.9032  13.9216  13.9322  13.9972  14.0257  14.0364
    14.0447  14.1071  14.1229  14.2318  14.3606  14.3808  14.4130  14.5038
    14.6798  14.6945  14.9058  15.1100  15.2329  15.2571  15.3370  15.9703
    16.0514  16.0863  16.1228  16.7351  16.7364  16.9898  17.0161  17.5305

          k = 0.0000 0.3333 0.3297 ( 34320 PWs)   bands (ev):

   -46.1084 -46.1079 -46.1078 -46.1074 -46.1073 -46.1069 -46.1068 -46.1064
   -22.4310 -22.4294 -22.4280 -22.4267 -22.4071 -22.4058 -22.4047 -22.4036
   -22.3880 -22.3865 -22.3863 -22.3851 -22.3754 -22.3740 -22.3724 -22.3713
   -22.3485 -22.3474 -22.3461 -22.3452 -22.3345 -22.3335 -22.3334 -22.3325
   -14.4034 -14.3527 -14.3480 -14.3078 -14.3012 -14.2675 -14.2636 -14.2321
    -6.5854  -6.5455  -6.5274  -6.5228  -6.3872  -6.2715  -6.2311  -5.9889
    -5.8953  -5.8707  -5.8544  -5.8205  -5.7963  -5.7945  -5.7798  -5.7576
    -5.7294  -5.7077  -5.6860  -5.6698  -5.6680  -5.6658  -5.6357  -5.6020
    -0.1327  -0.0522   0.1439   0.1776   0.1785   0.2471   0.2554   0.2994
     0.3495   0.3656   0.4112   0.4146   0.4557   0.5044   0.5367   0.5439
     0.5471   0.5476   0.5577   0.5862   0.6386   0.6448   0.6562   0.6780
     6.1885   6.2356   6.2476   6.3265   6.4989   6.6776   6.7328   6.7665
     6.8120   6.8354   6.8501   6.8608   6.8879   6.9685   7.1013   7.2004
     7.3506   7.4011   7.4093   7.4184   7.4421   7.5693   7.5753   7.6068
     7.7017   7.7061   7.7281   7.7330   7.7790   7.7935   7.8489   7.8983
     7.9062   7.9340   7.9417   7.9438   7.9575   8.1958   8.2176   8.2574
     8.3061   8.3655   8.5418   8.5893   8.8252   8.8289   8.9701   9.0194
     9.1572   9.1932   9.2638   9.2871   9.2953   9.3058   9.3645   9.3682
     9.3970   9.4269   9.4308   9.4841   9.4978   9.5659   9.6238   9.6437
     9.6974   9.7394   9.8208   9.9362   9.9456   9.9945  10.1490  10.1591
    12.7480  12.8100  12.9845  13.0026  13.0885  13.2356  13.5875  13.5889
    13.6712  13.6721  13.6785  13.7093  13.8199  13.8218  13.9661  14.0235
    14.0687  14.0855  14.1260  14.2069  14.2694  14.2716  14.3653  14.3948
    14.8216  14.8988  14.9406  15.1996  15.5142  15.5722  15.8630  16.0180
    16.2593  16.3498  16.4591  16.4886  16.8524  16.9390  17.1057  17.2197

          k = 0.0000 0.3333-0.4946 ( 34320 PWs)   bands (ev):

   -46.1081 -46.1081 -46.1076 -46.1076 -46.1071 -46.1071 -46.1066 -46.1066
   -22.4191 -22.4191 -22.4177 -22.4177 -22.4164 -22.4163 -22.4152 -22.4152
   -22.3872 -22.3872 -22.3857 -22.3857 -22.3747 -22.3747 -22.3719 -22.3719
   -22.3480 -22.3480 -22.3457 -22.3457 -22.3340 -22.3340 -22.3330 -22.3330
   -14.3782 -14.3781 -14.3280 -14.3280 -14.2845 -14.2844 -14.2480 -14.2479
    -6.5188  -6.5187  -6.4829  -6.4828  -6.3891  -6.3889  -6.1375  -6.1374
    -5.8747  -5.8746  -5.8633  -5.8632  -5.7875  -5.7874  -5.7701  -5.7700
    -5.7030  -5.7029  -5.6914  -5.6912  -5.6517  -5.6515  -5.6353  -5.6352
    -0.0151  -0.0150   0.0948   0.0949   0.2171   0.2172   0.3710   0.3711
     0.3736   0.3737   0.3771   0.3772   0.3780   0.3780   0.4957   0.4957
     0.5925   0.5925   0.6162   0.6162   0.6166   0.6166   0.6440   0.6440
     6.2261   6.2262   6.2977   6.2978   6.6466   6.6467   6.8671   6.8672
     6.9978   6.9979   7.0529   7.0530   7.0641   7.0642   7.1264   7.1265
     7.1912   7.1914   7.3077   7.3079   7.3917   7.3918   7.5428   7.5429
     7.5439   7.5440   7.7200   7.7201   7.8717   7.8717   7.8852   7.8853
     7.9355   7.9355   7.9890   7.9890   8.0300   8.0301   8.1463   8.1464
     8.3580   8.3580   8.3957   8.3958   8.8646   8.8647   8.9653   8.9653
     9.1535   9.1535   9.2686   9.2686   9.3058   9.3058   9.3102   9.3102
     9.5039   9.5040   9.5282   9.5282   9.5862   9.5863   9.6966   9.6966
     9.7322   9.7322   9.7519   9.7519   9.8102   9.8102  10.1482  10.1484
    12.7817  12.7817  13.3376  13.3377  13.3456  13.3457  13.3690  13.3691
    13.5313  13.5314  13.6061  13.6061  13.7945  13.7945  14.0101  14.0102
    14.0551  14.0552  14.1540  14.1541  14.2458  14.2458  14.3229  14.3229
    14.8785  14.8785  15.1160  15.1160  15.8639  15.8640  16.0382  16.0383
    16.4802  16.4804  16.6650  16.6652  16.7777  16.7778  17.0359  17.0361

          k = 0.0000-0.5000 0.0000 ( 34320 PWs)   bands (ev):

   -46.1083 -46.1083 -46.1074 -46.1074 -46.1073 -46.1073 -46.1064 -46.1064
   -22.4420 -22.4420 -22.4389 -22.4389 -22.3945 -22.3945 -22.3924 -22.3924
   -22.3878 -22.3878 -22.3851 -22.3851 -22.3626 -22.3626 -22.3601 -22.3601
   -22.3598 -22.3598 -22.3578 -22.3578 -22.3344 -22.3344 -22.3326 -22.3326
   -14.3982 -14.3982 -14.3073 -14.3072 -14.2985 -14.2985 -14.2334 -14.2334
    -6.6150  -6.6150  -6.5300  -6.5299  -6.4594  -6.4593  -5.8718  -5.8718
    -5.8661  -5.8661  -5.8193  -5.8193  -5.7886  -5.7886  -5.7840  -5.7840
    -5.7377  -5.7377  -5.7212  -5.7212  -5.6636  -5.6636  -5.6271  -5.6271
    -0.0303  -0.0303   0.0190   0.0190   0.1474   0.1474   0.4061   0.4061
     0.4086   0.4086   0.4464   0.4464   0.4597   0.4597   0.5184   0.5184
     0.5710   0.5710   0.5770   0.5770   0.6316   0.6316   0.6361   0.6361
     6.0889   6.0889   6.2686   6.2686   6.3083   6.3083   6.5628   6.5628
     6.8544   6.8544   6.9781   6.9781   7.1654   7.1654   7.1980   7.1980
     7.2190   7.2190   7.2918   7.2918   7.3720   7.3720   7.6192   7.6193
     7.6583   7.6583   7.8509   7.8509   7.8884   7.8884   7.8900   7.8900
     7.8969   7.8969   7.9557   7.9557   8.0078   8.0078   8.4777   8.4777
     8.6935   8.6935   8.7789   8.7789   8.8768   8.8768   8.9128   8.9128
     8.9719   8.9719   9.1282   9.1282   9.1559   9.1559   9.2965   9.2965
     9.3122   9.3122   9.6380   9.6380   9.7624   9.7624   9.7642   9.7642
     9.7835   9.7836   9.8783   9.8784   9.9047   9.9047  10.2114  10.2114
    12.5971  12.5971  13.1825  13.1825  13.2110  13.2111  13.2423  13.2423
    13.2608  13.2608  14.0078  14.0078  14.0133  14.0133  14.0613  14.0613
    14.0882  14.0882  14.2564  14.2564  14.2651  14.2651  14.4881  14.4881
    14.5729  14.5729  15.0821  15.0821  15.1272  15.1272  15.6447  15.6447
    16.3974  16.3975  16.5415  16.5415  16.6277  16.6277  17.1783  17.1784

          k = 0.0000-0.5000 0.1649 ( 34334 PWs)   bands (ev):

   -46.1083 -46.1083 -46.1075 -46.1075 -46.1072 -46.1072 -46.1065 -46.1065
   -22.4389 -22.4389 -22.4358 -22.4358 -22.3977 -22.3977 -22.3955 -22.3955
   -22.3876 -22.3876 -22.3853 -22.3853 -22.3625 -22.3625 -22.3603 -22.3603
   -22.3597 -22.3597 -22.3579 -22.3579 -22.3343 -22.3343 -22.3327 -22.3327
   -14.3923 -14.3922 -14.3135 -14.3135 -14.2942 -14.2942 -14.2379 -14.2379
    -6.5939  -6.5939  -6.4967  -6.4967  -6.4558  -6.4557  -5.9645  -5.9645
    -5.8691  -5.8691  -5.8142  -5.8142  -5.7776  -5.7776  -5.7704  -5.7704
    -5.7325  -5.7325  -5.7269  -5.7269  -5.6605  -5.6605  -5.6289  -5.6289
    -0.0067  -0.0067   0.0037   0.0038   0.2286   0.2286   0.3373   0.3373
     0.3923   0.3924   0.4176   0.4176   0.4706   0.4706   0.4787   0.4788
     0.5963   0.5963   0.5987   0.5987   0.6195   0.6195   0.6431   0.6432
     6.1454   6.1454   6.3037   6.3037   6.3635   6.3635   6.6199   6.6199
     6.9078   6.9078   6.9936   6.9936   7.1478   7.1478   7.1871   7.1871
     7.2033   7.2034   7.3251   7.3251   7.3534   7.3534   7.6223   7.6223
     7.6943   7.6943   7.7894   7.7894   7.8850   7.8850   7.8899   7.8899
     7.9001   7.9001   7.9569   7.9569   7.9777   7.9777   8.3008   8.3008
     8.6230   8.6230   8.6478   8.6478   8.9331   8.9331   8.9721   8.9721
     9.0581   9.0581   9.1561   9.1561   9.1825   9.1825   9.2841   9.2842
     9.3183   9.3183   9.5954   9.5955   9.7202   9.7202   9.7211   9.7211
     9.7806   9.7806   9.8667   9.8667   9.8947   9.8947  10.1584  10.1584
    12.7016  12.7016  13.1888  13.1888  13.2365  13.2365  13.2432  13.2432
    13.3301  13.3302  13.9266  13.9266  13.9829  13.9829  14.0294  14.0294
    14.1003  14.1003  14.1857  14.1857  14.2525  14.2525  14.4420  14.4420
    14.6948  14.6948  15.1217  15.1217  15.2847  15.2847  15.7211  15.7211
    16.4771  16.4771  16.6463  16.6463  16.6726  16.6727  17.1316  17.1316

          k = 0.0000-0.5000 0.3297 ( 34316 PWs)   bands (ev):

   -46.1081 -46.1081 -46.1077 -46.1077 -46.1071 -46.1071 -46.1066 -46.1066
   -22.4302 -22.4302 -22.4274 -22.4274 -22.4065 -22.4065 -22.4041 -22.4041
   -22.3871 -22.3871 -22.3858 -22.3858 -22.3620 -22.3620 -22.3607 -22.3607
   -22.3593 -22.3593 -22.3583 -22.3583 -22.3339 -22.3339 -22.3330 -22.3330
   -14.3759 -14.3758 -14.3304 -14.3304 -14.2825 -14.2824 -14.2499 -14.2499
    -6.5410  -6.5410  -6.4567  -6.4567  -6.4029  -6.4029  -6.1100  -6.1100
    -5.8779  -5.8779  -5.8578  -5.8578  -5.7615  -5.7615  -5.7431  -5.7431
    -5.7356  -5.7356  -5.7320  -5.7320  -5.6524  -5.6524  -5.6342  -5.6342
     0.0018   0.0018   0.0987   0.0987   0.2019   0.2019   0.3670   0.3670
     0.3727   0.3727   0.3740   0.3740   0.3774   0.3774   0.5010   0.5010
     0.5869   0.5869   0.6120   0.6120   0.6294   0.6294   0.6352   0.6352
     6.2333   6.2333   6.2925   6.2925   6.6124   6.6124   6.8436   6.8437
     7.0278   7.0278   7.0468   7.0468   7.0900   7.0900   7.1079   7.1079
     7.2168   7.2169   7.3164   7.3164   7.4491   7.4491   7.5337   7.5337
     7.5520   7.5520   7.7729   7.7729   7.8687   7.8687   7.8962   7.8962
     7.8990   7.8990   7.9850   7.9850   8.0056   8.0057   8.0609   8.0609
     8.3435   8.3435   8.4439   8.4439   8.8730   8.8730   8.9695   8.9695
     9.2328   9.2328   9.2360   9.2360   9.2863   9.2863   9.3409   9.3409
     9.3722   9.3722   9.4875   9.4875   9.5616   9.5616   9.7396   9.7396
     9.8068   9.8068   9.8376   9.8377   9.8741   9.8741  10.0034  10.0034
    12.9672  12.9672  13.2126  13.2127  13.2194  13.2194  13.3515  13.3515
    13.5126  13.5126  13.6890  13.6890  13.7827  13.7827  13.9999  13.9999
    14.0915  14.0915  14.1352  14.1352  14.2179  14.2180  14.3301  14.3301
    14.9113  14.9113  15.0997  15.0998  15.7807  15.7807  15.9898  15.9898
    16.6102  16.6102  16.6989  16.6990  16.8449  16.8449  17.0461  17.0461

          k = 0.0000-0.5000-0.4946 ( 34332 PWs)   bands (ev):

   -46.1079 -46.1079 -46.1079 -46.1079 -46.1069 -46.1069 -46.1069 -46.1069
   -22.4184 -22.4184 -22.4184 -22.4184 -22.4158 -22.4158 -22.4158 -22.4158
   -22.3865 -22.3865 -22.3864 -22.3864 -22.3614 -22.3614 -22.3613 -22.3613
   -22.3588 -22.3588 -22.3588 -22.3588 -22.3335 -22.3335 -22.3335 -22.3335
   -14.3533 -14.3533 -14.3532 -14.3532 -14.2663 -14.2663 -14.2662 -14.2662
    -6.4852  -6.4852  -6.4851  -6.4851  -6.2657  -6.2657  -6.2655  -6.2655
    -5.8814  -5.8814  -5.8813  -5.8813  -5.7453  -5.7453  -5.7452  -5.7452
    -5.7363  -5.7363  -5.7362  -5.7361  -5.6428  -5.6428  -5.6426  -5.6426
     0.0765   0.0765   0.0765   0.0765   0.2329   0.2329   0.2329   0.2330
     0.3588   0.3588   0.3588   0.3588   0.5152   0.5152   0.5152   0.5152
     0.5433   0.5433   0.5434   0.5434   0.6467   0.6467   0.6467   0.6467
     6.2748   6.2748   6.2749   6.2749   6.9008   6.9008   6.9009   6.9009
     7.0658   7.0658   7.0659   7.0659   7.1748   7.1748   7.1749   7.1749
     7.2488   7.2489   7.2489   7.2490   7.3244   7.3245   7.3246   7.3246
     7.6962   7.6962   7.6963   7.6963   7.8351   7.8351   7.8352   7.8352
     7.8875   7.8875   7.8875   7.8876   8.1158   8.1158   8.1158   8.1158
     8.2298   8.2298   8.2299   8.2299   8.8740   8.8740   8.8740   8.8740
     9.3150   9.3150   9.3150   9.3150   9.3551   9.3551   9.3551   9.3552
     9.3881   9.3881   9.3881   9.3881   9.6945   9.6945   9.6945   9.6946
     9.7974   9.7974   9.7974   9.7974   9.8715   9.8715   9.8717   9.8717
    13.1821  13.1821  13.1822  13.1822  13.3701  13.3701  13.3702  13.3702
    13.5444  13.5444  13.5444  13.5445  13.7552  13.7552  13.7553  13.7553
    14.1672  14.1672  14.1672  14.1673  14.2079  14.2079  14.2079  14.2079
    15.0431  15.0431  15.0431  15.0431  16.3162  16.3162  16.3163  16.3163
    16.4218  16.4218  16.4219  16.4219  17.0228  17.0229  17.2786  17.2814

          k = 0.1667 0.1667 0.0000 ( 34401 PWs)   bands (ev):

   -46.1087 -46.1078 -46.1078 -46.1078 -46.1069 -46.1069 -46.1069 -46.1060
   -22.4433 -22.4403 -22.4403 -22.4380 -22.3953 -22.3934 -22.3934 -22.3917
   -22.3857 -22.3857 -22.3829 -22.3827 -22.3827 -22.3827 -22.3805 -22.3804
   -22.3391 -22.3389 -22.3371 -22.3371 -22.3371 -22.3370 -22.3352 -22.3352
   -14.4423 -14.3399 -14.3399 -14.3360 -14.2702 -14.2682 -14.2682 -14.2083
    -6.7208  -6.7208  -6.6549  -6.5363  -6.3236  -6.1547  -6.1547  -5.8932
    -5.8811  -5.8811  -5.8380  -5.8380  -5.8062  -5.7653  -5.7575  -5.7482
    -5.7277  -5.7277  -5.7220  -5.6981  -5.6648  -5.5899  -5.5602  -5.5602
    -0.3021  -0.2287  -0.1845   0.2733   0.2733   0.3043   0.3498   0.3499
     0.3703   0.3712   0.3865   0.4488   0.4601   0.5056   0.5056   0.5400
     0.5400   0.5793   0.6528   0.6528   0.7103   0.7145   0.7145   0.7414
     6.0180   6.1542   6.1542   6.1983   6.3151   6.4406   6.4406   6.4961
     6.4961   6.5021   6.6048   6.6597   6.6597   6.6830   6.6948   7.5241
     7.5957   7.5957   7.6030   7.6030   7.6304   7.6600   7.6682   7.6682
     7.7134   7.7341   7.7591   7.7591   7.7980   7.8803   7.9131   7.9524
     7.9999   7.9999   8.0138   8.0244   8.1096   8.2035   8.2035   8.5558
     8.5558   8.6799   8.7070   8.7070   8.8255   8.8654   8.9133   8.9938
     8.9951   8.9951   9.2053   9.2211   9.2367   9.2367   9.3547   9.4165
     9.4471   9.4471   9.5071   9.5071   9.5779   9.5779   9.5825   9.6173
    10.0016  10.0271  10.1384  10.1384  10.1417  10.1987  10.2563  10.2584
    12.4816  12.6032  12.6253  12.6386  12.7078  12.7078  13.8558  13.8558
    13.8807  13.8940  13.8941  13.9176  13.9176  13.9409  13.9799  14.0038
    14.0360  14.0360  14.2857  14.3284  14.3284  14.5033  14.5389  14.5446
    14.6956  14.6956  14.7095  14.7829  14.7904  15.1265  15.5126  15.5126
    15.6175  15.7497  16.3209  16.3209  16.6429  17.0646  17.2365  17.4001

          k = 0.1667 0.1667 0.1649 ( 34347 PWs)   bands (ev):

   -46.1087 -46.1079 -46.1077 -46.1077 -46.1070 -46.1070 -46.1069 -46.1061
   -22.4401 -22.4372 -22.4372 -22.4349 -22.3986 -22.3966 -22.3966 -22.3948
   -22.3855 -22.3855 -22.3829 -22.3829 -22.3827 -22.3826 -22.3807 -22.3806
   -22.3389 -22.3387 -22.3372 -22.3371 -22.3369 -22.3369 -22.3354 -22.3354
   -14.4353 -14.3433 -14.3352 -14.3352 -14.2731 -14.2731 -14.2661 -14.2125
    -6.6889  -6.6889  -6.6362  -6.5289  -6.2908  -6.2051  -6.2051  -5.8983
    -5.8678  -5.8678  -5.8347  -5.8347  -5.8114  -5.8035  -5.7681  -5.7382
    -5.7249  -5.7159  -5.7159  -5.7151  -5.6551  -5.6011  -5.5730  -5.5730
    -0.2633  -0.2315  -0.0924   0.2615   0.2897   0.2897   0.3118   0.3570
     0.3571   0.3757   0.3762   0.4540   0.4656   0.4656   0.4930   0.5522
     0.5560   0.5560   0.6563   0.6580   0.6580   0.7023   0.7023   0.7368
     6.0730   6.2004   6.2180   6.2180   6.4190   6.4829   6.4829   6.4982
     6.4982   6.5946   6.6674   6.6836   6.6939   6.7079   6.7079   7.5422
     7.5553   7.5553   7.6058   7.6058   7.6503   7.6503   7.6608   7.6815
     7.6829   7.7383   7.7945   7.8029   7.8029   7.8328   7.8328   7.8800
     7.9085   7.9274   7.9673   7.9970   8.1378   8.1426   8.1427   8.4972
     8.5826   8.5826   8.7608   8.7839   8.8994   8.9332   8.9332   8.9654
     8.9654   8.9918   9.2244   9.2244   9.2395   9.2639   9.3573   9.3573
     9.3961   9.4622   9.4953   9.4953   9.5112   9.5112   9.5464   9.6062
     9.9485   9.9676  10.0679  10.1034  10.1034  10.1130  10.2592  10.2729
    12.4962  12.6163  12.7038  12.7288  12.8067  12.8067  13.8611  13.8611
    13.8906  13.9036  13.9036  13.9089  13.9089  13.9152  13.9232  13.9558
    13.9559  13.9755  14.2782  14.2782  14.2999  14.4775  14.4885  14.5035
    14.7834  14.7890  14.8408  14.8408  14.8948  15.3381  15.5053  15.5053
    15.7357  15.8748  16.3852  16.3852  16.5473  17.0714  17.3434  17.3680

          k = 0.1667 0.1667 0.3297 ( 34344 PWs)   bands (ev):

   -46.1085 -46.1080 -46.1076 -46.1076 -46.1072 -46.1072 -46.1067 -46.1063
   -22.4314 -22.4287 -22.4287 -22.4265 -22.4074 -22.4052 -22.4052 -22.4033
   -22.3850 -22.3850 -22.3835 -22.3834 -22.3823 -22.3821 -22.3811 -22.3810
   -22.3386 -22.3384 -22.3376 -22.3374 -22.3366 -22.3366 -22.3357 -22.3357
   -14.4162 -14.3630 -14.3222 -14.3222 -14.2864 -14.2864 -14.2549 -14.2239
    -6.5990  -6.5990  -6.5895  -6.5215  -6.3253  -6.3253  -6.1995  -5.9288
    -5.8973  -5.8433  -5.8433  -5.8283  -5.8283  -5.7961  -5.7912  -5.7756
    -5.7104  -5.6968  -5.6880  -5.6880  -5.6563  -5.6313  -5.6069  -5.6069
    -0.1594  -0.1562   0.0862   0.1463   0.1622   0.3225   0.3226   0.3858
     0.3925   0.3949   0.3949   0.4079   0.4079   0.4374   0.4914   0.5077
     0.5358   0.5358   0.5734   0.6685   0.6685   0.6842   0.6842   0.7105
     6.1608   6.2037   6.3302   6.3302   6.4494   6.4494   6.6800   6.6800
     6.6853   6.6914   6.7057   6.8405   6.8930   6.8930   6.9082   7.3105
     7.3105   7.4885   7.5081   7.5350   7.5350   7.6123   7.6123   7.6146
     7.6470   7.6470   7.6839   7.7440   7.7959   7.8638   7.8910   7.9057
     7.9183   7.9183   7.9435   8.0853   8.0895   8.1334   8.1334   8.2199
     8.5573   8.5884   8.6496   8.6496   8.8221   8.8221   8.9935   9.0155
     9.1100   9.1100   9.2198   9.2201   9.2201   9.3105   9.3105   9.3331
     9.3995   9.4396   9.4396   9.4825   9.4825   9.5196   9.5722   9.6737
     9.8230   9.8716   9.8805   9.9301   9.9878   9.9879  10.2624  10.2754
    12.5240  12.5916  12.9759  12.9767  13.0639  13.0639  13.6466  13.6716
    13.7154  13.7154  13.8740  13.8740  13.9067  13.9067  13.9430  13.9431
    14.0366  14.0719  14.1575  14.1575  14.3392  14.3566  14.3631  14.4514
    14.7844  14.7868  15.1384  15.1384  15.3390  15.4696  15.4696  15.8659
    16.0578  16.2337  16.2702  16.6094  16.6094  16.9294  16.9737  17.4580

          k = 0.1667 0.1667-0.4946 ( 34312 PWs)   bands (ev):

   -46.1083 -46.1083 -46.1074 -46.1074 -46.1074 -46.1074 -46.1065 -46.1065
   -22.4194 -22.4194 -22.4170 -22.4170 -22.4170 -22.4170 -22.4149 -22.4149
   -22.3842 -22.3842 -22.3842 -22.3842 -22.3817 -22.3817 -22.3816 -22.3816
   -22.3381 -22.3381 -22.3379 -22.3379 -22.3362 -22.3362 -22.3361 -22.3361
   -14.3898 -14.3897 -14.3045 -14.3044 -14.3044 -14.3043 -14.2395 -14.2394
    -6.5417  -6.5416  -6.4687  -6.4687  -6.4686  -6.4686  -6.0692  -6.0691
    -5.8610  -5.8609  -5.8283  -5.8283  -5.8282  -5.8282  -5.7859  -5.7858
    -5.6739  -5.6738  -5.6716  -5.6714  -5.6499  -5.6499  -5.6498  -5.6497
    -0.0149  -0.0149  -0.0070  -0.0069   0.3015   0.3015   0.3585   0.3586
     0.3586   0.3586   0.4148   0.4149   0.4284   0.4285   0.4679   0.4679
     0.4680   0.4680   0.6529   0.6530   0.6766   0.6766   0.6767   0.6767
     6.1985   6.1986   6.4025   6.4025   6.4026   6.4026   6.6881   6.6882
     6.9642   6.9642   6.9643   6.9643   7.1041   7.1042   7.1463   7.1463
     7.2247   7.2247   7.2248   7.2248   7.3753   7.3754   7.6224   7.6224
     7.6225   7.6225   7.7359   7.7360   7.8520   7.8521   7.8535   7.8535
     7.9108   7.9109   8.0533   8.0533   8.0534   8.0534   8.3456   8.3457
     8.3580   8.3581   8.7226   8.7227   8.7227   8.7227   9.1185   9.1186
     9.1202   9.1202   9.1474   9.1474   9.1474   9.1475   9.3230   9.3231
     9.3231   9.3231   9.6208   9.6208   9.7012   9.7012   9.7115   9.7116
     9.7724   9.7725   9.7735   9.7735   9.7736   9.7736  10.2687  10.2689
    12.5580  12.5581  13.3123  13.3124  13.3313  13.3314  13.3960  13.3960
    13.3961  13.3961  13.8903  13.8903  13.8903  13.8903  14.0300  14.0300
    14.0301  14.0301  14.1927  14.1928  14.2109  14.2110  14.3941  14.3941
    14.7854  14.7854  15.3646  15.3646  15.3646  15.3646  15.8437  15.8438
    16.4796  16.4798  16.5046  16.5048  16.7725  16.7726  17.0091  17.0091

          k = 0.1667 0.3333 0.0000 ( 34360 PWs)   bands (ev):

   -46.1085 -46.1080 -46.1076 -46.1076 -46.1071 -46.1071 -46.1068 -46.1062
   -22.4427 -22.4410 -22.4398 -22.4385 -22.3949 -22.3938 -22.3931 -22.3921
   -22.3851 -22.3834 -22.3822 -22.3809 -22.3759 -22.3732 -22.3731 -22.3710
   -22.3489 -22.3468 -22.3467 -22.3449 -22.3386 -22.3375 -22.3366 -22.3356
   -14.4210 -14.3619 -14.3254 -14.3218 -14.2851 -14.2827 -14.2557 -14.2211
    -6.6647  -6.6386  -6.5611  -6.5521  -6.4083  -6.2771  -6.0581  -5.8749
    -5.8553  -5.8452  -5.8427  -5.8151  -5.7913  -5.7904  -5.7708  -5.7601
    -5.7499  -5.7349  -5.7215  -5.6982  -5.6973  -5.6404  -5.6163  -5.5996
    -0.2076  -0.1055  -0.0134   0.1328   0.2240   0.2945   0.3267   0.3818
     0.3937   0.4166   0.4267   0.4468   0.4530   0.4612   0.4666   0.5043
     0.5244   0.5716   0.6151   0.6502   0.6507   0.6536   0.6721   0.6733
     6.1008   6.1527   6.2320   6.2949   6.3167   6.4553   6.5772   6.5960
     6.6264   6.7222   6.7842   6.7937   6.8739   6.9254   6.9298   7.2323
     7.4294   7.4911   7.5643   7.5866   7.5896   7.6314   7.6328   7.6613
     7.6647   7.6681   7.6828   7.7670   7.7963   7.8093   7.8440   7.8936
     7.9280   7.9515   7.9775   8.0452   8.1450   8.1750   8.1987   8.3062
     8.6103   8.6640   8.7033   8.7122   8.7338   8.7904   8.9518   8.9632
     8.9923   9.1202   9.1318   9.1540   9.2841   9.2920   9.3034   9.3928
     9.4181   9.4305   9.4420   9.4576   9.5748   9.5951   9.6266   9.6645
     9.8735   9.9224   9.9825  10.0027  10.0545  10.1387  10.1465  10.1790
    12.6088  12.6829  12.8165  12.8601  12.9139  12.9262  13.5846  13.6080
    13.6163  13.6629  13.8854  13.9145  13.9147  13.9880  14.0171  14.0272
    14.0273  14.1104  14.1494  14.2037  14.3612  14.3733  14.4074  14.4965
    14.7096  14.7231  14.9400  15.1005  15.1359  15.2430  15.4683  15.9994
    16.0492  16.0976  16.0993  16.6276  16.8668  17.0161  17.0540  17.2937

          k = 0.1667 0.3333 0.1649 ( 34352 PWs)   bands (ev):

   -46.1085 -46.1079 -46.1077 -46.1076 -46.1072 -46.1070 -46.1068 -46.1063
   -22.4395 -22.4378 -22.4367 -22.4354 -22.3982 -22.3970 -22.3962 -22.3952
   -22.3849 -22.3833 -22.3824 -22.3811 -22.3757 -22.3733 -22.3730 -22.3711
   -22.3488 -22.3469 -22.3467 -22.3450 -22.3384 -22.3373 -22.3368 -22.3357
   -14.4145 -14.3567 -14.3286 -14.3208 -14.2881 -14.2809 -14.2604 -14.2255
    -6.6365  -6.6064  -6.5476  -6.5381  -6.3756  -6.2955  -6.1138  -5.8816
    -5.8768  -5.8535  -5.8441  -5.8372  -5.8108  -5.7886  -5.7670  -5.7518
    -5.7455  -5.7259  -5.7147  -5.6942  -5.6916  -5.6505  -5.6239  -5.6077
    -0.1756  -0.1204   0.0799   0.1592   0.2076   0.2830   0.2998   0.3792
     0.3796   0.3904   0.3952   0.3970   0.4240   0.4456   0.4865   0.5056
     0.5324   0.5515   0.5730   0.6618   0.6648   0.6802   0.6920   0.6996
     6.1659   6.2178   6.3139   6.3159   6.3938   6.4445   6.6275   6.6350
     6.6699   6.7639   6.7729   6.8259   6.8798   6.9237   6.9663   7.2623
     7.3644   7.4660   7.5322   7.5621   7.6114   7.6169   7.6247   7.6772
     7.6792   7.6818   7.6962   7.7349   7.8275   7.8360   7.8476   7.8733
     7.8953   7.9323   7.9339   8.0460   8.0697   8.0720   8.1716   8.2354
     8.5298   8.5550   8.6324   8.6978   8.7091   8.8933   8.9306   9.0376
     9.0521   9.1620   9.1664   9.2056   9.2182   9.2512   9.3437   9.3992
     9.4135   9.4189   9.4616   9.4953   9.5002   9.5715   9.5971   9.6418
     9.8288   9.8681   9.9122   9.9859  10.0329  10.1049  10.1341  10.1527
    12.6990  12.7823  12.8404  12.9179  12.9192  13.0002  13.5928  13.6237
    13.6561  13.6688  13.8993  13.8996  13.9268  13.9310  13.9432  13.9460
    14.0078  14.0414  14.1403  14.1635  14.3231  14.3346  14.3577  14.4466
    14.8532  14.8642  15.1012  15.1190  15.2913  15.3456  15.4616  16.0473
    16.0985  16.1587  16.2194  16.6555  16.7689  17.0795  17.0906  17.4662

          k = 0.1667 0.3333 0.3297 ( 34343 PWs)   bands (ev):

   -46.1083 -46.1078 -46.1078 -46.1074 -46.1073 -46.1070 -46.1069 -46.1065
   -22.4308 -22.4292 -22.4282 -22.4269 -22.4069 -22.4057 -22.4048 -22.4037
   -22.3844 -22.3829 -22.3828 -22.3816 -22.3752 -22.3738 -22.3726 -22.3715
   -22.3484 -22.3473 -22.3463 -22.3453 -22.3381 -22.3371 -22.3370 -22.3361
   -14.3967 -14.3471 -14.3424 -14.3082 -14.3028 -14.2733 -14.2693 -14.2373
    -6.5593  -6.5176  -6.5158  -6.5096  -6.3567  -6.2840  -6.2388  -6.0068
    -5.8906  -5.8621  -5.8448  -5.8219  -5.8105  -5.8016  -5.7817  -5.7570
    -5.7305  -5.7050  -5.7048  -5.6853  -5.6766  -5.6737  -5.6448  -5.6291
    -0.1033  -0.0574   0.1612   0.1957   0.2326   0.2358   0.2526   0.3041
     0.3149   0.3613   0.3803   0.3911   0.4019   0.4274   0.4478   0.4660
     0.4775   0.5866   0.5917   0.6499   0.6942   0.6970   0.7156   0.7253
     6.2699   6.3151   6.3255   6.4181   6.4898   6.6617   6.7093   6.7900
     6.7917   6.8280   6.8548   6.9509   6.9512   6.9570   7.1046   7.1945
     7.3386   7.3569   7.3726   7.3766   7.5333   7.6068   7.6071   7.6405
     7.6538   7.6858   7.6964   7.7152   7.8271   7.8583   7.8631   7.8797
     7.8967   7.8988   7.9128   7.9336   7.9586   8.1458   8.1883   8.2002
     8.2379   8.3154   8.4720   8.5147   8.7031   8.7748   8.8885   9.0547
     9.1625   9.2165   9.2302   9.3057   9.3063   9.3148   9.3819   9.3878
     9.4014   9.4670   9.4800   9.4852   9.5437   9.6050   9.6066   9.6142
     9.7146   9.7428   9.7993   9.9063   9.9226   9.9719  10.1245  10.1254
    12.8179  12.8948  13.0126  13.0407  13.1031  13.2258  13.6113  13.6227
    13.6627  13.6859  13.6969  13.7286  13.8075  13.8102  13.9309  13.9738
    13.9842  14.0004  14.0346  14.1898  14.2016  14.2023  14.2972  14.3308
    15.0435  15.1003  15.1395  15.4307  15.5226  15.5712  15.8718  16.0136
    16.3708  16.3797  16.4848  16.5675  16.7690  16.9755  17.1894  17.2138

          k = 0.1667 0.3333-0.4946 ( 34346 PWs)   bands (ev):

   -46.1081 -46.1081 -46.1076 -46.1076 -46.1072 -46.1072 -46.1067 -46.1067
   -22.4189 -22.4189 -22.4175 -22.4175 -22.4165 -22.4165 -22.4153 -22.4153
   -22.3837 -22.3837 -22.3822 -22.3822 -22.3745 -22.3745 -22.3721 -22.3721
   -22.3478 -22.3478 -22.3458 -22.3458 -22.3376 -22.3376 -22.3365 -22.3365
   -14.3721 -14.3720 -14.3228 -14.3227 -14.2909 -14.2908 -14.2534 -14.2533
    -6.4979  -6.4978  -6.4550  -6.4549  -6.3844  -6.3843  -6.1522  -6.1521
    -5.8739  -5.8738  -5.8537  -5.8536  -5.7979  -5.7978  -5.7700  -5.7699
    -5.7089  -5.7088  -5.6938  -5.6937  -5.6694  -5.6693  -5.6553  -5.6552
     0.0108   0.0109   0.0784   0.0785   0.2287   0.2287   0.3397   0.3397
     0.3433   0.3434   0.3655   0.3655   0.4271   0.4271   0.4377   0.4377
     0.4444   0.4444   0.6652   0.6652   0.7073   0.7073   0.7160   0.7160
     6.3094   6.3095   6.3832   6.3833   6.6252   6.6252   6.8695   6.8696
     6.9919   6.9919   7.0157   7.0158   7.0636   7.0637   7.1103   7.1103
     7.2540   7.2541   7.3768   7.3769   7.3799   7.3800   7.5099   7.5099
     7.5913   7.5914   7.7469   7.7470   7.7907   7.7908   7.8753   7.8753
     7.9431   7.9432   7.9666   7.9667   8.0821   8.0821   8.0847   8.0848
     8.2873   8.2874   8.3408   8.3408   8.6915   8.6915   8.9142   8.9142
     9.2115   9.2116   9.2948   9.2948   9.3103   9.3103   9.4014   9.4014
     9.5248   9.5248   9.5452   9.5453   9.5941   9.5941   9.6935   9.6935
     9.7207   9.7207   9.7364   9.7364   9.7885   9.7886  10.1190  10.1192
    12.8613  12.8613  13.3414  13.3414  13.3711  13.3712  13.3866  13.3866
    13.5207  13.5208  13.6370  13.6371  13.8115  13.8115  13.9664  13.9665
    13.9953  13.9953  14.0698  14.0698  14.1649  14.1650  14.2574  14.2574
    15.0901  15.0901  15.3421  15.3421  15.8665  15.8665  16.0512  16.0513
    16.4954  16.4956  16.7594  16.7596  16.7789  16.7791  17.0451  17.0944

          k = 0.1667-0.5000 0.0000 ( 34344 PWs)   bands (ev):

   -46.1082 -46.1082 -46.1074 -46.1074 -46.1074 -46.1074 -46.1065 -46.1065
   -22.4418 -22.4418 -22.4391 -22.4391 -22.3944 -22.3944 -22.3926 -22.3926
   -22.3843 -22.3843 -22.3816 -22.3816 -22.3624 -22.3624 -22.3600 -22.3600
   -22.3599 -22.3599 -22.3579 -22.3579 -22.3380 -22.3380 -22.3361 -22.3361
   -14.3917 -14.3917 -14.3054 -14.3054 -14.3024 -14.3024 -14.2385 -14.2385
    -6.5985  -6.5985  -6.5243  -6.5243  -6.4255  -6.4255  -5.9222  -5.9222
    -5.8567  -5.8567  -5.8191  -5.8191  -5.7896  -5.7896  -5.7855  -5.7855
    -5.7319  -5.7318  -5.7299  -5.7298  -5.6572  -5.6572  -5.6512  -5.6512
    -0.0470  -0.0470   0.0572   0.0572   0.2185   0.2185   0.3352   0.3352
     0.3789   0.3789   0.4189   0.4189   0.4593   0.4593   0.5367   0.5367
     0.5506   0.5506   0.6048   0.6048   0.6256   0.6256   0.6394   0.6394
     6.1415   6.1415   6.2700   6.2700   6.3999   6.3999   6.6218   6.6218
     6.8624   6.8624   7.0444   7.0445   7.1336   7.1336   7.1838   7.1838
     7.2263   7.2264   7.2927   7.2928   7.3638   7.3638   7.6489   7.6489
     7.6617   7.6618   7.8075   7.8076   7.8527   7.8527   7.8885   7.8885
     7.9340   7.9340   7.9545   7.9545   8.0283   8.0283   8.4107   8.4107
     8.4981   8.4982   8.6695   8.6695   8.8988   8.8988   8.9672   8.9672
     9.0356   9.0356   9.0713   9.0713   9.1052   9.1052   9.3243   9.3243
     9.3623   9.3623   9.6547   9.6547   9.7549   9.7549   9.7682   9.7682
     9.7887   9.7887   9.8206   9.8206   9.9140   9.9140  10.1603  10.1603
    12.6488  12.6488  13.2034  13.2035  13.2298  13.2299  13.2525  13.2525
    13.3054  13.3054  13.9030  13.9030  14.0054  14.0054  14.0130  14.0130
    14.0793  14.0793  14.1867  14.1867  14.2467  14.2467  14.4347  14.4347
    14.7191  14.7191  15.0904  15.0904  15.3461  15.3461  15.7250  15.7250
    16.5152  16.5153  16.6384  16.6384  16.6495  16.6495  17.0931  17.0931

          k = 0.1667-0.5000 0.1649 ( 34356 PWs)   bands (ev):

   -46.1082 -46.1082 -46.1074 -46.1074 -46.1073 -46.1073 -46.1065 -46.1065
   -22.4387 -22.4387 -22.4360 -22.4360 -22.3976 -22.3976 -22.3957 -22.3957
   -22.3841 -22.3841 -22.3818 -22.3818 -22.3623 -22.3623 -22.3601 -22.3601
   -22.3599 -22.3599 -22.3581 -22.3581 -22.3379 -22.3379 -22.3363 -22.3363
   -14.3858 -14.3858 -14.3085 -14.3085 -14.3010 -14.3009 -14.2430 -14.2430
    -6.5766  -6.5766  -6.4918  -6.4918  -6.4230  -6.4230  -5.9901  -5.9901
    -5.8598  -5.8598  -5.8128  -5.8128  -5.7898  -5.7898  -5.7795  -5.7795
    -5.7364  -5.7363  -5.7275  -5.7275  -5.6579  -5.6578  -5.6534  -5.6534
    -0.0194  -0.0193   0.0365   0.0366   0.2959   0.2959   0.3303   0.3303
     0.3347   0.3347   0.4146   0.4146   0.4257   0.4257   0.4637   0.4637
     0.5011   0.5011   0.6461   0.6461   0.6682   0.6682   0.6749   0.6749
     6.2084   6.2085   6.3623   6.3623   6.3931   6.3931   6.6623   6.6623
     6.9061   6.9062   7.0398   7.0398   7.1171   7.1171   7.1489   7.1489
     7.2392   7.2392   7.3238   7.3239   7.3731   7.3731   7.6672   7.6673
     7.6884   7.6884   7.7403   7.7403   7.8459   7.8459   7.8650   7.8650
     7.9549   7.9549   7.9589   7.9589   7.9770   7.9770   8.3137   8.3138
     8.4168   8.4169   8.5866   8.5866   8.8437   8.8437   8.9721   8.9721
     9.1213   9.1213   9.1436   9.1436   9.1459   9.1459   9.3058   9.3058
     9.3908   9.3908   9.6301   9.6301   9.6954   9.6954   9.7334   9.7334
     9.7670   9.7670   9.8367   9.8367   9.9021   9.9021  10.1142  10.1142
    12.7482  12.7482  13.2181  13.2181  13.2582  13.2582  13.2979  13.2979
    13.3210  13.3210  13.9268  13.9268  13.9272  13.9272  14.0018  14.0018
    14.0183  14.0183  14.1599  14.1599  14.1893  14.1893  14.3845  14.3845
    14.8619  14.8619  15.2927  15.2927  15.3427  15.3427  15.7797  15.7798
    16.5897  16.5898  16.6599  16.6599  16.7556  16.7556  17.0965  17.0966

          k = 0.1667-0.5000 0.3297 ( 34318 PWs)   bands (ev):

   -46.1080 -46.1080 -46.1076 -46.1076 -46.1071 -46.1071 -46.1067 -46.1067
   -22.4300 -22.4300 -22.4276 -22.4276 -22.4063 -22.4063 -22.4043 -22.4043
   -22.3836 -22.3836 -22.3823 -22.3823 -22.3618 -22.3618 -22.3606 -22.3606
   -22.3595 -22.3595 -22.3585 -22.3585 -22.3375 -22.3375 -22.3366 -22.3366
   -14.3697 -14.3697 -14.3251 -14.3251 -14.2889 -14.2888 -14.2554 -14.2554
    -6.5212  -6.5212  -6.4275  -6.4274  -6.4005  -6.4005  -6.1211  -6.1211
    -5.8698  -5.8698  -5.8540  -5.8540  -5.7654  -5.7654  -5.7616  -5.7616
    -5.7416  -5.7416  -5.7304  -5.7304  -5.6609  -5.6609  -5.6587  -5.6587
     0.0244   0.0244   0.0837   0.0837   0.2125   0.2125   0.3336   0.3336
     0.3382   0.3382   0.3671   0.3671   0.4241   0.4241   0.4391   0.4391
     0.4565   0.4566   0.6602   0.6602   0.7033   0.7033   0.7183   0.7183
     6.3151   6.3151   6.3784   6.3784   6.5980   6.5980   6.8403   6.8403
     7.0291   7.0292   7.0356   7.0356   7.0439   7.0439   7.1045   7.1045
     7.2724   7.2724   7.3760   7.3760   7.4298   7.4299   7.5151   7.5151
     7.6003   7.6003   7.7812   7.7812   7.7831   7.7831   7.8914   7.8914
     7.9092   7.9092   7.9836   7.9836   8.0292   8.0292   8.0688   8.0688
     8.3079   8.3079   8.3245   8.3245   8.7542   8.7542   8.8298   8.8298
     9.2307   9.2307   9.2916   9.2916   9.2944   9.2945   9.4153   9.4153
     9.4341   9.4341   9.5441   9.5441   9.5604   9.5604   9.7197   9.7197
     9.7848   9.7848   9.8237   9.8237   9.8771   9.8771   9.9796   9.9796
    13.0017  13.0017  13.2502  13.2502  13.2758  13.2758  13.3671  13.3671
    13.5014  13.5015  13.6941  13.6941  13.8021  13.8022  13.9847  13.9847
    13.9967  13.9967  14.0554  14.0554  14.1420  14.1420  14.2620  14.2620
    15.1234  15.1234  15.3259  15.3259  15.7897  15.7898  16.0028  16.0028
    16.6190  16.6190  16.7997  16.7998  16.8448  16.8448  17.0955  17.1139

          k = 0.1667-0.5000-0.4946 ( 34368 PWs)   bands (ev):

   -46.1078 -46.1078 -46.1078 -46.1078 -46.1069 -46.1069 -46.1069 -46.1069
   -22.4182 -22.4182 -22.4182 -22.4182 -22.4159 -22.4159 -22.4159 -22.4159
   -22.3829 -22.3829 -22.3829 -22.3829 -22.3612 -22.3612 -22.3612 -22.3612
   -22.3590 -22.3590 -22.3590 -22.3590 -22.3371 -22.3371 -22.3371 -22.3371
   -14.3476 -14.3476 -14.3475 -14.3475 -14.2722 -14.2722 -14.2722 -14.2721
    -6.4610  -6.4610  -6.4609  -6.4609  -6.2682  -6.2682  -6.2681  -6.2681
    -5.8752  -5.8752  -5.8751  -5.8751  -5.7547  -5.7546  -5.7546  -5.7545
    -5.7381  -5.7381  -5.7380  -5.7380  -5.6628  -5.6628  -5.6627  -5.6627
     0.0952   0.0952   0.0952   0.0952   0.2044   0.2044   0.2044   0.2044
     0.3394   0.3394   0.3394   0.3395   0.4328   0.4328   0.4328   0.4329
     0.5752   0.5752   0.5752   0.5752   0.7306   0.7306   0.7306   0.7306
     6.3599   6.3599   6.3600   6.3600   6.8596   6.8596   6.8597   6.8597
     7.0080   7.0080   7.0080   7.0081   7.2475   7.2475   7.2475   7.2475
     7.2475   7.2475   7.2475   7.2476   7.3901   7.3901   7.3901   7.3902
     7.6201   7.6201   7.6201   7.6202   7.8916   7.8916   7.8917   7.8917
     7.8917   7.8917   7.8917   7.8917   8.0842   8.0842   8.0843   8.0843
     8.1717   8.1717   8.1718   8.1718   8.7271   8.7271   8.7271   8.7271
     9.3225   9.3225   9.3226   9.3226   9.4116   9.4116   9.4116   9.4116
     9.4592   9.4592   9.4593   9.4593   9.6927   9.6927   9.6927   9.6927
     9.7700   9.7700   9.7700   9.7700   9.8698   9.8698   9.8699   9.8699
    13.2280  13.2280  13.2281  13.2281  13.3897  13.3897  13.3898  13.3898
    13.5622  13.5622  13.5623  13.5623  13.7418  13.7418  13.7419  13.7419
    14.0853  14.0853  14.0853  14.0853  14.1292  14.1292  14.1292  14.1292
    15.2722  15.2722  15.2722  15.2722  16.3287  16.3287  16.3288  16.3289
    16.4185  16.4185  16.4186  16.4186  17.1866  17.1868  17.1868  17.1869

          k = 0.3333 0.3333 0.0000 ( 34366 PWs)   bands (ev):

   -46.1083 -46.1078 -46.1078 -46.1074 -46.1073 -46.1069 -46.1069 -46.1064
   -22.4421 -22.4404 -22.4404 -22.4390 -22.3945 -22.3935 -22.3935 -22.3924
   -22.3753 -22.3753 -22.3741 -22.3735 -22.3726 -22.3726 -22.3716 -22.3713
   -22.3488 -22.3482 -22.3472 -22.3472 -22.3465 -22.3462 -22.3452 -22.3452
   -14.4012 -14.3460 -14.3459 -14.3081 -14.3016 -14.2699 -14.2698 -14.2343
    -6.5991  -6.5991  -6.5449  -6.4667  -6.4469  -6.1817  -6.1817  -5.8998
    -5.8483  -5.8295  -5.8295  -5.8206  -5.8206  -5.7951  -5.7950  -5.7615
    -5.7599  -5.7300  -5.7213  -5.6950  -5.6950  -5.6741  -5.6741  -5.6288
    -0.1557   0.0037   0.1410   0.1410   0.1612   0.2826   0.3092   0.3092
     0.3191   0.3577   0.4015   0.4015   0.4474   0.5293   0.5358   0.5358
     0.5373   0.5373   0.5559   0.5928   0.6363   0.6394   0.6604   0.6604
     6.1840   6.2334   6.2334   6.2852   6.4890   6.7114   6.7114   6.7241
     6.7241   6.8074   6.9627   6.9687   6.9753   6.9753   6.9821   7.0877
     7.3338   7.4002   7.4887   7.4887   7.5489   7.5533   7.6071   7.6071
     7.7316   7.7532   7.7532   7.7654   7.7968   7.7968   7.8451   7.8451
     7.8960   7.9274   7.9480   7.9686   7.9904   8.2609   8.2609   8.3109
     8.3109   8.3597   8.5927   8.6174   8.6174   8.6271   8.7802   8.9161
     9.0892   9.0892   9.1751   9.2183   9.3053   9.3452   9.3996   9.4151
     9.4753   9.4753   9.5137   9.5137   9.5289   9.5289   9.7091   9.7091
     9.8153   9.8810   9.8833   9.9269   9.9985   9.9985  10.0589  10.0706
    12.7626  12.8895  12.8895  12.9392  13.0286  13.1647  13.5358  13.6080
    13.6080  13.6605  13.6605  13.7026  13.7963  13.7963  13.9798  14.0093
    14.0470  14.0886  14.0886  14.1964  14.2475  14.2475  14.3552  14.3729
    14.9028  14.9539  14.9539  15.1406  15.5087  15.5507  16.0092  16.0092
    16.3849  16.3887  16.3917  16.3917  16.9932  17.0910  17.2360  17.2693

          k = 0.3333 0.3333 0.1649 ( 34351 PWs)   bands (ev):

   -46.1083 -46.1077 -46.1077 -46.1075 -46.1072 -46.1070 -46.1070 -46.1065
   -22.4389 -22.4373 -22.4373 -22.4359 -22.3977 -22.3966 -22.3966 -22.3956
   -22.3752 -22.3752 -22.3739 -22.3733 -22.3728 -22.3728 -22.3717 -22.3714
   -22.3486 -22.3480 -22.3471 -22.3471 -22.3466 -22.3463 -22.3454 -22.3454
   -14.3951 -14.3410 -14.3409 -14.3144 -14.2972 -14.2751 -14.2750 -14.2389
    -6.5700  -6.5700  -6.5265  -6.4581  -6.4152  -6.2037  -6.2037  -5.9524
    -5.8576  -5.8358  -5.8358  -5.8186  -5.8186  -5.7907  -5.7819  -5.7755
    -5.7530  -5.7344  -5.7225  -5.6941  -5.6941  -5.6806  -5.6806  -5.6381
    -0.1248  -0.0191   0.1604   0.1604   0.2473   0.2803   0.2803   0.2863
     0.2881   0.3531   0.3781   0.3781   0.4021   0.4127   0.4657   0.4657
     0.4825   0.5881   0.5881   0.6510   0.6854   0.7023   0.7138   0.7139
     6.2662   6.3149   6.3149   6.3785   6.4812   6.7035   6.7035   6.7309
     6.7309   6.8162   6.9624   6.9674   7.0072   7.0122   7.0122   7.1090
     7.3378   7.3570   7.4289   7.4289   7.5656   7.6223   7.6317   7.6317
     7.6800   7.6800   7.7399   7.7541   7.8598   7.8598   7.8628   7.8662
     7.8663   7.8957   7.9210   7.9555   7.9867   8.1276   8.1276   8.3036
     8.3036   8.3435   8.4844   8.5087   8.6258   8.6258   8.7334   8.8659
     9.1783   9.1845   9.1845   9.2977   9.3617   9.3634   9.4007   9.4007
     9.4468   9.4515   9.4646   9.4646   9.5925   9.5925   9.6814   9.6814
     9.7555   9.8503   9.8625   9.8807   9.9746   9.9746  10.0479  10.0609
    12.8470  12.9747  12.9747  12.9924  13.0466  13.1547  13.5920  13.6299
    13.6299  13.6739  13.6739  13.7359  13.7849  13.7849  13.9224  13.9641
    13.9946  14.0090  14.0090  14.1788  14.1855  14.1855  14.2949  14.3147
    15.0976  15.1346  15.1346  15.3490  15.5131  15.5481  16.0066  16.0066
    16.4139  16.4139  16.4674  16.4907  16.8907  17.1175  17.2651  17.3066

          k = 0.3333 0.3333 0.3297 ( 34350 PWs)   bands (ev):

   -46.1081 -46.1077 -46.1076 -46.1076 -46.1071 -46.1071 -46.1071 -46.1066
   -22.4303 -22.4288 -22.4288 -22.4274 -22.4065 -22.4053 -22.4053 -22.4041
   -22.3747 -22.3747 -22.3734 -22.3733 -22.3733 -22.3729 -22.3722 -22.3718
   -22.3482 -22.3477 -22.3471 -22.3467 -22.3467 -22.3467 -22.3457 -22.3457
   -14.3783 -14.3317 -14.3272 -14.3272 -14.2892 -14.2891 -14.2850 -14.2513
    -6.4899  -6.4899  -6.4834  -6.4430  -6.3268  -6.2737  -6.2737  -6.0657
    -5.8743  -5.8377  -5.8377  -5.8317  -5.8175  -5.8175  -5.7790  -5.7515
    -5.7465  -5.7295  -5.7267  -5.6961  -5.6961  -5.6936  -5.6936  -5.6632
    -0.0397  -0.0042   0.1975   0.2129   0.2129   0.2365   0.2508   0.2508
     0.3026   0.3162   0.3162   0.3402   0.3545   0.3734   0.3734   0.3986
     0.4085   0.6708   0.6778   0.6778   0.7319   0.7578   0.7578   0.7640
     6.4126   6.4694   6.4748   6.4748   6.6201   6.6497   6.6497   6.8467
     6.8467   6.9235   6.9618   6.9645   7.0782   7.1293   7.1293   7.1611
     7.2057   7.2678   7.2678   7.3956   7.6011   7.6011   7.6040   7.6650
     7.6813   7.6813   7.7005   7.7188   7.8110   7.8199   7.8199   7.8958
     7.8974   7.9084   7.9133   7.9133   8.0105   8.0105   8.0411   8.1686
     8.2572   8.2832   8.2832   8.2938   8.4627   8.4627   8.6484   8.7098
     9.3012   9.3491   9.3491   9.3598   9.3598   9.4040   9.4059   9.4793
     9.4793   9.5037   9.5322   9.5519   9.6236   9.6236   9.6405   9.6405
     9.6810   9.7409   9.7627   9.7969   9.8918   9.8918  10.0268  10.0392
    13.0134  13.1266  13.1499  13.1542  13.1975  13.1975  13.6828  13.6828
    13.6952  13.7280  13.7280  13.7340  13.7340  13.7391  13.7392  13.8159
    13.8159  13.8315  14.0310  14.0310  14.0356  14.1142  14.1473  14.1783
    15.5229  15.5400  15.5400  15.5417  15.5733  15.8742  15.9807  15.9807
    16.5136  16.5136  16.5904  16.6909  16.8024  17.0396  17.1730  17.1923

          k = 0.3333 0.3333-0.4946 ( 34370 PWs)   bands (ev):

   -46.1079 -46.1079 -46.1074 -46.1074 -46.1074 -46.1074 -46.1069 -46.1069
   -22.4184 -22.4184 -22.4170 -22.4170 -22.4170 -22.4170 -22.4158 -22.4158
   -22.3740 -22.3740 -22.3740 -22.3740 -22.3728 -22.3728 -22.3724 -22.3724
   -22.3476 -22.3476 -22.3472 -22.3472 -22.3462 -22.3462 -22.3462 -22.3462
   -14.3552 -14.3551 -14.3083 -14.3083 -14.3082 -14.3082 -14.2683 -14.2682
    -6.4474  -6.4473  -6.3803  -6.3803  -6.3802  -6.3802  -6.2010  -6.2008
    -5.8709  -5.8708  -5.8262  -5.8262  -5.8261  -5.8261  -5.7629  -5.7628
    -5.7358  -5.7357  -5.6994  -5.6994  -5.6993  -5.6993  -5.6969  -5.6967
     0.0779   0.0780   0.0852   0.0852   0.2594   0.2594   0.2594   0.2594
     0.2914   0.2915   0.2915   0.2915   0.3218   0.3218   0.3517   0.3518
     0.5669   0.5669   0.7441   0.7441   0.7441   0.7441   0.7755   0.7755
     6.4623   6.4624   6.5780   6.5781   6.5781   6.5781   6.9089   6.9089
     6.9624   6.9624   7.0657   7.0657   7.0658   7.0658   7.1115   7.1115
     7.3684   7.3684   7.3684   7.3684   7.4124   7.4124   7.4963   7.4963
     7.6625   7.6626   7.7304   7.7304   7.7304   7.7305   7.8991   7.8992
     7.9250   7.9251   7.9791   7.9791   7.9792   7.9792   8.0560   8.0560
     8.1390   8.1391   8.3058   8.3058   8.3058   8.3058   8.6126   8.6127
     9.3537   9.3537   9.3537   9.3537   9.4359   9.4360   9.5253   9.5254
     9.6042   9.6042   9.6043   9.6043   9.6312   9.6313   9.6468   9.6469
     9.6691   9.6692   9.7345   9.7345   9.7345   9.7345  10.0223  10.0224
    13.0836  13.0836  13.4088  13.4089  13.4346  13.4347  13.4878  13.4878
    13.4878  13.4879  13.7322  13.7322  13.7322  13.7323  13.8567  13.8567
    13.8567  13.8567  13.9356  13.9357  13.9769  13.9770  14.0945  14.0945
    15.5331  15.5331  15.8630  15.8630  15.8630  15.8630  16.1238  16.1240
    16.5066  16.5068  16.7914  16.7914  16.7915  16.7915  17.2201  17.2214

          k = 0.3333-0.5000 0.0000 ( 34324 PWs)   bands (ev):

   -46.1081 -46.1081 -46.1075 -46.1075 -46.1072 -46.1072 -46.1067 -46.1067
   -22.4413 -22.4413 -22.4397 -22.4397 -22.3940 -22.3940 -22.3930 -22.3930
   -22.3746 -22.3746 -22.3720 -22.3720 -22.3619 -22.3619 -22.3605 -22.3605
   -22.3595 -22.3595 -22.3584 -22.3584 -22.3478 -22.3478 -22.3458 -22.3458
   -14.3738 -14.3737 -14.3239 -14.3239 -14.2891 -14.2890 -14.2522 -14.2521
    -6.5601  -6.5601  -6.5165  -6.5165  -6.3306  -6.3306  -6.0456  -6.0456
    -5.8274  -5.8274  -5.8121  -5.8121  -5.7941  -5.7941  -5.7863  -5.7863
    -5.7564  -5.7563  -5.7108  -5.7108  -5.7080  -5.7080  -5.6597  -5.6597
    -0.0285  -0.0285   0.1540   0.1540   0.1910   0.1910   0.3456   0.3456
     0.3610   0.3610   0.3660   0.3660   0.4298   0.4299   0.4907   0.4907
     0.5727   0.5727   0.6059   0.6059   0.6219   0.6219   0.6421   0.6421
     6.2225   6.2225   6.2704   6.2704   6.6332   6.6332   6.8171   6.8171
     6.8848   6.8848   7.0783   7.0784   7.1011   7.1011   7.1943   7.1943
     7.2963   7.2963   7.3376   7.3377   7.3708   7.3708   7.5641   7.5641
     7.6058   7.6059   7.7617   7.7618   7.8794   7.8794   7.8812   7.8812
     7.9189   7.9189   8.0661   8.0662   8.0749   8.0749   8.0996   8.0996
     8.4072   8.4073   8.5073   8.5073   8.5508   8.5509   8.6758   8.6758
     9.1902   9.1902   9.1989   9.1989   9.3599   9.3599   9.3856   9.3856
     9.4399   9.4399   9.6504   9.6504   9.6752   9.6752   9.7366   9.7366
     9.7380   9.7380   9.8168   9.8168   9.9249   9.9249  10.0054  10.0054
    12.8498  12.8498  13.2238  13.2238  13.2420  13.2420  13.3327  13.3327
    13.4827  13.4827  13.6333  13.6333  13.7926  13.7926  13.9894  13.9895
    14.0544  14.0544  14.1198  14.1199  14.2104  14.2104  14.3068  14.3068
    14.9516  14.9516  15.0969  15.0969  15.8504  15.8504  16.0080  16.0080
    16.6248  16.6248  16.7923  16.7924  16.8392  16.8392  16.9713  16.9713

          k = 0.3333-0.5000 0.1649 ( 34354 PWs)   bands (ev):

   -46.1080 -46.1080 -46.1075 -46.1075 -46.1073 -46.1073 -46.1067 -46.1067
   -22.4381 -22.4381 -22.4366 -22.4366 -22.3972 -22.3972 -22.3961 -22.3961
   -22.3744 -22.3744 -22.3722 -22.3722 -22.3618 -22.3618 -22.3604 -22.3604
   -22.3597 -22.3597 -22.3585 -22.3585 -22.3477 -22.3477 -22.3459 -22.3459
   -14.3682 -14.3682 -14.3192 -14.3192 -14.2948 -14.2948 -14.2570 -14.2570
    -6.5359  -6.5359  -6.4861  -6.4861  -6.3323  -6.3322  -6.0766  -6.0765
    -5.8312  -5.8312  -5.8117  -5.8117  -5.8102  -5.8102  -5.7820  -5.7820
    -5.7576  -5.7576  -5.7136  -5.7136  -5.7114  -5.7114  -5.6654  -5.6654
    -0.0032  -0.0032   0.1244   0.1244   0.2030   0.2030   0.3173   0.3173
     0.3551   0.3551   0.3811   0.3812   0.4250   0.4250   0.4349   0.4349
     0.4436   0.4436   0.6636   0.6636   0.7036   0.7036   0.7086   0.7086
     6.3067   6.3067   6.3582   6.3582   6.6148   6.6148   6.8160   6.8160
     6.9057   6.9058   7.0359   7.0359   7.1107   7.1107   7.1734   7.1734
     7.3283   7.3283   7.3670   7.3671   7.3822   7.3822   7.5759   7.5759
     7.6065   7.6065   7.7768   7.7768   7.7877   7.7877   7.8845   7.8845
     7.9323   7.9323   8.0397   8.0397   8.0494   8.0494   8.1151   8.1151
     8.2928   8.2928   8.4710   8.4710   8.4823   8.4823   8.6430   8.6430
     9.2567   9.2567   9.2770   9.2770   9.3477   9.3477   9.3673   9.3673
     9.5029   9.5030   9.6024   9.6024   9.6352   9.6352   9.7402   9.7402
     9.7603   9.7603   9.7866   9.7866   9.9080   9.9080   9.9792   9.9792
    12.9336  12.9336  13.2777  13.2778  13.2909  13.2910  13.3480  13.3480
    13.4718  13.4718  13.6641  13.6641  13.8072  13.8072  13.9715  13.9715
    13.9740  13.9740  14.0446  14.0446  14.1396  14.1396  14.2461  14.2461
    15.1387  15.1387  15.2998  15.2999  15.8526  15.8526  16.0185  16.0185
    16.6302  16.6302  16.8391  16.8391  16.8763  16.8764  17.0334  17.0334

          k = 0.3333-0.5000 0.3297 ( 34372 PWs)   bands (ev):

   -46.1078 -46.1078 -46.1074 -46.1074 -46.1073 -46.1073 -46.1069 -46.1069
   -22.4295 -22.4295 -22.4281 -22.4281 -22.4059 -22.4059 -22.4047 -22.4047
   -22.3739 -22.3739 -22.3727 -22.3727 -22.3613 -22.3613 -22.3601 -22.3601
   -22.3600 -22.3600 -22.3589 -22.3589 -22.3473 -22.3473 -22.3463 -22.3463
   -14.3529 -14.3529 -14.3106 -14.3105 -14.3062 -14.3062 -14.2703 -14.2703
    -6.4730  -6.4730  -6.4019  -6.4019  -6.3489  -6.3489  -6.1642  -6.1641
    -5.8448  -5.8448  -5.8443  -5.8443  -5.8000  -5.8000  -5.7762  -5.7761
    -5.7534  -5.7534  -5.7228  -5.7228  -5.7156  -5.7156  -5.6818  -5.6818
     0.0643   0.0643   0.1140   0.1140   0.2357   0.2357   0.2386   0.2386
     0.2980   0.2980   0.3218   0.3218   0.3255   0.3255   0.3417   0.3417
     0.5692   0.5692   0.7393   0.7393   0.7460   0.7460   0.7727   0.7727
     6.4637   6.4637   6.5640   6.5640   6.5737   6.5737   6.8980   6.8980
     6.9191   6.9192   7.0146   7.0146   7.1273   7.1273   7.1453   7.1453
     7.3644   7.3644   7.4033   7.4033   7.4661   7.4661   7.4819   7.4819
     7.6499   7.6500   7.7303   7.7303   7.7444   7.7444   7.8994   7.8994
     7.9610   7.9610   7.9784   7.9784   7.9856   7.9856   8.0958   8.0959
     8.1256   8.1256   8.2267   8.2267   8.3899   8.3899   8.4692   8.4692
     9.3579   9.3579   9.3936   9.3937   9.4188   9.4188   9.4739   9.4739
     9.5729   9.5729   9.5778   9.5778   9.5795   9.5795   9.7227   9.7227
     9.7330   9.7330   9.7599   9.7599   9.8700   9.8700   9.9032   9.9032
    13.1504  13.1504  13.3658  13.3658  13.4177  13.4177  13.4397  13.4397
    13.4674  13.4674  13.7539  13.7539  13.7546  13.7546  13.8484  13.8484
    13.8487  13.8487  13.9143  13.9143  13.9727  13.9727  14.0940  14.0940
    15.5557  15.5558  15.8026  15.8026  15.8509  15.8509  16.0888  16.0888
    16.6104  16.6104  16.8432  16.8432  16.8482  16.8482  17.1473  17.1473

          k = 0.3333-0.5000-0.4946 ( 34376 PWs)   bands (ev):

   -46.1076 -46.1076 -46.1076 -46.1076 -46.1071 -46.1071 -46.1071 -46.1071
   -22.4177 -22.4177 -22.4177 -22.4177 -22.4164 -22.4164 -22.4164 -22.4164
   -22.3733 -22.3733 -22.3733 -22.3733 -22.3607 -22.3607 -22.3607 -22.3607
   -22.3594 -22.3594 -22.3594 -22.3594 -22.3468 -22.3468 -22.3468 -22.3468
   -14.3319 -14.3319 -14.3318 -14.3318 -14.2884 -14.2884 -14.2883 -14.2883
    -6.3992  -6.3992  -6.3991  -6.3991  -6.2843  -6.2843  -6.2842  -6.2842
    -5.8568  -5.8568  -5.8567  -5.8567  -5.7840  -5.7840  -5.7839  -5.7839
    -5.7395  -5.7395  -5.7393  -5.7393  -5.7031  -5.7031  -5.7029  -5.7029
     0.1440   0.1440   0.1440   0.1440   0.1816   0.1816   0.1816   0.1816
     0.2801   0.2801   0.2802   0.2802   0.3054   0.3054   0.3054   0.3055
     0.6855   0.6855   0.6855   0.6855   0.7891   0.7891   0.7892   0.7892
     6.5337   6.5337   6.5338   6.5338   6.7602   6.7602   6.7603   6.7603
     7.0608   7.0608   7.0608   7.0608   7.2515   7.2515   7.2516   7.2516
     7.2719   7.2719   7.2720   7.2720   7.5108   7.5108   7.5108   7.5108
     7.6013   7.6013   7.6013   7.6013   7.9048   7.9048   7.9049   7.9049
     7.9108   7.9109   7.9109   7.9109   8.0151   8.0151   8.0151   8.0151
     8.0651   8.0651   8.0652   8.0652   8.3445   8.3445   8.3446   8.3446
     9.4428   9.4428   9.4429   9.4429   9.4797   9.4797   9.4797   9.4797
     9.6145   9.6145   9.6146   9.6146   9.6657   9.6657   9.6657   9.6657
     9.6998   9.6998   9.6998   9.6998   9.8476   9.8476   9.8477   9.8477
    13.3736  13.3736  13.3737  13.3737  13.4878  13.4878  13.4878  13.4878
    13.6086  13.6086  13.6087  13.6087  13.7017  13.7017  13.7018  13.7018
    13.8771  13.8771  13.8771  13.8771  13.9286  13.9286  13.9286  13.9286
    15.8077  15.8077  15.8077  15.8077  16.3570  16.3571  16.3572  16.3572
    16.4074  16.4075  16.4076  16.4076  16.8913  16.8913  16.8913  16.8913

          k =-0.5000-0.5000 0.0000 ( 34312 PWs)   bands (ev):

   -46.1078 -46.1078 -46.1078 -46.1078 -46.1069 -46.1069 -46.1069 -46.1069
   -22.4405 -22.4405 -22.4405 -22.4405 -22.3935 -22.3935 -22.3935 -22.3935
   -22.3616 -22.3616 -22.3616 -22.3616 -22.3608 -22.3608 -22.3608 -22.3608
   -22.3591 -22.3591 -22.3591 -22.3591 -22.3587 -22.3587 -22.3587 -22.3587
   -14.3490 -14.3490 -14.3490 -14.3490 -14.2707 -14.2707 -14.2707 -14.2707
    -6.5262  -6.5262  -6.5262  -6.5262  -6.1941  -6.1941  -6.1941  -6.1941
    -5.8023  -5.8023  -5.8023  -5.8023  -5.7788  -5.7788  -5.7788  -5.7788
    -5.7761  -5.7761  -5.7761  -5.7761  -5.6803  -5.6803  -5.6803  -5.6803
     0.0557   0.0557   0.0558   0.0558   0.2892   0.2892   0.2892   0.2892
     0.3389   0.3389   0.3389   0.3389   0.5049   0.5049   0.5049   0.5050
     0.5341   0.5342   0.5342   0.5342   0.6465   0.6465   0.6466   0.6466
     6.2602   6.2602   6.2602   6.2602   6.8937   6.8937   6.8937   6.8937
     6.9109   6.9109   6.9109   6.9109   7.3031   7.3031   7.3031   7.3031
     7.3163   7.3163   7.3163   7.3163   7.3696   7.3697   7.3697   7.3697
     7.6957   7.6958   7.6958   7.6958   7.8490   7.8490   7.8490   7.8490
     7.9068   7.9068   7.9068   7.9068   8.2213   8.2213   8.2213   8.2213
     8.2419   8.2419   8.2420   8.2420   8.5212   8.5212   8.5212   8.5212
     9.2562   9.2562   9.2562   9.2562   9.4840   9.4840   9.4840   9.4840
     9.5179   9.5179   9.5179   9.5180   9.6882   9.6882   9.6882   9.6883
     9.7768   9.7768   9.7768   9.7768   9.8987   9.8987   9.8987   9.8987
    13.1226  13.1226  13.1226  13.1226  13.3419  13.3419  13.3419  13.3419
    13.5374  13.5374  13.5374  13.5374  13.7319  13.7319  13.7319  13.7320
    14.1463  14.1463  14.1463  14.1463  14.1811  14.1811  14.1811  14.1811
    15.0671  15.0671  15.0671  15.0671  16.3606  16.3606  16.3606  16.3606
    16.4420  16.4420  16.4420  16.4421  17.3227  17.3267  17.3276  17.3281

          k =-0.5000-0.5000 0.1649 ( 34368 PWs)   bands (ev):

   -46.1077 -46.1077 -46.1077 -46.1077 -46.1070 -46.1070 -46.1070 -46.1070
   -22.4374 -22.4374 -22.4374 -22.4374 -22.3967 -22.3967 -22.3967 -22.3967
   -22.3615 -22.3615 -22.3615 -22.3615 -22.3607 -22.3607 -22.3607 -22.3607
   -22.3593 -22.3593 -22.3593 -22.3593 -22.3589 -22.3589 -22.3589 -22.3589
   -14.3439 -14.3438 -14.3438 -14.3438 -14.2761 -14.2760 -14.2760 -14.2760
    -6.4988  -6.4988  -6.4988  -6.4988  -6.2051  -6.2051  -6.2051  -6.2051
    -5.8132  -5.8132  -5.8132  -5.8132  -5.7842  -5.7842  -5.7842  -5.7842
    -5.7724  -5.7724  -5.7724  -5.7724  -5.6871  -5.6871  -5.6871  -5.6871
     0.0748   0.0748   0.0748   0.0749   0.2484   0.2484   0.2484   0.2484
     0.3201   0.3201   0.3201   0.3201   0.4319   0.4320   0.4320   0.4320
     0.5736   0.5736   0.5736   0.5737   0.7257   0.7257   0.7257   0.7257
     6.3471   6.3471   6.3471   6.3471   6.8543   6.8543   6.8543   6.8543
     6.9041   6.9041   6.9041   6.9041   7.3057   7.3058   7.3058   7.3058
     7.3642   7.3642   7.3642   7.3642   7.3959   7.3959   7.3959   7.3959
     7.6097   7.6097   7.6097   7.6097   7.9022   7.9022   7.9022   7.9022
     7.9132   7.9132   7.9132   7.9132   8.1794   8.1794   8.1794   8.1794
     8.1867   8.1867   8.1867   8.1867   8.4512   8.4512   8.4512   8.4512
     9.3326   9.3326   9.3326   9.3326   9.4476   9.4476   9.4476   9.4476
     9.5333   9.5333   9.5333   9.5333   9.6862   9.6862   9.6862   9.6862
     9.7793   9.7793   9.7793   9.7794   9.8754   9.8754   9.8754   9.8754
    13.1941  13.1942  13.1942  13.1942  13.3777  13.3777  13.3777  13.3777
    13.5529  13.5529  13.5529  13.5529  13.7181  13.7182  13.7182  13.7182
    14.0711  14.0711  14.0711  14.0711  14.1096  14.1096  14.1096  14.1096
    15.2702  15.2702  15.2702  15.2702  16.3693  16.3693  16.3693  16.3693
    16.4387  16.4387  16.4387  16.4387  17.2218  17.2218  17.2218  17.2218

          k =-0.5000-0.5000 0.3297 ( 34372 PWs)   bands (ev):

   -46.1076 -46.1076 -46.1076 -46.1076 -46.1072 -46.1072 -46.1072 -46.1072
   -22.4288 -22.4288 -22.4288 -22.4288 -22.4053 -22.4053 -22.4053 -22.4053
   -22.3610 -22.3610 -22.3610 -22.3610 -22.3603 -22.3603 -22.3603 -22.3603
   -22.3598 -22.3598 -22.3598 -22.3598 -22.3593 -22.3593 -22.3593 -22.3593
   -14.3297 -14.3297 -14.3297 -14.3297 -14.2906 -14.2905 -14.2905 -14.2905
    -6.4251  -6.4251  -6.4251  -6.4251  -6.2481  -6.2481  -6.2481  -6.2481
    -5.8289  -5.8289  -5.8289  -5.8289  -5.8044  -5.8044  -5.8044  -5.8044
    -5.7548  -5.7548  -5.7548  -5.7548  -5.7056  -5.7056  -5.7056  -5.7056
     0.1269   0.1269   0.1269   0.1269   0.2094   0.2094   0.2095   0.2095
     0.2685   0.2685   0.2685   0.2685   0.3066   0.3067   0.3067   0.3067
     0.6879   0.6879   0.6879   0.6879   0.7854   0.7854   0.7854   0.7854
     6.5290   6.5290   6.5290   6.5290   6.7591   6.7591   6.7591   6.7591
     6.9839   6.9839   6.9839   6.9839   7.3147   7.3147   7.3147   7.3147
     7.3495   7.3495   7.3495   7.3495   7.4737   7.4737   7.4737   7.4737
     7.5846   7.5846   7.5846   7.5846   7.9337   7.9337   7.9337   7.9338
     7.9372   7.9372   7.9372   7.9372   8.0795   8.0796   8.0796   8.0796
     8.0805   8.0805   8.0805   8.0805   8.1899   8.1899   8.1899   8.1899
     9.4705   9.4705   9.4705   9.4705   9.4833   9.4833   9.4833   9.4833
     9.5711   9.5711   9.5711   9.5711   9.6586   9.6586   9.6586   9.6586
     9.7761   9.7761   9.7761   9.7761   9.8187   9.8187   9.8187   9.8187
    13.3804  13.3804  13.3804  13.3804  13.4867  13.4867  13.4867  13.4867
    13.5977  13.5977  13.5977  13.5977  13.6775  13.6775  13.6775  13.6775
    13.8836  13.8836  13.8836  13.8836  13.9200  13.9200  13.9200  13.9200
    15.7766  15.7766  15.7766  15.7766  16.3896  16.3896  16.3896  16.3896
    16.4285  16.4285  16.4285  16.4285  16.8968  16.8968  16.8968  16.8969

          k =-0.5000-0.5000-0.4946 ( 34432 PWs)   bands (ev):

   -46.1074 -46.1074 -46.1074 -46.1074 -46.1074 -46.1074 -46.1074 -46.1074
   -22.4171 -22.4171 -22.4171 -22.4171 -22.4171 -22.4171 -22.4171 -22.4171
   -22.3604 -22.3604 -22.3604 -22.3604 -22.3604 -22.3604 -22.3604 -22.3604
   -22.3598 -22.3598 -22.3598 -22.3598 -22.3598 -22.3598 -22.3598 -22.3598
   -14.3103 -14.3103 -14.3102 -14.3102 -14.3102 -14.3101 -14.3101 -14.3101
    -6.3297  -6.3297  -6.3297  -6.3297  -6.3296  -6.3296  -6.3296  -6.3296
    -5.8250  -5.8250  -5.8250  -5.8250  -5.8249  -5.8249  -5.8249  -5.8249
    -5.7305  -5.7305  -5.7305  -5.7305  -5.7304  -5.7303  -5.7303  -5.7303
     0.1978   0.1978   0.1978   0.1978   0.1979   0.1979   0.1979   0.1979
     0.2266   0.2266   0.2267   0.2267   0.2267   0.2267   0.2267   0.2268
     0.7704   0.7704   0.7704   0.7704   0.7704   0.7704   0.7704   0.7704
     6.6556   6.6556   6.6556   6.6556   6.6557   6.6557   6.6557   6.6557
     7.2413   7.2413   7.2413   7.2413   7.2414   7.2414   7.2414   7.2414
     7.3305   7.3306   7.3306   7.3306   7.3306   7.3307   7.3307   7.3307
     7.8474   7.8474   7.8474   7.8474   7.8475   7.8475   7.8475   7.8475
     7.9846   7.9846   7.9846   7.9846   7.9846   7.9847   7.9847   7.9847
     7.9901   7.9902   7.9902   7.9902   7.9902   7.9902   7.9902   7.9902
     9.5766   9.5766   9.5766   9.5766   9.5767   9.5767   9.5767   9.5767
     9.5818   9.5818   9.5818   9.5819   9.5819   9.5819   9.5819   9.5819
     9.7724   9.7725   9.7725   9.7725   9.7726   9.7726   9.7726   9.7726
    13.5920  13.5920  13.5920  13.5920  13.5920  13.5921  13.5921  13.5921
    13.6654  13.6654  13.6654  13.6654  13.6655  13.6655  13.6655  13.6655
    13.6953  13.6953  13.6953  13.6953  13.6954  13.6954  13.6954  13.6954
    16.3794  16.3794  16.3794  16.3794  16.3796  16.3796  16.3796  16.3796
    16.4113  16.4113  16.4113  16.4113  16.4113  16.4114  16.4114  16.4114

     highest occupied, lowest unoccupied level (ev):    10.4080   12.2295

!    total energy              =   -5964.62505035 Ry
     total all-electron energy =   -147449.078623 Ry
     estimated scf accuracy    <          3.1E-11 Ry

     The total energy is the sum of the following terms:
     one-electron contribution =    -550.49459011 Ry
     hartree contribution      =     483.89725353 Ry
     xc contribution           =    -491.50925903 Ry
     ewald contribution        =   -1653.96634398 Ry
     one-center paw contrib.   =   -3752.55211076 Ry

     convergence has been achieved in   4 iterations

     Forces acting on atoms (cartesian axes, Ry/au):

     atom    1 type  1   force =     0.00000000    0.00000000   -0.00097705
     atom    2 type  1   force =     0.00000000    0.00000000   -0.00094531
     atom    3 type  1   force =     0.00000000    0.00000000   -0.00096584
     atom    4 type  1   force =     0.00000000    0.00000000   -0.00095186
     atom    5 type  1   force =     0.00000000    0.00000000   -0.00096584
     atom    6 type  1   force =     0.00000000    0.00000000   -0.00095186
     atom    7 type  1   force =     0.00000000    0.00000000   -0.00098139
     atom    8 type  1   force =     0.00000000    0.00000000   -0.00094372
     atom    9 type  2   force =    -0.00000077   -0.00000077    0.00023856
     atom   10 type  2   force =    -0.00000140   -0.00000140    0.00024701
     atom   11 type  2   force =    -0.00000077    0.00000077    0.00023856
     atom   12 type  2   force =    -0.00000140    0.00000140    0.00024701
     atom   13 type  2   force =     0.00000077   -0.00000077    0.00023856
     atom   14 type  2   force =     0.00000140   -0.00000140    0.00024701
     atom   15 type  2   force =     0.00000077    0.00000077    0.00023856
     atom   16 type  2   force =     0.00000140    0.00000140    0.00024701
     atom   17 type  3   force =    -0.00000142   -0.00000142   -0.00014191
     atom   18 type  3   force =    -0.00000237   -0.00000237   -0.00013305
     atom   19 type  3   force =    -0.00000142    0.00000142   -0.00014191
     atom   20 type  3   force =    -0.00000237    0.00000237   -0.00013305
     atom   21 type  3   force =     0.00000142   -0.00000142   -0.00014191
     atom   22 type  3   force =     0.00000237   -0.00000237   -0.00013305
     atom   23 type  3   force =     0.00000142    0.00000142   -0.00014191
     atom   24 type  3   force =     0.00000237    0.00000237   -0.00013305
     atom   25 type  3   force =    -0.00000184    0.00000000    0.00042192
     atom   26 type  3   force =    -0.00000555    0.00000000    0.00042618
     atom   27 type  3   force =     0.00000078    0.00000000    0.00042648
     atom   28 type  3   force =     0.00000310    0.00000000    0.00043552
     atom   29 type  3   force =     0.00000184    0.00000000    0.00042192
     atom   30 type  3   force =     0.00000555    0.00000000    0.00042618
     atom   31 type  3   force =    -0.00000078    0.00000000    0.00042648
     atom   32 type  3   force =    -0.00000310    0.00000000    0.00043552
     atom   33 type  3   force =     0.00000000   -0.00000184    0.00042192
     atom   34 type  3   force =     0.00000000   -0.00000555    0.00042618
     atom   35 type  3   force =     0.00000000    0.00000184    0.00042192
     atom   36 type  3   force =     0.00000000    0.00000555    0.00042618
     atom   37 type  3   force =     0.00000000    0.00000078    0.00042648
     atom   38 type  3   force =     0.00000000    0.00000310    0.00043552
     atom   39 type  3   force =     0.00000000   -0.00000078    0.00042648
     atom   40 type  3   force =     0.00000000   -0.00000310    0.00043552

     Total force =     0.003306     Total SCF correction =     0.000006


     Computing stress (Cartesian axis) and pressure

          total   stress  (Ry/bohr**3)                   (kbar)     P=       40.16
   0.00024369   0.00000000   0.00000000           35.85        0.00        0.00
   0.00000000   0.00024369   0.00000000            0.00       35.85        0.00
   0.00000000   0.00000000   0.00033160            0.00        0.00       48.78


     Writing all to output data dir ./tmp/70_ecut_6_kmesh_PBE.save/ :
     XML data file, charge density, pseudopotentials, collected wavefunctions

     init_run     :      1.94s CPU      3.50s WALL (       1 calls)
     electrons    :     17.54s CPU     18.09s WALL (       1 calls)
     forces       :      0.73s CPU      0.76s WALL (       1 calls)
     stress       :      1.89s CPU      1.96s WALL (       1 calls)

     Called by init_run:
     wfcinit      :      0.65s CPU      2.14s WALL (       1 calls)
     potinit      :      0.18s CPU      0.21s WALL (       1 calls)
     hinit0       :      0.76s CPU      0.77s WALL (       1 calls)

     Called by electrons:
     c_bands      :     14.98s CPU     15.37s WALL (       5 calls)
     sum_band     :      1.87s CPU      1.94s WALL (       5 calls)
     v_of_rho     :      0.15s CPU      0.17s WALL (       5 calls)
     newd         :      0.16s CPU      0.17s WALL (       5 calls)
     PAW_pot      :      0.23s CPU      0.23s WALL (       5 calls)
     mix_rho      :      0.01s CPU      0.01s WALL (       5 calls)

     Called by c_bands:
     init_us_2    :      0.39s CPU      0.40s WALL (      60 calls)
     cegterg      :     13.56s CPU     13.93s WALL (      25 calls)

     Called by *egterg:
     cdiaghg      :      2.11s CPU      2.19s WALL (     115 calls)
     h_psi        :      7.04s CPU      7.19s WALL (     125 calls)
     s_psi        :      0.98s CPU      0.99s WALL (     125 calls)
     g_psi        :      0.02s CPU      0.02s WALL (     100 calls)

     Called by h_psi:
     h_psi:calbec :      1.30s CPU      1.34s WALL (     125 calls)
     vloc_psi     :      4.70s CPU      4.77s WALL (     125 calls)
                                        0.00s GPU  (     125 calls)
     add_vuspsi   :      0.99s CPU      1.01s WALL (     125 calls)

     General routines
     calbec       :      3.55s CPU      3.68s WALL (     235 calls)
     fft          :      0.83s CPU      0.87s WALL (      89 calls)
     ffts         :      0.08s CPU      0.09s WALL (      10 calls)
     fftw         :      5.39s CPU      5.48s WALL (   28566 calls)
     interpolate  :      0.09s CPU      0.09s WALL (       5 calls)

     Parallel routines

     PWSCF        :     23.63s CPU     27.61s WALL


   This run was terminated on:   0:15:17  21May2026            

=------------------------------------------------------------------------------=
   JOB DONE.
=------------------------------------------------------------------------------=
