
     Program PWSCF v.7.5 starts on 21May2026 at  0:13:15 

     This program is part of the open-source Quantum ESPRESSO suite
     for quantum simulation of materials; please cite
         "P. Giannozzi et al., J. Phys.:Condens. Matter 21 395502 (2009);
         "P. Giannozzi et al., J. Phys.:Condens. Matter 29 465901 (2017);
         "P. Giannozzi et al., J. Chem. Phys. 152 154105 (2020);
          URL http://www.quantum-espresso.org", 
     in publications or presentations arising from this work. More details at
     http://www.quantum-espresso.org/quote

     Parallel version (MPI & OpenMP), running on     192 processor cores
     Number of MPI processes:               192
     Threads/MPI process:                     1

     MPI processes distributed on     1 nodes
     422215 MiB available memory on the printing compute node when the environment starts

     Waiting for input...
     Reading input from standard input

     Current dimensions of program PWSCF are:
     Max number of different atomic species (ntypx) = 10
     Max number of k-points (npk) =  40000
     Max angular momentum in pseudopotentials (lmaxx) =  4
     file Ba.pbe-spn-kjpaw_psl.1.0.0.UPF: wavefunction(s)  5S 6S renormalized
     file Ti.pbe-spn-kjpaw_psl.1.0.0.UPF: wavefunction(s)  3S 3P 3D renormalized
     file O.pbe-n-kjpaw_psl.1.0.0.UPF: wavefunction(s)  2S 2P renormalized

     IMPORTANT: XC functional enforced from input :
     Exchange-correlation= PBE
                           (   1   4   3   4   0   0   0)
     Any further DFT definition will be discarded
     Please, verify this is what you really want

     Found identity + ( -0.5000 -0.5000  0.0000) symmetry
     This is a supercell, fractional translations are disabled

     K-points division:     npool     =       8
     R & G space division:  proc/nbgrp/npool/nimage =      24
     Subspace diagonalization in iterative solution of the eigenvalue problem:
     one sub-group per band group will be used
     ELPA distributed-memory algorithm (size of sub-group:  2*  2 procs)


     Parallelization info
     --------------------
     sticks:   dense  smooth     PW     G-vecs:    dense   smooth      PW
     Min         240     120     33                13981     4944     727
     Max         242     122     34                13987     4947     732
     Sum        5785    2893    805               335575   118681   17493

     Using Slab Decomposition



     bravais-lattice index     =            6
     lattice parameter (alat)  =      15.0876  a.u.
     unit-cell volume          =    3472.3239 (a.u.)^3
     number of atoms/cell      =           40
     number of atomic types    =            3
     number of electrons       =       320.00
     number of Kohn-Sham states=          200
     kinetic-energy cutoff     =      40.0000  Ry
     charge density cutoff     =     320.0000  Ry
     scf convergence threshold =      1.0E-10
     mixing beta               =       0.3000
     number of iterations used =           16  plain     mixing
     Exchange-correlation= PBE
                           (   1   4   3   4   0   0   0)

     celldm(1)=  15.087600  celldm(2)=   0.000000  celldm(3)=   1.011020
     celldm(4)=   0.000000  celldm(5)=   0.000000  celldm(6)=   0.000000

     crystal axes: (cart. coord. in units of alat)
               a(1) = (   1.000000   0.000000   0.000000 )  
               a(2) = (   0.000000   1.000000   0.000000 )  
               a(3) = (   0.000000   0.000000   1.011020 )  

     reciprocal axes: (cart. coord. in units 2 pi/alat)
               b(1) = (  1.000000  0.000000  0.000000 )  
               b(2) = (  0.000000  1.000000  0.000000 )  
               b(3) = (  0.000000  0.000000  0.989100 )  


     PseudoPot. # 1 for Ba read from file:
     /home/kylay/scratch/BTO/pseuds/Ba.pbe-spn-kjpaw_psl.1.0.0.UPF
     MD5 check sum: 7cfe25f1fe7574a4710541d5a11d6531
     Pseudo is Projector augmented-wave + core cor, Zval = 10.0
     Generated using &quot;atomic&quot; code by A. Dal Corso  v.6.2.2
     Shape of augmentation charge: PSQ
     Using radial grid of 1251 points,  7 beta functions with: 
                l(1) =   0
                l(2) =   0
                l(3) =   0
                l(4) =   1
                l(5) =   1
                l(6) =   2
                l(7) =   2
     Q(r) pseudized with 0 coefficients 


     PseudoPot. # 2 for Ti read from file:
     /home/kylay/scratch/BTO/pseuds/Ti.pbe-spn-kjpaw_psl.1.0.0.UPF
     MD5 check sum: 01f69b0d8ba4438b2e03ac6ea4af1c0b
     Pseudo is Projector augmented-wave + core cor, Zval = 12.0
     Generated using &quot;atomic&quot; code by A. Dal Corso  v.6.2.2
     Shape of augmentation charge: PSQ
     Using radial grid of 1177 points,  6 beta functions with: 
                l(1) =   0
                l(2) =   0
                l(3) =   1
                l(4) =   1
                l(5) =   2
                l(6) =   2
     Q(r) pseudized with 0 coefficients 


     PseudoPot. # 3 for O  read from file:
     /home/kylay/scratch/BTO/pseuds/O.pbe-n-kjpaw_psl.1.0.0.UPF
     MD5 check sum: e99d9cef9b487d1ca56f5b95ecd0fd7a
     Pseudo is Projector augmented-wave + core cor, Zval =  6.0
     Generated using &quot;atomic&quot; code by A. Dal Corso  v.6.3
     Shape of augmentation charge: PSQ
     Using radial grid of 1095 points,  4 beta functions with: 
                l(1) =   0
                l(2) =   0
                l(3) =   1
                l(4) =   1
     Q(r) pseudized with 0 coefficients 


     atomic species   valence    mass     pseudopotential
     Ba               10.00   137.32700     Ba( 1.00)
     Ti               12.00    47.86700     Ti( 1.00)
     O                 6.00    15.99900     O ( 1.00)

      8 Sym. Ops. (no inversion) found



   Cartesian axes

     site n.     atom                  positions (alat units)
         1        Ba     tau(   1) = (   0.0000000   0.0000000  -0.0010787  )
         2        Ba     tau(   2) = (   0.0000000   0.0000000   0.5044220  )
         3        Ba     tau(   3) = (   0.0000000   0.5000000  -0.0010832  )
         4        Ba     tau(   4) = (   0.0000000   0.5000000   0.5044235  )
         5        Ba     tau(   5) = (   0.5000000   0.0000000  -0.0010832  )
         6        Ba     tau(   6) = (   0.5000000   0.0000000   0.5044235  )
         7        Ba     tau(   7) = (   0.5000000   0.5000000  -0.0010766  )
         8        Ba     tau(   8) = (   0.5000000   0.5000000   0.5044202  )
         9        Ti     tau(   9) = (   0.2500002   0.2500002   0.2436990  )
        10        Ti     tau(  10) = (   0.2500007   0.2500007   0.7492042  )
        11        Ti     tau(  11) = (   0.2500002   0.7499998   0.2436990  )
        12        Ti     tau(  12) = (   0.2500007   0.7499993   0.7492042  )
        13        Ti     tau(  13) = (   0.7499998   0.2500002   0.2436990  )
        14        Ti     tau(  14) = (   0.7499993   0.2500007   0.7492042  )
        15        Ti     tau(  15) = (   0.7499998   0.7499998   0.2436990  )
        16        Ti     tau(  16) = (   0.7499993   0.7499993   0.7492042  )
        17        O      tau(  17) = (   0.2500011   0.2500011   0.0113903  )
        18        O      tau(  18) = (   0.2500007   0.2500007   0.5168954  )
        19        O      tau(  19) = (   0.2500011   0.7499989   0.0113903  )
        20        O      tau(  20) = (   0.2500007   0.7499993   0.5168954  )
        21        O      tau(  21) = (   0.7499989   0.2500011   0.0113903  )
        22        O      tau(  22) = (   0.7499993   0.2500007   0.5168954  )
        23        O      tau(  23) = (   0.7499989   0.7499989   0.0113903  )
        24        O      tau(  24) = (   0.7499993   0.7499993   0.5168954  )
        25        O      tau(  25) = (   0.2500005   0.0000000   0.2592128  )
        26        O      tau(  26) = (   0.2500020   0.0000000   0.7647195  )
        27        O      tau(  27) = (   0.2499999   0.5000000   0.2592107  )
        28        O      tau(  28) = (   0.2499998   0.5000000   0.7647148  )
        29        O      tau(  29) = (   0.7499995   0.0000000   0.2592128  )
        30        O      tau(  30) = (   0.7499980   0.0000000   0.7647195  )
        31        O      tau(  31) = (   0.7500001   0.5000000   0.2592107  )
        32        O      tau(  32) = (   0.7500002   0.5000000   0.7647148  )
        33        O      tau(  33) = (   0.0000000   0.2500005   0.2592128  )
        34        O      tau(  34) = (   0.0000000   0.2500020   0.7647195  )
        35        O      tau(  35) = (   0.0000000   0.7499995   0.2592128  )
        36        O      tau(  36) = (   0.0000000   0.7499980   0.7647195  )
        37        O      tau(  37) = (   0.5000000   0.2499999   0.2592107  )
        38        O      tau(  38) = (   0.5000000   0.2499998   0.7647148  )
        39        O      tau(  39) = (   0.5000000   0.7500001   0.2592107  )
        40        O      tau(  40) = (   0.5000000   0.7500002   0.7647148  )

     number of k points=    75
                       cart. coord. in units 2pi/alat
        k(    1) = (   0.0000000   0.0000000   0.0000000), wk =   0.0039062
        k(    2) = (   0.0000000   0.0000000   0.1236375), wk =   0.0078125
        k(    3) = (   0.0000000   0.0000000   0.2472750), wk =   0.0078125
        k(    4) = (   0.0000000   0.0000000   0.3709125), wk =   0.0078125
        k(    5) = (   0.0000000   0.0000000  -0.4945501), wk =   0.0039062
        k(    6) = (   0.0000000   0.1250000   0.0000000), wk =   0.0156250
        k(    7) = (   0.0000000   0.1250000   0.1236375), wk =   0.0312500
        k(    8) = (   0.0000000   0.1250000   0.2472750), wk =   0.0312500
        k(    9) = (   0.0000000   0.1250000   0.3709125), wk =   0.0312500
        k(   10) = (   0.0000000   0.1250000  -0.4945501), wk =   0.0156250
        k(   11) = (   0.0000000   0.2500000   0.0000000), wk =   0.0156250
        k(   12) = (   0.0000000   0.2500000   0.1236375), wk =   0.0312500
        k(   13) = (   0.0000000   0.2500000   0.2472750), wk =   0.0312500
        k(   14) = (   0.0000000   0.2500000   0.3709125), wk =   0.0312500
        k(   15) = (   0.0000000   0.2500000  -0.4945501), wk =   0.0156250
        k(   16) = (   0.0000000   0.3750000   0.0000000), wk =   0.0156250
        k(   17) = (   0.0000000   0.3750000   0.1236375), wk =   0.0312500
        k(   18) = (   0.0000000   0.3750000   0.2472750), wk =   0.0312500
        k(   19) = (   0.0000000   0.3750000   0.3709125), wk =   0.0312500
        k(   20) = (   0.0000000   0.3750000  -0.4945501), wk =   0.0156250
        k(   21) = (   0.0000000  -0.5000000   0.0000000), wk =   0.0078125
        k(   22) = (   0.0000000  -0.5000000   0.1236375), wk =   0.0156250
        k(   23) = (   0.0000000  -0.5000000   0.2472750), wk =   0.0156250
        k(   24) = (   0.0000000  -0.5000000   0.3709125), wk =   0.0156250
        k(   25) = (   0.0000000  -0.5000000  -0.4945501), wk =   0.0078125
        k(   26) = (   0.1250000   0.1250000   0.0000000), wk =   0.0156250
        k(   27) = (   0.1250000   0.1250000   0.1236375), wk =   0.0312500
        k(   28) = (   0.1250000   0.1250000   0.2472750), wk =   0.0312500
        k(   29) = (   0.1250000   0.1250000   0.3709125), wk =   0.0312500
        k(   30) = (   0.1250000   0.1250000  -0.4945501), wk =   0.0156250
        k(   31) = (   0.1250000   0.2500000   0.0000000), wk =   0.0312500
        k(   32) = (   0.1250000   0.2500000   0.1236375), wk =   0.0625000
        k(   33) = (   0.1250000   0.2500000   0.2472750), wk =   0.0625000
        k(   34) = (   0.1250000   0.2500000   0.3709125), wk =   0.0625000
        k(   35) = (   0.1250000   0.2500000  -0.4945501), wk =   0.0312500
        k(   36) = (   0.1250000   0.3750000   0.0000000), wk =   0.0312500
        k(   37) = (   0.1250000   0.3750000   0.1236375), wk =   0.0625000
        k(   38) = (   0.1250000   0.3750000   0.2472750), wk =   0.0625000
        k(   39) = (   0.1250000   0.3750000   0.3709125), wk =   0.0625000
        k(   40) = (   0.1250000   0.3750000  -0.4945501), wk =   0.0312500
        k(   41) = (   0.1250000  -0.5000000   0.0000000), wk =   0.0156250
        k(   42) = (   0.1250000  -0.5000000   0.1236375), wk =   0.0312500
        k(   43) = (   0.1250000  -0.5000000   0.2472750), wk =   0.0312500
        k(   44) = (   0.1250000  -0.5000000   0.3709125), wk =   0.0312500
        k(   45) = (   0.1250000  -0.5000000  -0.4945501), wk =   0.0156250
        k(   46) = (   0.2500000   0.2500000   0.0000000), wk =   0.0156250
        k(   47) = (   0.2500000   0.2500000   0.1236375), wk =   0.0312500
        k(   48) = (   0.2500000   0.2500000   0.2472750), wk =   0.0312500
        k(   49) = (   0.2500000   0.2500000   0.3709125), wk =   0.0312500
        k(   50) = (   0.2500000   0.2500000  -0.4945501), wk =   0.0156250
        k(   51) = (   0.2500000   0.3750000   0.0000000), wk =   0.0312500
        k(   52) = (   0.2500000   0.3750000   0.1236375), wk =   0.0625000
        k(   53) = (   0.2500000   0.3750000   0.2472750), wk =   0.0625000
        k(   54) = (   0.2500000   0.3750000   0.3709125), wk =   0.0625000
        k(   55) = (   0.2500000   0.3750000  -0.4945501), wk =   0.0312500
        k(   56) = (   0.2500000  -0.5000000   0.0000000), wk =   0.0156250
        k(   57) = (   0.2500000  -0.5000000   0.1236375), wk =   0.0312500
        k(   58) = (   0.2500000  -0.5000000   0.2472750), wk =   0.0312500
        k(   59) = (   0.2500000  -0.5000000   0.3709125), wk =   0.0312500
        k(   60) = (   0.2500000  -0.5000000  -0.4945501), wk =   0.0156250
        k(   61) = (   0.3750000   0.3750000   0.0000000), wk =   0.0156250
        k(   62) = (   0.3750000   0.3750000   0.1236375), wk =   0.0312500
        k(   63) = (   0.3750000   0.3750000   0.2472750), wk =   0.0312500
        k(   64) = (   0.3750000   0.3750000   0.3709125), wk =   0.0312500
        k(   65) = (   0.3750000   0.3750000  -0.4945501), wk =   0.0156250
        k(   66) = (   0.3750000  -0.5000000   0.0000000), wk =   0.0156250
        k(   67) = (   0.3750000  -0.5000000   0.1236375), wk =   0.0312500
        k(   68) = (   0.3750000  -0.5000000   0.2472750), wk =   0.0312500
        k(   69) = (   0.3750000  -0.5000000   0.3709125), wk =   0.0312500
        k(   70) = (   0.3750000  -0.5000000  -0.4945501), wk =   0.0156250
        k(   71) = (  -0.5000000  -0.5000000   0.0000000), wk =   0.0039062
        k(   72) = (  -0.5000000  -0.5000000   0.1236375), wk =   0.0078125
        k(   73) = (  -0.5000000  -0.5000000   0.2472750), wk =   0.0078125
        k(   74) = (  -0.5000000  -0.5000000   0.3709125), wk =   0.0078125
        k(   75) = (  -0.5000000  -0.5000000  -0.4945501), wk =   0.0039062

     Dense  grid:   335575 G-vectors     FFT dimensions: (  90,  90,  90)

     Smooth grid:   118681 G-vectors     FFT dimensions: (  64,  64,  64)

     Estimated max dynamical RAM per process >      57.96 MB

     Estimated total dynamical RAM >       9.75 GB

     Check: negative core charge=   -0.000007

     The initial density is read from file :
     ./tmp/40_ecut_8_kmesh_PBE.save/charge-density

     Starting wfcs from file
     Checking if some PAW data can be deallocated... 

     total cpu time spent up to now is        4.7 secs

     per-process dynamical memory:   122.4 Mb

     Self-consistent Calculation

     iteration #  1     ecut=    40.00 Ry     beta= 0.30
     Davidson diagonalization with overlap
     ethr =  1.00E-05,  avg # of iterations =  1.2

     Threshold (ethr) on eigenvalues was too large:
     Diagonalizing with lowered threshold

     Davidson diagonalization with overlap
     ethr =  1.15E-11,  avg # of iterations =  2.2

     total cpu time spent up to now is       10.4 secs

     total energy              =   -5964.46993234 Ry
     estimated scf accuracy    <       0.00000004 Ry

     iteration #  2     ecut=    40.00 Ry     beta= 0.30
     Davidson diagonalization with overlap
     ethr =  1.32E-11,  avg # of iterations =  2.0

     total cpu time spent up to now is       13.3 secs

     total energy              =   -5964.46993234 Ry
     estimated scf accuracy    <          7.6E-09 Ry

     iteration #  3     ecut=    40.00 Ry     beta= 0.30
     Davidson diagonalization with overlap
     ethr =  2.38E-12,  avg # of iterations =  3.1

     total cpu time spent up to now is       16.7 secs

     total energy              =   -5964.46993235 Ry
     estimated scf accuracy    <          3.6E-10 Ry

     iteration #  4     ecut=    40.00 Ry     beta= 0.30
     Davidson diagonalization with overlap
     ethr =  1.13E-13,  avg # of iterations =  5.0

     total cpu time spent up to now is       21.5 secs

     total energy              =   -5964.46993235 Ry
     estimated scf accuracy    <          1.6E-10 Ry

     iteration #  5     ecut=    40.00 Ry     beta= 0.30
     Davidson diagonalization with overlap
     ethr =  1.00E-13,  avg # of iterations =  1.0

     total cpu time spent up to now is       24.0 secs

     End of self-consistent calculation

          k = 0.0000 0.0000 0.0000 ( 14883 PWs)   bands (ev):

   -46.1464 -46.1455 -46.1453 -46.1453 -46.1444 -46.1444 -46.1441 -46.1433
   -22.4757 -22.4722 -22.4722 -22.4696 -22.4275 -22.4254 -22.4254 -22.4234
   -22.4209 -22.4209 -22.4177 -22.4177 -22.4174 -22.4174 -22.4151 -22.4151
   -22.3670 -22.3670 -22.3652 -22.3652 -22.3650 -22.3650 -22.3633 -22.3633
   -14.4514 -14.3397 -14.3302 -14.3302 -14.2607 -14.2606 -14.2527 -14.1922
    -6.7789  -6.7789  -6.7263  -6.5365  -6.2588  -6.1452  -6.1452  -5.9116
    -5.9116  -5.9103  -5.8497  -5.8497  -5.8154  -5.7833  -5.7517  -5.7517
    -5.7487  -5.7487  -5.7412  -5.6752  -5.5814  -5.5814  -5.5197  -5.5197
    -0.3485  -0.3485  -0.2864   0.3042   0.3042   0.3203   0.3203   0.3709
     0.3760   0.3760   0.3804   0.3804   0.5338   0.5338   0.5387   0.5387
     0.5555   0.5555   0.7445   0.7487   0.7487   0.7678   0.7678   0.8117
     5.9179   6.0802   6.1028   6.1028   6.2977   6.2977   6.3357   6.3519
     6.4124   6.4124   6.5618   6.5630   6.5630   6.5890   6.6061   7.5282
     7.5282   7.5780   7.5780   7.6255   7.6255   7.6264   7.6264   7.6424
     7.6424   7.7414   7.7414   7.9272   7.9272   7.9566   8.0511   8.0858
     8.0858   8.0952   8.0952   8.3907   8.3907   8.4596   8.4609   8.4747
     8.4747   8.5563   8.5563   8.6155   8.6905   8.6906   8.7209   8.7209
     9.0558   9.0558   9.2326   9.3487   9.3487   9.3818   9.3818   9.4778
     9.4778   9.4846   9.4846   9.5057   9.5057   9.7198   9.7198  10.0013
    10.0703  10.0703  10.1823  10.1823  10.2504  10.2504  10.3451  10.4129
    12.2493  12.3993  12.5646  12.5646  12.6827  12.6827  13.9651  13.9651
    13.9954  13.9954  14.0236  14.0236  14.0294  14.0294  14.0436  14.0436
    14.0514  14.0514  14.3947  14.3947  14.4266  14.4841  14.4898  14.5704
    14.5704  14.6314  14.6314  14.6380  14.6446  15.1176  15.3167  15.3167
    15.3478  15.4942  16.3234  16.3234  16.5225  16.9027  17.1112  17.3462

          k = 0.0000 0.0000 0.1236 ( 14867 PWs)   bands (ev):

   -46.1464 -46.1455 -46.1453 -46.1453 -46.1444 -46.1444 -46.1441 -46.1433
   -22.4739 -22.4704 -22.4704 -22.4678 -22.4294 -22.4272 -22.4272 -22.4252
   -22.4208 -22.4208 -22.4178 -22.4178 -22.4174 -22.4174 -22.4152 -22.4152
   -22.3669 -22.3669 -22.3652 -22.3652 -22.3649 -22.3649 -22.3634 -22.3634
   -14.4472 -14.3440 -14.3276 -14.3276 -14.2633 -14.2633 -14.2504 -14.1945
    -6.7601  -6.7601  -6.7138  -6.5349  -6.2404  -6.1861  -6.1861  -5.9120
    -5.8934  -5.8934  -5.8475  -5.8475  -5.8142  -5.7845  -5.7624  -5.7428
    -5.7428  -5.7427  -5.7427  -5.6913  -5.5882  -5.5882  -5.5284  -5.5284
    -0.3250  -0.3250  -0.2537   0.2778   0.2778   0.3357   0.3357   0.3807
     0.3807   0.3860   0.3860   0.3880   0.5277   0.5277   0.5308   0.5308
     0.5625   0.5625   0.6960   0.7409   0.7409   0.7492   0.7492   0.7951
     5.9452   6.0811   6.1368   6.1368   6.3384   6.3384   6.3969   6.4052
     6.4052   6.4228   6.5896   6.5942   6.5942   6.6052   6.6056   7.5314
     7.5314   7.5767   7.5767   7.6146   7.6146   7.6491   7.6491   7.6626
     7.6626   7.7715   7.7715   7.9006   7.9006   7.9019   7.9242   7.9242
     7.9812   8.0748   8.0748   8.4038   8.4038   8.4836   8.5041   8.5054
     8.5097   8.5098   8.5226   8.5226   8.7097   8.7097   8.9127   8.9127
     9.0117   9.0117   9.1981   9.3149   9.3150   9.4024   9.4024   9.4230
     9.4230   9.4505   9.4505   9.4677   9.4677   9.7318   9.7318   9.9112
    10.0556  10.0556  10.1617  10.1617  10.2051  10.2051  10.3475  10.4103
    12.2548  12.3934  12.6284  12.6284  12.7410  12.7410  13.9663  13.9663
    13.9775  13.9775  13.9953  13.9953  13.9965  13.9965  14.0249  14.0249
    14.0692  14.0692  14.3702  14.3702  14.4356  14.4838  14.4869  14.6051
    14.6051  14.6292  14.6484  14.6484  14.7436  15.2400  15.3137  15.3137
    15.4224  15.5679  16.3682  16.3682  16.4732  16.9025  17.2075  17.2635

          k = 0.0000 0.0000 0.2473 ( 14835 PWs)   bands (ev):

   -46.1463 -46.1456 -46.1452 -46.1452 -46.1445 -46.1445 -46.1440 -46.1434
   -22.4687 -22.4654 -22.4654 -22.4628 -22.4346 -22.4323 -22.4323 -22.4301
   -22.4204 -22.4204 -22.4182 -22.4182 -22.4171 -22.4171 -22.4155 -22.4155
   -22.3668 -22.3668 -22.3654 -22.3654 -22.3647 -22.3647 -22.3635 -22.3635
   -14.4354 -14.3564 -14.3202 -14.3202 -14.2710 -14.2710 -14.2439 -14.2012
    -6.7056  -6.7056  -6.6792  -6.5354  -6.2804  -6.2804  -6.1873  -5.9109
    -5.8632  -5.8632  -5.8422  -5.8422  -5.8218  -5.8107  -5.7880  -5.7352
    -5.7256  -5.7256  -5.7174  -5.7174  -5.6074  -5.6074  -5.5533  -5.5533
    -0.2575  -0.2575  -0.1585   0.2032   0.2032   0.3803   0.3803   0.3946
     0.3947   0.4020   0.4020   0.4364   0.5092   0.5093   0.5104   0.5104
     0.5635   0.5825   0.5825   0.6968   0.6968   0.7190   0.7190   0.7479
     6.0028   6.0829   6.2120   6.2120   6.3856   6.3856   6.4573   6.4573
     6.5713   6.5949   6.6041   6.6170   6.7026   6.7026   6.7490   7.5393
     7.5393   7.5592   7.5592   7.5604   7.5604   7.5735   7.5735   7.7135
     7.7135   7.7173   7.7173   7.7441   7.7854   7.8556   7.8556   7.9124
     7.9124   8.0412   8.0412   8.2089   8.4287   8.4287   8.4444   8.4444
     8.5572   8.6230   8.6231   8.6311   8.7658   8.7658   8.8993   8.8993
     9.1010   9.2219   9.2219   9.2321   9.2321   9.2889   9.2889   9.3568
     9.3568   9.3758   9.3758   9.4664   9.4664   9.6825   9.7644   9.7644
    10.0138  10.0138  10.0802  10.0802  10.0927  10.0927  10.3564  10.4027
    12.2696  12.3750  12.8066  12.8066  12.9021  12.9021  13.8324  13.8324
    13.8592  13.8592  13.9720  13.9720  13.9962  13.9962  14.0387  14.0387
    14.1286  14.1286  14.2992  14.2993  14.4575  14.4858  14.4864  14.5323
    14.5323  14.6043  14.8337  14.8337  15.0186  15.2979  15.2979  15.5756
    15.6336  15.7823  16.3174  16.5111  16.5111  16.8752  17.0353  17.4637

          k = 0.0000 0.0000 0.3709 ( 14798 PWs)   bands (ev):

   -46.1461 -46.1458 -46.1450 -46.1450 -46.1446 -46.1446 -46.1438 -46.1435
   -22.4610 -22.4578 -22.4578 -22.4553 -22.4424 -22.4399 -22.4399 -22.4377
   -22.4199 -22.4199 -22.4187 -22.4187 -22.4167 -22.4167 -22.4158 -22.4158
   -22.3664 -22.3664 -22.3658 -22.3658 -22.3644 -22.3644 -22.3638 -22.3638
   -14.4175 -14.3748 -14.3090 -14.3090 -14.2824 -14.2824 -14.2342 -14.2110
    -6.6313  -6.6206  -6.6206  -6.5494  -6.3957  -6.3957  -6.1066  -5.9090
    -5.8941  -5.8427  -5.8427  -5.8365  -5.8365  -5.8055  -5.7949  -5.7932
    -5.6994  -5.6994  -5.6795  -5.6795  -5.6355  -5.6355  -5.5907  -5.5907
    -0.1551  -0.1551  -0.0097   0.0939   0.0939   0.3784   0.4172   0.4172
     0.4263   0.4263   0.4491   0.4491   0.4791   0.4791   0.4849   0.4849
     0.5085   0.6128   0.6128   0.6203   0.6203   0.6769   0.6866   0.6866
     6.0507   6.0826   6.2805   6.2805   6.3585   6.3585   6.5976   6.6030
     6.6503   6.6503   6.8373   6.8946   6.9081   6.9081   7.0171   7.2157
     7.2157   7.4126   7.4126   7.4963   7.5027   7.5495   7.5495   7.5672
     7.5672   7.7848   7.7848   7.8041   7.8041   7.8089   7.8883   7.8883
     7.9828   7.9828   7.9844   7.9844   8.2917   8.2917   8.5153   8.5153
     8.6689   8.7573   8.7573   8.7931   8.7931   8.8319   8.8542   8.8543
     8.9648   9.0985   9.0985   9.1910   9.1910   9.1949   9.1949   9.2784
     9.2784   9.3891   9.5330   9.5330   9.5770   9.5770   9.8174   9.8174
     9.9107   9.9107   9.9542   9.9542   9.9692   9.9692  10.3679  10.3925
    12.2968  12.3502  13.0618  13.0618  13.1325  13.1325  13.6082  13.6082
    13.6484  13.6484  13.9769  13.9769  13.9907  13.9907  14.0669  14.0669
    14.2102  14.2102  14.2170  14.2170  14.4373  14.4373  14.4858  14.4902
    14.4924  14.5701  15.0307  15.0307  15.2576  15.2576  15.3768  15.9486
    16.0148  16.0603  16.1182  16.7019  16.7479  16.7657  16.7657  17.0121

          k = 0.0000 0.0000-0.4946 ( 14774 PWs)   bands (ev):

   -46.1459 -46.1459 -46.1448 -46.1448 -46.1448 -46.1448 -46.1437 -46.1437
   -22.4517 -22.4517 -22.4488 -22.4488 -22.4488 -22.4488 -22.4465 -22.4465
   -22.4193 -22.4193 -22.4193 -22.4193 -22.4163 -22.4163 -22.4163 -22.4163
   -22.3661 -22.3661 -22.3661 -22.3661 -22.3641 -22.3641 -22.3641 -22.3641
   -14.3963 -14.3962 -14.2958 -14.2958 -14.2957 -14.2957 -14.2227 -14.2226
    -6.5834  -6.5833  -6.5137  -6.5137  -6.5136  -6.5136  -6.0092  -6.0091
    -5.8533  -5.8532  -5.8350  -5.8350  -5.8350  -5.8350  -5.7994  -5.7993
    -5.6679  -5.6679  -5.6678  -5.6678  -5.6351  -5.6350  -5.6349  -5.6349
    -0.0321  -0.0321  -0.0320  -0.0320   0.1769   0.1771   0.4465   0.4466
     0.4466   0.4466   0.4553   0.4553   0.4553   0.4553   0.5331   0.5331
     0.5331   0.5331   0.5929   0.5930   0.6493   0.6493   0.6493   0.6493
     6.0746   6.0748   6.3262   6.3262   6.3263   6.3263   6.6002   6.6002
     6.9071   6.9071   6.9072   6.9072   7.1620   7.1622   7.1727   7.1727
     7.1728   7.1728   7.2060   7.2061   7.3871   7.3872   7.5591   7.5591
     7.5593   7.5593   7.8453   7.8453   7.8453   7.8453   7.9007   7.9007
     7.9009   7.9009   8.1357   8.1357   8.1358   8.1358   8.6215   8.6215
     8.6216   8.6216   8.8102   8.8104   8.9696   8.9696   8.9696   8.9697
     8.9933   8.9934   8.9934   8.9934   9.0934   9.0935   9.2011   9.2011
     9.2012   9.2012   9.7309   9.7309   9.7309   9.7309   9.7836   9.7836
     9.7836   9.7836   9.8840   9.8840   9.8841   9.8841  10.3798  10.3799
    12.3221  12.3222  13.3423  13.3423  13.3424  13.3424  13.3947  13.3947
    13.3948  13.3948  13.9848  13.9848  13.9849  13.9849  14.1296  14.1296
    14.1296  14.1296  14.3218  14.3218  14.3218  14.3218  14.4880  14.4880
    14.5312  14.5312  15.1763  15.1763  15.1763  15.1763  15.7385  15.7386
    16.3213  16.3215  16.4446  16.4448  16.5439  16.5441  17.1100  17.1100

          k = 0.0000 0.1250 0.0000 ( 14863 PWs)   bands (ev):

   -46.1464 -46.1455 -46.1453 -46.1453 -46.1444 -46.1443 -46.1442 -46.1433
   -22.4756 -22.4723 -22.4721 -22.4697 -22.4274 -22.4255 -22.4253 -22.4235
   -22.4207 -22.4188 -22.4176 -22.4176 -22.4157 -22.4155 -22.4152 -22.4132
   -22.3691 -22.3672 -22.3670 -22.3669 -22.3652 -22.3651 -22.3650 -22.3634
   -14.4469 -14.3367 -14.3350 -14.3273 -14.2637 -14.2581 -14.2557 -14.1948
    -6.7656  -6.7611  -6.7074  -6.5384  -6.2818  -6.1737  -6.1253  -5.9075
    -5.9054  -5.9031  -5.8511  -5.8448  -5.8139  -5.7797  -5.7504  -5.7484
    -5.7468  -5.7456  -5.7398  -5.6841  -5.6043  -5.5883  -5.5379  -5.5282
    -0.3245  -0.3170  -0.2594   0.2931   0.3115   0.3200   0.3267   0.3486
     0.3769   0.3868   0.3908   0.3957   0.5237   0.5319   0.5336   0.5415
     0.5485   0.5562   0.6973   0.7365   0.7400   0.7484   0.7534   0.7935
     5.9467   6.1035   6.1142   6.1336   6.3237   6.3298   6.3707   6.3934
     6.4038   6.4729   6.5648   6.5687   6.6153   6.6204   6.6432   7.5507
     7.5562   7.5714   7.6039   7.6047   7.6291   7.6346   7.6392   7.6476
     7.6706   7.7397   7.7599   7.8705   7.9236   7.9571   8.0124   8.0312
     8.0390   8.0492   8.0757   8.1253   8.1923   8.3557   8.5006   8.5078
     8.5629   8.5821   8.6363   8.6906   8.7231   8.7405   8.8195   8.9350
     8.9893   9.0192   9.1924   9.2139   9.3458   9.3592   9.3688   9.4370
     9.4864   9.5003   9.5045   9.5303   9.5433   9.6440   9.6633   9.8953
    10.0267  10.0785  10.1608  10.1865  10.2098  10.2474  10.3204  10.3686
    12.3334  12.4711  12.5703  12.5951  12.6774  12.7106  13.9107  13.9449
    13.9596  13.9735  13.9804  14.0177  14.0248  14.0260  14.0298  14.0433
    14.0458  14.0560  14.3623  14.3923  14.4072  14.5582  14.5756  14.5765
    14.6011  14.6051  14.6243  14.6531  14.6932  15.1253  15.3138  15.4254
    15.4503  15.5706  16.2819  16.3780  16.5684  16.9425  17.1670  17.2089

          k = 0.0000 0.1250 0.1236 ( 14852 PWs)   bands (ev):

   -46.1464 -46.1455 -46.1453 -46.1452 -46.1444 -46.1443 -46.1442 -46.1434
   -22.4737 -22.4706 -22.4703 -22.4679 -22.4293 -22.4273 -22.4271 -22.4253
   -22.4206 -22.4187 -22.4177 -22.4175 -22.4158 -22.4154 -22.4153 -22.4132
   -22.3690 -22.3673 -22.3669 -22.3669 -22.3653 -22.3652 -22.3650 -22.3634
   -14.4428 -14.3410 -14.3323 -14.3247 -14.2665 -14.2607 -14.2534 -14.1972
    -6.7472  -6.7423  -6.6954  -6.5359  -6.2633  -6.2069  -6.1670  -5.9096
    -5.8918  -5.8865  -5.8492  -5.8426  -5.8126  -5.7811  -5.7721  -5.7447
    -5.7384  -5.7372  -5.7343  -5.7000  -5.6082  -5.5944  -5.5464  -5.5363
    -0.3038  -0.3013  -0.2180   0.2836   0.2939   0.3088   0.3356   0.3513
     0.3749   0.3924   0.4008   0.4186   0.5070   0.5168   0.5229   0.5353
     0.5554   0.5795   0.6927   0.6948   0.7294   0.7323   0.7381   0.7798
     5.9754   6.1155   6.1375   6.1701   6.3646   6.3905   6.3970   6.4062
     6.4591   6.4651   6.5956   6.6048   6.6223   6.6435   6.6453   7.5524
     7.5593   7.5649   7.6036   7.6220   7.6294   7.6308   7.6519   7.6584
     7.6899   7.7682   7.7858   7.8342   7.8615   7.9218   7.9385   7.9388
     7.9494   8.0310   8.0655   8.0711   8.1863   8.3692   8.5278   8.5288
     8.5304   8.5425   8.5999   8.7414   8.8352   8.8371   8.9220   8.9279
     8.9691   8.9753   9.1501   9.2063   9.3358   9.3697   9.3793   9.3811
     9.4475   9.4729   9.4817   9.4890   9.4945   9.6586   9.6759   9.8292
    10.0101  10.0422  10.1413  10.1636  10.1651  10.2008  10.3234  10.3696
    12.3380  12.4675  12.6334  12.6541  12.7372  12.7680  13.9131  13.9434
    13.9616  13.9643  13.9743  13.9802  13.9980  14.0068  14.0086  14.0201
    14.0273  14.0670  14.3360  14.3793  14.4031  14.5660  14.5739  14.5770
    14.5915  14.6044  14.6537  14.7357  14.7839  15.2490  15.3083  15.4456
    15.4981  15.6437  16.3265  16.4173  16.5192  16.9539  17.2490  17.3057

          k = 0.0000 0.1250 0.2473 ( 14831 PWs)   bands (ev):

   -46.1462 -46.1456 -46.1452 -46.1451 -46.1445 -46.1445 -46.1440 -46.1434
   -22.4686 -22.4655 -22.4653 -22.4629 -22.4345 -22.4324 -22.4322 -22.4302
   -22.4203 -22.4184 -22.4181 -22.4172 -22.4162 -22.4156 -22.4151 -22.4135
   -22.3688 -22.3675 -22.3667 -22.3667 -22.3655 -22.3654 -22.3648 -22.3636
   -14.4311 -14.3532 -14.3247 -14.3173 -14.2743 -14.2684 -14.2469 -14.2038
    -6.6940  -6.6878  -6.6624  -6.5337  -6.2895  -6.2621  -6.2101  -5.9102
    -5.8694  -5.8560  -5.8445  -5.8369  -5.8364  -5.8089  -5.7850  -5.7430
    -5.7282  -5.7186  -5.7161  -5.7133  -5.6218  -5.6116  -5.5703  -5.5595
    -0.2512  -0.2347  -0.1129   0.2052   0.2202   0.3542   0.3587   0.3600
     0.3847   0.4085   0.4326   0.4684   0.4698   0.4974   0.4981   0.5179
     0.5726   0.5752   0.6079   0.6762   0.6871   0.6946   0.7105   0.7405
     6.0363   6.1177   6.2121   6.2517   6.3789   6.4441   6.4858   6.5124
     6.5629   6.6248   6.6344   6.6403   6.7034   6.7423   6.7548   7.5276
     7.5359   7.5390   7.5565   7.5662   7.5997   7.6070   7.6425   7.6744
     7.6985   7.7026   7.7154   7.7396   7.7584   7.8518   7.8606   7.9154
     7.9155   7.9918   8.0349   8.1598   8.1978   8.2415   8.4091   8.4324
     8.6184   8.6502   8.6521   8.7866   8.7962   8.8632   8.8902   8.9003
     9.0426   9.1581   9.1823   9.2263   9.2452   9.2617   9.3647   9.3711
     9.3950   9.3993   9.4295   9.4401   9.4416   9.6360   9.6989   9.7108
     9.9668   9.9794  10.0431  10.0780  10.0789  10.0919  10.3294  10.3673
    12.3524  12.4511  12.8114  12.8219  12.8966  12.9282  13.8174  13.8316
    13.8549  13.8686  13.9160  13.9434  13.9760  13.9804  14.0137  14.0431
    14.0716  14.1252  14.2624  14.3078  14.4255  14.5015  14.5254  14.5742
    14.5764  14.5791  14.8348  14.9363  15.0540  15.2906  15.4289  15.5837
    15.7039  15.8567  16.3613  16.4701  16.5479  16.9317  17.0779  17.5221

          k = 0.0000 0.1250 0.3709 ( 14820 PWs)   bands (ev):

   -46.1461 -46.1458 -46.1450 -46.1450 -46.1447 -46.1446 -46.1439 -46.1436
   -22.4609 -22.4579 -22.4577 -22.4554 -22.4424 -22.4400 -22.4398 -22.4378
   -22.4198 -22.4186 -22.4179 -22.4168 -22.4167 -22.4159 -22.4148 -22.4139
   -22.3685 -22.3678 -22.3664 -22.3664 -22.3658 -22.3657 -22.3645 -22.3639
   -14.4135 -14.3713 -14.3133 -14.3062 -14.2860 -14.2797 -14.2371 -14.2138
    -6.6172  -6.6114  -6.6028  -6.5435  -6.3961  -6.3777  -6.1288  -5.9275
    -5.8959  -5.8503  -5.8402  -5.8359  -5.8308  -5.8034  -5.8027  -5.7893
    -5.7033  -5.6948  -5.6842  -5.6776  -5.6450  -5.6369  -5.6055  -5.5944
    -0.1580  -0.1338   0.0370   0.0913   0.1121   0.3764   0.3897   0.4033
     0.4070   0.4242   0.4330   0.4331   0.4634   0.4691   0.4871   0.4921
     0.5348   0.5984   0.6053   0.6305   0.6337   0.6741   0.6785   0.6809
     6.0858   6.1171   6.2776   6.3265   6.3531   6.4155   6.6271   6.6334
     6.6798   6.6868   6.8267   6.8999   6.9097   6.9370   7.0143   7.2135
     7.2362   7.4114   7.4435   7.4722   7.4751   7.5628   7.5762   7.5817
     7.5940   7.6935   7.7538   7.7991   7.8053   7.8908   7.8988   7.9140
     7.9284   7.9686   7.9794   7.9801   8.1687   8.2905   8.2935   8.4799
     8.6164   8.7210   8.7323   8.7553   8.7996   8.8836   8.9261   8.9660
     8.9885   9.0574   9.1142   9.1247   9.1953   9.2513   9.2707   9.3088
     9.3328   9.3821   9.5229   9.5465   9.5609   9.5622   9.7614   9.7660
     9.8744   9.9041   9.9084   9.9100   9.9643   9.9646  10.3381  10.3595
    12.3750  12.4295  13.0633  13.0645  13.1300  13.1539  13.5966  13.6112
    13.6449  13.6599  13.9231  13.9353  13.9871  14.0046  14.0141  14.0748
    14.1620  14.1664  14.2120  14.2194  14.3934  14.4291  14.4588  14.5432
    14.5761  14.5771  15.0302  15.1471  15.2516  15.3868  15.4146  16.0106
    16.0233  16.1043  16.1911  16.7260  16.7484  16.7842  16.7900  17.0833

          k = 0.0000 0.1250-0.4946 ( 14810 PWs)   bands (ev):

   -46.1459 -46.1459 -46.1449 -46.1449 -46.1448 -46.1448 -46.1437 -46.1437
   -22.4516 -22.4516 -22.4490 -22.4490 -22.4488 -22.4488 -22.4466 -22.4466
   -22.4192 -22.4192 -22.4173 -22.4173 -22.4164 -22.4164 -22.4143 -22.4143
   -22.3681 -22.3681 -22.3661 -22.3661 -22.3660 -22.3660 -22.3642 -22.3642
   -14.3926 -14.3925 -14.2997 -14.2996 -14.2931 -14.2930 -14.2255 -14.2254
    -6.5730  -6.5729  -6.5083  -6.5082  -6.4958  -6.4956  -6.0301  -6.0300
    -5.8581  -5.8580  -5.8407  -5.8406  -5.8288  -5.8287  -5.7968  -5.7967
    -5.6740  -5.6738  -5.6662  -5.6661  -5.6458  -5.6457  -5.6359  -5.6358
    -0.0372  -0.0371  -0.0123  -0.0123   0.2158   0.2159   0.4010   0.4011
     0.4255   0.4256   0.4371   0.4371   0.4623   0.4623   0.5097   0.5097
     0.5570   0.5571   0.6090   0.6091   0.6414   0.6415   0.6561   0.6561
     6.1095   6.1096   6.3218   6.3219   6.3779   6.3780   6.6298   6.6298
     6.9239   6.9240   6.9351   6.9352   7.1473   7.1475   7.1752   7.1753
     7.1922   7.1923   7.1974   7.1976   7.3707   7.3709   7.5703   7.5705
     7.5856   7.5858   7.8449   7.8450   7.8522   7.8522   7.8718   7.8718
     7.9002   7.9003   8.0828   8.0829   8.1345   8.1347   8.4467   8.4468
     8.5859   8.5860   8.8264   8.8265   8.9163   8.9164   8.9581   8.9582
     8.9976   8.9976   9.0943   9.0944   9.1507   9.1507   9.2323   9.2323
     9.2488   9.2489   9.6974   9.6975   9.7249   9.7249   9.7749   9.7750
     9.7907   9.7908   9.8333   9.8334   9.8355   9.8355  10.3484  10.3486
    12.4035  12.4036  13.3372  13.3373  13.3460  13.3461  13.3919  13.3920
    13.4088  13.4089  13.9276  13.9277  13.9956  13.9956  14.0770  14.0771
    14.1366  14.1366  14.2752  14.2752  14.3138  14.3138  14.4994  14.4994
    14.5779  14.5779  15.1704  15.1704  15.3009  15.3009  15.7821  15.7822
    16.3753  16.3755  16.4653  16.4655  16.6156  16.6157  17.0664  17.0665

          k = 0.0000 0.2500 0.0000 ( 14854 PWs)   bands (ev):

   -46.1463 -46.1455 -46.1454 -46.1451 -46.1445 -46.1444 -46.1442 -46.1434
   -22.4752 -22.4727 -22.4718 -22.4699 -22.4272 -22.4258 -22.4251 -22.4237
   -22.4204 -22.4180 -22.4173 -22.4155 -22.4131 -22.4101 -22.4098 -22.4075
   -22.3750 -22.3730 -22.3727 -22.3709 -22.3667 -22.3653 -22.3649 -22.3636
   -14.4341 -14.3484 -14.3283 -14.3191 -14.2724 -14.2642 -14.2507 -14.2023
    -6.7285  -6.7099  -6.6529  -6.5485  -6.3450  -6.2495  -6.0681  -5.8984
    -5.8875  -5.8782  -5.8554  -5.8312  -5.8053  -5.7703  -5.7686  -5.7570
    -5.7389  -5.7281  -5.7145  -5.7093  -5.6685  -5.6078  -5.5879  -5.5525
    -0.2555  -0.2294  -0.1777   0.2165   0.2712   0.3331   0.3454   0.3659
     0.3942   0.4049   0.4339   0.4385   0.4958   0.5044   0.5129   0.5287
     0.5571   0.5636   0.5742   0.6938   0.7122   0.7139   0.7154   0.7422
     6.0089   6.1033   6.1914   6.1957   6.3135   6.3814   6.4151   6.5163
     6.5669   6.5703   6.5723   6.6457   6.7302   6.7709   6.7780   7.4645
     7.5430   7.6017   7.6277   7.6341   7.6362   7.6366   7.6748   7.6778
     7.7083   7.7132   7.7408   7.7409   7.7539   7.8027   7.8259   7.9104
     7.9509   8.0181   8.0438   8.1722   8.2083   8.2593   8.2957   8.5829
     8.6012   8.6140   8.6932   8.6939   8.8063   8.8131   8.8367   8.9242
     8.9734   9.1433   9.1874   9.2440   9.3074   9.3098   9.3289   9.4259
     9.4292   9.4793   9.5175   9.5278   9.5601   9.5613   9.6013   9.6867
     9.9163  10.0121  10.0906  10.0994  10.1940  10.2281  10.2460  10.2581
    12.5336  12.6101  12.6622  12.6750  12.7175  12.8185  13.7524  13.7784
    13.7890  13.8090  13.9911  14.0034  14.0307  14.0328  14.0430  14.0444
    14.0821  14.0950  14.2820  14.3114  14.4317  14.5223  14.5295  14.5821
    14.5926  14.5996  14.7835  14.8369  14.9560  15.1412  15.2930  15.6493
    15.7873  15.7892  16.1579  16.5510  16.7104  16.9906  17.1544  17.3593

          k = 0.0000 0.2500 0.1236 ( 14836 PWs)   bands (ev):

   -46.1462 -46.1454 -46.1454 -46.1451 -46.1446 -46.1443 -46.1442 -46.1435
   -22.4734 -22.4709 -22.4700 -22.4682 -22.4290 -22.4275 -22.4269 -22.4255
   -22.4203 -22.4179 -22.4174 -22.4156 -22.4129 -22.4102 -22.4097 -22.4076
   -22.3749 -22.3730 -22.3726 -22.3710 -22.3667 -22.3652 -22.3650 -22.3636
   -14.4301 -14.3456 -14.3324 -14.3165 -14.2754 -14.2619 -14.2534 -14.2047
    -6.7114  -6.6910  -6.6425  -6.5435  -6.3264  -6.2677  -6.1126  -5.9015
    -5.8793  -5.8663  -5.8541  -5.8286  -5.8042  -5.8021  -5.7725  -5.7518
    -5.7321  -5.7237  -5.7212  -5.7105  -5.6619  -5.6119  -5.5956  -5.5589
    -0.2375  -0.2333  -0.1200   0.2330   0.2682   0.3012   0.3405   0.3449
     0.3813   0.4107   0.4498   0.4650   0.4675   0.4871   0.5008   0.5354
     0.5572   0.5689   0.6030   0.6740   0.6831   0.7057   0.7079   0.7361
     6.0408   6.1375   6.1928   6.2391   6.3730   6.3753   6.4540   6.5679
     6.5936   6.5967   6.6039   6.6371   6.7320   6.7801   6.7931   7.4809
     7.5357   7.5988   7.6195   7.6309   7.6401   7.6477   7.6589   7.6753
     7.6764   7.6783   7.7659   7.7693   7.7737   7.7903   7.8227   7.9131
     7.9399   7.9723   8.0360   8.0449   8.0778   8.2716   8.3161   8.5470
     8.5894   8.6375   8.6399   8.7563   8.8311   8.8645   8.8812   8.9237
     8.9565   9.1746   9.1819   9.2602   9.2774   9.3036   9.3230   9.3987
     9.4476   9.4776   9.5088   9.5153   9.5307   9.5313   9.5753   9.6395
     9.8991   9.9755  10.0561  10.0764  10.1685  10.1805  10.2459  10.2652
    12.5499  12.6613  12.6711  12.7220  12.7652  12.8718  13.7538  13.7862
    13.7893  13.8359  13.9548  13.9805  13.9954  13.9965  14.0338  14.0475
    14.0623  14.0796  14.2487  14.3202  14.4047  14.4907  14.5196  14.5735
    14.6480  14.6618  14.7834  14.9293  15.0083  15.2666  15.2866  15.7166
    15.7854  15.8609  16.2054  16.5760  16.6611  17.0301  17.1891  17.3873

          k = 0.0000 0.2500 0.2473 ( 14847 PWs)   bands (ev):

   -46.1461 -46.1455 -46.1453 -46.1450 -46.1447 -46.1443 -46.1442 -46.1436
   -22.4682 -22.4659 -22.4650 -22.4632 -22.4343 -22.4327 -22.4320 -22.4305
   -22.4199 -22.4178 -22.4176 -22.4158 -22.4126 -22.4105 -22.4095 -22.4079
   -22.3747 -22.3733 -22.3724 -22.3712 -22.3664 -22.3652 -22.3650 -22.3638
   -14.4189 -14.3441 -14.3375 -14.3092 -14.2837 -14.2609 -14.2553 -14.2115
    -6.6621  -6.6364  -6.6144  -6.5335  -6.3211  -6.2727  -6.2098  -5.9060
    -5.8803  -5.8768  -5.8516  -5.8349  -5.8221  -5.8007  -5.7828  -5.7585
    -5.7371  -5.7166  -5.7014  -5.6991  -5.6598  -5.6236  -5.6164  -5.5772
    -0.2111  -0.1695  -0.0033   0.2145   0.2655   0.2692   0.2808   0.3493
     0.3735   0.4025   0.4272   0.4640   0.4697   0.4896   0.5208   0.5394
     0.5547   0.5954   0.5969   0.6182   0.6363   0.6846   0.6867   0.7169
     6.1082   6.1936   6.2110   6.3433   6.3599   6.5416   6.5688   6.6108
     6.6652   6.6975   6.7046   6.7120   6.7341   6.8097   6.8735   7.4336
     7.5108   7.5271   7.5426   7.5679   7.5916   7.6271   7.6386   7.6550
     7.6682   7.6728   7.7218   7.7777   7.7966   7.8520   7.8674   7.8753
     7.8782   7.9175   7.9192   8.0107   8.0140   8.3106   8.3222   8.3733
     8.4466   8.5879   8.7141   8.7271   8.7695   8.7977   8.8842   9.1353
     9.1475   9.1579   9.1782   9.1981   9.3061   9.3134   9.3738   9.3739
     9.3742   9.4395   9.4550   9.4806   9.4922   9.5046   9.5686   9.5809
     9.8509   9.9086   9.9380  10.0314  10.0664  10.0902  10.2463  10.2650
    12.5701  12.6578  12.8289  12.8835  12.9002  13.0211  13.7581  13.7735
    13.8096  13.8102  13.8357  13.8622  13.9091  13.9118  14.0067  14.0535
    14.0682  14.1132  14.1611  14.3337  14.3422  14.4022  14.4861  14.5112
    14.7265  14.7823  14.8382  15.1661  15.2130  15.2692  15.5964  15.7744
    15.9060  16.0714  16.3473  16.5030  16.6661  17.0420  17.1981  17.2876

          k = 0.0000 0.2500 0.3709 ( 14820 PWs)   bands (ev):

   -46.1460 -46.1456 -46.1452 -46.1448 -46.1448 -46.1445 -46.1440 -46.1437
   -22.4605 -22.4582 -22.4574 -22.4557 -22.4421 -22.4403 -22.4396 -22.4380
   -22.4194 -22.4183 -22.4172 -22.4162 -22.4121 -22.4110 -22.4091 -22.4083
   -22.3744 -22.3736 -22.3721 -22.3715 -22.3662 -22.3655 -22.3647 -22.3641
   -14.4020 -14.3615 -14.3253 -14.2982 -14.2962 -14.2721 -14.2453 -14.2216
    -6.5869  -6.5777  -6.5513  -6.5307  -6.4019  -6.3260  -6.1901  -5.9807
    -5.8994  -5.8669  -5.8510  -5.8238  -5.8159  -5.8145  -5.7947  -5.7776
    -5.7156  -5.6974  -5.6819  -5.6723  -5.6709  -5.6450  -5.6410  -5.6050
    -0.1391  -0.0724   0.0948   0.1447   0.1648   0.2738   0.3442   0.3543
     0.3651   0.3816   0.4304   0.4333   0.4523   0.4638   0.5130   0.5369
     0.5421   0.5800   0.5841   0.6273   0.6476   0.6521   0.6555   0.6834
     6.1612   6.1933   6.2732   6.3385   6.4484   6.5724   6.7388   6.7394
     6.7584   6.7894   6.7963   6.9152   6.9218   7.0097   7.0424   7.1909
     7.2875   7.3856   7.4068   7.4122   7.5431   7.5840   7.5912   7.5994
     7.6099   7.6490   7.6672   7.7845   7.8082   7.8344   7.8943   7.9253
     7.9400   7.9647   7.9805   8.0089   8.0146   8.0393   8.3019   8.3802
     8.3942   8.4548   8.6251   8.6594   8.8177   8.8305   8.9694   9.0055
     9.1403   9.1948   9.1994   9.2061   9.2763   9.2973   9.3236   9.3605
     9.3798   9.4123   9.4697   9.4989   9.5259   9.6268   9.6289   9.6719
     9.7763   9.7814   9.8407   9.9017   9.9457   9.9530  10.2495  10.2598
    12.5915  12.6381  13.0751  13.1033  13.1179  13.2322  13.5964  13.6158
    13.6301  13.7122  13.7662  13.7886  13.8611  14.0209  14.0214  14.0490
    14.0537  14.0949  14.1963  14.2434  14.2806  14.3768  14.3993  14.4617
    14.7608  14.7803  15.0252  15.2322  15.4323  15.5504  15.7310  16.0451
    16.1881  16.2454  16.4040  16.6023  16.8466  16.8688  16.8798  17.2947

          k = 0.0000 0.2500-0.4946 ( 14814 PWs)   bands (ev):

   -46.1458 -46.1458 -46.1450 -46.1450 -46.1447 -46.1447 -46.1439 -46.1439
   -22.4513 -22.4513 -22.4493 -22.4493 -22.4485 -22.4485 -22.4469 -22.4469
   -22.4189 -22.4189 -22.4167 -22.4167 -22.4115 -22.4115 -22.4087 -22.4087
   -22.3740 -22.3740 -22.3718 -22.3718 -22.3658 -22.3658 -22.3644 -22.3644
   -14.3819 -14.3818 -14.3108 -14.3107 -14.2853 -14.2852 -14.2335 -14.2335
    -6.5459  -6.5458  -6.4957  -6.4956  -6.4443  -6.4441  -6.0887  -6.0886
    -5.8710  -5.8709  -5.8561  -5.8560  -5.8107  -5.8106  -5.7869  -5.7868
    -5.6916  -5.6915  -5.6738  -5.6736  -5.6616  -5.6615  -5.6384  -5.6383
    -0.0311  -0.0311   0.0446   0.0447   0.2997   0.2998   0.3068   0.3069
     0.3932   0.3932   0.4033   0.4033   0.4439   0.4440   0.4823   0.4824
     0.5977   0.5977   0.6194   0.6194   0.6364   0.6365   0.6481   0.6481
     6.1855   6.1856   6.3116   6.3117   6.5217   6.5218   6.7409   6.7410
     6.9670   6.9671   7.0065   7.0066   7.1008   7.1010   7.1588   7.1588
     7.1840   7.1842   7.2880   7.2881   7.3352   7.3353   7.5802   7.5803
     7.6589   7.6590   7.6891   7.6892   7.8677   7.8678   7.8952   7.8953
     7.9390   7.9390   7.9906   7.9906   8.1378   8.1379   8.1968   8.1969
     8.4872   8.4873   8.5495   8.5495   8.8987   8.8987   8.9845   8.9846
     9.0785   9.0785   9.2378   9.2379   9.2856   9.2856   9.2933   9.2934
     9.3281   9.3282   9.6095   9.6096   9.7034   9.7034   9.7115   9.7116
     9.7536   9.7536   9.7617   9.7617   9.8080   9.8081  10.2539  10.2541
    12.6154  12.6155  13.3452  13.3453  13.3525  13.3526  13.3803  13.3804
    13.4738  13.4739  13.7771  13.7771  13.9428  13.9428  14.0380  14.0380
    14.1496  14.1496  14.1585  14.1585  14.2940  14.2940  14.4193  14.4193
    14.7742  14.7742  15.1569  15.1569  15.6269  15.6270  15.9161  15.9162
    16.5055  16.5057  16.5265  16.5267  16.8273  16.8274  16.9406  16.9408

          k = 0.0000 0.3750 0.0000 ( 14818 PWs)   bands (ev):

   -46.1461 -46.1456 -46.1452 -46.1449 -46.1447 -46.1445 -46.1440 -46.1436
   -22.4747 -22.4733 -22.4713 -22.4703 -22.4269 -22.4261 -22.4248 -22.4240
   -22.4198 -22.4185 -22.4169 -22.4159 -22.4044 -22.4016 -22.4013 -22.3991
   -22.3838 -22.3815 -22.3812 -22.3793 -22.3664 -22.3656 -22.3646 -22.3639
   -14.4147 -14.3684 -14.3156 -14.3066 -14.2854 -14.2769 -14.2397 -14.2135
    -6.6759  -6.6313  -6.5750  -6.5686  -6.4348  -6.3527  -5.9811  -5.8846
    -5.8622  -5.8602  -5.8399  -5.8115  -5.8006  -5.7788  -5.7704  -5.7603
    -5.7603  -5.7445  -5.7370  -5.7015  -5.6769  -5.6570  -5.6364  -5.5892
    -0.1509  -0.1089  -0.0366   0.1042   0.1571   0.3627   0.3675   0.3755
     0.4206   0.4325   0.4367   0.4567   0.4602   0.4848   0.4995   0.5005
     0.5021   0.5972   0.6049   0.6142   0.6502   0.6674   0.6793   0.6807
     6.0615   6.1011   6.2407   6.2641   6.2928   6.3506   6.5685   6.5719
     6.5989   6.7154   6.8543   6.9076   6.9358   7.0147   7.0360   7.1672
     7.3078   7.4344   7.4700   7.5435   7.5462   7.6195   7.6232   7.6266
     7.6479   7.6684   7.7815   7.7970   7.8131   7.8567   7.8754   7.8846
     7.9342   7.9618   7.9665   7.9840   8.1195   8.1263   8.3310   8.6257
     8.6563   8.7362   8.7537   8.7675   8.7823   8.8054   8.8275   8.9423
     8.9532   9.0241   9.0920   9.1681   9.2723   9.3274   9.3391   9.3493
     9.4274   9.4278   9.5093   9.5243   9.6419   9.6520   9.6575   9.7221
     9.7807   9.8940   9.9472   9.9627  10.0697  10.1117  10.2050  10.2324
    12.5903  12.6409  12.8804  12.9460  12.9583  13.0182  13.5064  13.5279
    13.5530  13.5593  14.0201  14.0241  14.0350  14.0373  14.0383  14.0484
    14.1763  14.1771  14.1791  14.2087  14.4098  14.4180  14.4706  14.5607
    14.5922  14.5979  14.9940  15.0031  15.1412  15.2437  15.3195  15.9503
    15.9925  16.1233  16.2293  16.8088  16.8427  16.9266  16.9526  17.0276

          k = 0.0000 0.3750 0.1236 ( 14820 PWs)   bands (ev):

   -46.1460 -46.1456 -46.1452 -46.1449 -46.1448 -46.1445 -46.1440 -46.1436
   -22.4728 -22.4715 -22.4696 -22.4686 -22.4287 -22.4279 -22.4266 -22.4258
   -22.4197 -22.4184 -22.4170 -22.4160 -22.4043 -22.4017 -22.4012 -22.3992
   -22.3837 -22.3816 -22.3812 -22.3794 -22.3663 -22.3655 -22.3647 -22.3639
   -14.4110 -14.3653 -14.3195 -14.3041 -14.2886 -14.2746 -14.2423 -14.2160
    -6.6609  -6.6125  -6.5665  -6.5613  -6.4161  -6.3586  -6.0314  -5.8878
    -5.8621  -5.8570  -5.8502  -5.8338  -5.8084  -5.7793  -5.7735  -5.7660
    -5.7465  -5.7321  -5.7298  -5.6968  -5.6751  -5.6630  -5.6377  -5.5931
    -0.1301  -0.1295   0.0256   0.1220   0.1460   0.3307   0.3685   0.3938
     0.4028   0.4126   0.4174   0.4385   0.4465   0.4691   0.5060   0.5169
     0.5285   0.5906   0.5931   0.6262   0.6557   0.6678   0.6708   0.6721
     6.0957   6.1351   6.2629   6.2908   6.3468   6.3498   6.5973   6.6026
     6.6323   6.7471   6.8611   6.8945   6.9391   7.0330   7.0334   7.1923
     7.2909   7.4334   7.4452   7.5208   7.5651   7.6028   7.6269   7.6350
     7.6701   7.6835   7.7478   7.7801   7.8301   7.8676   7.8730   7.8947
     7.9113   7.9288   7.9783   7.9925   8.0520   8.1313   8.1950   8.5616
     8.5874   8.6603   8.7629   8.7683   8.7836   8.7907   8.9015   8.9705
     9.0338   9.0836   9.1126   9.1442   9.2763   9.3206   9.3420   9.3767
     9.3888   9.4004   9.4962   9.5495   9.6170   9.6244   9.6337   9.7075
     9.7612   9.8639   9.9069   9.9586  10.0610  10.1090  10.1765  10.2055
    12.6492  12.7008  12.8877  12.9551  12.9746  13.0665  13.5095  13.5355
    13.5497  13.5946  13.9777  13.9844  13.9921  14.0273  14.0538  14.0540
    14.1288  14.1388  14.1696  14.2169  14.3713  14.4098  14.4423  14.5362
    14.6664  14.6678  14.9939  15.1100  15.2373  15.2652  15.3610  15.9973
    16.0503  16.1949  16.2315  16.8462  16.8535  16.9004  16.9614  17.1025

          k = 0.0000 0.3750 0.2473 ( 14845 PWs)   bands (ev):

   -46.1459 -46.1455 -46.1453 -46.1449 -46.1448 -46.1444 -46.1441 -46.1437
   -22.4677 -22.4664 -22.4646 -22.4636 -22.4339 -22.4330 -22.4317 -22.4309
   -22.4194 -22.4182 -22.4173 -22.4163 -22.4040 -22.4020 -22.4010 -22.3995
   -22.3834 -22.3818 -22.3810 -22.3796 -22.3661 -22.3653 -22.3649 -22.3641
   -14.4005 -14.3564 -14.3304 -14.2978 -14.2970 -14.2678 -14.2497 -14.2229
    -6.6183  -6.5578  -6.5452  -6.5426  -6.3800  -6.3619  -6.1316  -5.9511
    -5.8950  -5.8688  -5.8631  -5.8081  -5.8015  -5.8004  -5.7790  -5.7536
    -5.7520  -5.7235  -5.7090  -5.6837  -5.6782  -5.6702  -5.6416  -5.6043
    -0.1262  -0.0701   0.1343   0.1424   0.1733   0.2373   0.3349   0.3449
     0.3583   0.3797   0.4223   0.4342   0.4556   0.4630   0.5246   0.5338
     0.5542   0.5720   0.5756   0.6218   0.6478   0.6517   0.6619   0.6754
     6.1674   6.2079   6.2605   6.3342   6.4247   6.5109   6.7083   6.7133
     6.7300   6.8365   6.8593   6.8859   6.9448   7.0291   7.1005   7.2291
     7.2606   7.3717   7.4313   7.4369   7.5669   7.5967   7.6082   7.6337
     7.6356   7.7134   7.7300   7.7709   7.7758   7.8679   7.8923   7.8929
     7.9152   7.9221   7.9561   7.9571   7.9614   8.0695   8.1683   8.3745
     8.4183   8.4817   8.6081   8.6513   8.8157   8.8485   9.0093   9.0210
     9.1548   9.1568   9.1739   9.2863   9.2967   9.3038   9.3054   9.3186
     9.3837   9.4011   9.4198   9.5382   9.6044   9.6141   9.6284   9.6707
     9.7039   9.7968   9.8237   9.9420  10.0177  10.0911  10.1022  10.1435
    12.7926  12.8669  12.9241  12.9409  13.0659  13.1937  13.5186  13.5422
    13.5738  13.6835  13.8389  13.8404  13.8530  14.0030  14.0325  14.0497
    14.0737  14.0979  14.1549  14.2390  14.2706  14.3731  14.3833  14.4646
    14.8023  14.8404  14.9876  15.2216  15.3913  15.5154  15.5885  16.1399
    16.2121  16.2253  16.4066  16.7395  16.8923  16.9544  16.9946  17.3206

          k = 0.0000 0.3750 0.3709 ( 14841 PWs)   bands (ev):

   -46.1458 -46.1455 -46.1454 -46.1450 -46.1446 -46.1443 -46.1442 -46.1439
   -22.4600 -22.4588 -22.4570 -22.4561 -22.4417 -22.4407 -22.4392 -22.4384
   -22.4189 -22.4178 -22.4177 -22.4167 -22.4035 -22.4024 -22.4007 -22.3998
   -22.3831 -22.3822 -22.3807 -22.3799 -22.3658 -22.3652 -22.3651 -22.3644
   -14.3846 -14.3467 -14.3431 -14.3114 -14.2862 -14.2606 -14.2576 -14.2333
    -6.5559  -6.5228  -6.5224  -6.4727  -6.4231  -6.2780  -6.2479  -6.0607
    -5.8979  -5.8783  -5.8677  -5.8509  -5.7905  -5.7852  -5.7753  -5.7598
    -5.7362  -5.7166  -5.7073  -5.6957  -5.6645  -5.6631  -5.6476  -5.6215
    -0.0789   0.0214   0.1201   0.1450   0.2458   0.2516   0.2521   0.2790
     0.3574   0.3699   0.3956   0.3979   0.4471   0.4816   0.5357   0.5389
     0.5446   0.5529   0.5962   0.6202   0.6217   0.6410   0.6553   0.6716
     6.2222   6.2571   6.2664   6.3198   6.5895   6.7502   6.8017   6.8859
     6.8988   6.9238   6.9371   6.9526   6.9675   7.0641   7.1269   7.2425
     7.2579   7.2717   7.3561   7.3604   7.3981   7.5311   7.5312   7.5451
     7.6057   7.7135   7.7387   7.7660   7.7674   7.8082   7.8699   7.8971
     7.9157   7.9246   7.9304   7.9627   8.0083   8.1604   8.1635   8.1695
     8.2402   8.3298   8.4250   8.5026   8.8587   8.8624   8.9158   9.0785
     9.1014   9.2334   9.2744   9.2898   9.2904   9.3150   9.3752   9.3827
     9.4256   9.4494   9.4664   9.4856   9.6004   9.6224   9.6282   9.6476
     9.7004   9.7072   9.8013   9.8927   9.8995   9.9432  10.0957  10.1050
    12.8739  12.9227  13.0977  13.1010  13.2171  13.3841  13.5164  13.5299
    13.6228  13.6417  13.6428  13.6561  13.8139  13.8168  13.8932  14.0791
    14.1227  14.1315  14.1316  14.1710  14.2716  14.2822  14.3400  14.3760
    14.9015  14.9739  15.0087  15.1912  15.7406  15.8022  16.0357  16.1741
    16.3941  16.4551  16.4830  16.7413  16.8541  16.9921  17.0675  17.0745

          k = 0.0000 0.3750-0.4946 ( 14830 PWs)   bands (ev):

   -46.1456 -46.1456 -46.1452 -46.1452 -46.1445 -46.1445 -46.1440 -46.1440
   -22.4509 -22.4509 -22.4497 -22.4497 -22.4481 -22.4481 -22.4472 -22.4472
   -22.4184 -22.4184 -22.4172 -22.4172 -22.4030 -22.4030 -22.4003 -22.4003
   -22.3827 -22.3826 -22.3803 -22.3803 -22.3655 -22.3655 -22.3647 -22.3647
   -14.3658 -14.3657 -14.3274 -14.3273 -14.2735 -14.2734 -14.2455 -14.2454
    -6.5134  -6.5133  -6.4859  -6.4858  -6.3659  -6.3658  -6.1738  -6.1737
    -5.8844  -5.8843  -5.8752  -5.8752  -5.7835  -5.7834  -5.7683  -5.7682
    -5.7187  -5.7186  -5.7087  -5.7086  -5.6552  -5.6551  -5.6427  -5.6426
     0.0076   0.0077   0.1319   0.1320   0.1850   0.1851   0.3479   0.3480
     0.3707   0.3707   0.3761   0.3761   0.4163   0.4163   0.5128   0.5128
     0.5869   0.5870   0.6025   0.6025   0.6324   0.6324   0.6535   0.6535
     6.2473   6.2474   6.2991   6.2992   6.7181   6.7182   6.9568   6.9569
     7.0195   7.0196   7.0239   7.0240   7.1045   7.1046   7.1166   7.1167
     7.1981   7.1983   7.3002   7.3003   7.4622   7.4623   7.4685   7.4686
     7.5082   7.5084   7.7554   7.7556   7.8796   7.8797   7.8807   7.8807
     7.9228   7.9229   7.9514   7.9515   8.0231   8.0231   8.1627   8.1628
     8.2825   8.2826   8.3554   8.3555   8.8619   8.8620   8.9465   8.9465
     9.2034   9.2034   9.2879   9.2879   9.3195   9.3196   9.3298   9.3298
     9.4958   9.4958   9.5331   9.5332   9.5994   9.5995   9.7014   9.7014
     9.7334   9.7335   9.7673   9.7673   9.8175   9.8176  10.0949  10.0951
    12.9020  12.9021  13.3538  13.3539  13.3629  13.3630  13.4206  13.4206
    13.5498  13.5499  13.6025  13.6026  13.7549  13.7550  13.9724  13.9725
    14.1068  14.1069  14.1916  14.1916  14.2622  14.2622  14.3150  14.3151
    14.9525  14.9525  15.1263  15.1263  16.0234  16.0235  16.1512  16.1513
    16.4956  16.4958  16.7273  16.7274  16.7534  16.7535  17.1670  17.1672

          k = 0.0000-0.5000 0.0000 ( 14814 PWs)   bands (ev):

   -46.1458 -46.1458 -46.1450 -46.1450 -46.1447 -46.1447 -46.1438 -46.1438
   -22.4740 -22.4740 -22.4709 -22.4709 -22.4265 -22.4265 -22.4244 -22.4244
   -22.4192 -22.4192 -22.4164 -22.4164 -22.3941 -22.3941 -22.3916 -22.3916
   -22.3913 -22.3913 -22.3892 -22.3892 -22.3660 -22.3660 -22.3642 -22.3642
   -14.3917 -14.3917 -14.3006 -14.3006 -14.2919 -14.2918 -14.2267 -14.2267
    -6.6202  -6.6202  -6.5353  -6.5353  -6.4643  -6.4643  -5.8774  -5.8774
    -5.8718  -5.8718  -5.8256  -5.8256  -5.7949  -5.7949  -5.7897  -5.7897
    -5.7432  -5.7432  -5.7267  -5.7267  -5.6694  -5.6693  -5.6328  -5.6328
    -0.0249  -0.0249   0.0245   0.0245   0.1532   0.1532   0.4118   0.4118
     0.4142   0.4143   0.4524   0.4524   0.4656   0.4657   0.5237   0.5237
     0.5764   0.5765   0.5823   0.5823   0.6377   0.6378   0.6423   0.6423
     6.0899   6.0899   6.2692   6.2692   6.3147   6.3147   6.5696   6.5696
     6.8585   6.8585   6.9828   6.9828   7.1704   7.1704   7.2035   7.2035
     7.2227   7.2227   7.2958   7.2958   7.3776   7.3776   7.6222   7.6223
     7.6609   7.6609   7.8566   7.8566   7.8898   7.8898   7.8924   7.8924
     7.9029   7.9029   7.9599   7.9599   8.0130   8.0130   8.4826   8.4826
     8.6995   8.6996   8.7829   8.7829   8.8822   8.8823   8.9187   8.9187
     8.9767   8.9767   9.1305   9.1305   9.1606   9.1606   9.3017   9.3017
     9.3162   9.3163   9.6448   9.6448   9.7659   9.7660   9.7696   9.7696
     9.7899   9.7899   9.8852   9.8852   9.9110   9.9110  10.2174  10.2174
    12.6163  12.6163  13.2071  13.2071  13.2338  13.2338  13.2648  13.2648
    13.2850  13.2850  14.0339  14.0339  14.0355  14.0355  14.0855  14.0855
    14.1143  14.1143  14.2826  14.2826  14.2939  14.2939  14.5130  14.5130
    14.5961  14.5961  15.1051  15.1051  15.1478  15.1478  15.6664  15.6665
    16.4027  16.4028  16.5464  16.5464  16.6512  16.6512  17.2078  17.2078

          k = 0.0000-0.5000 0.1236 ( 14802 PWs)   bands (ev):

   -46.1458 -46.1458 -46.1450 -46.1450 -46.1447 -46.1447 -46.1438 -46.1438
   -22.4722 -22.4722 -22.4691 -22.4691 -22.4283 -22.4283 -22.4262 -22.4262
   -22.4191 -22.4191 -22.4165 -22.4165 -22.3940 -22.3940 -22.3917 -22.3917
   -22.3912 -22.3912 -22.3893 -22.3893 -22.3659 -22.3659 -22.3643 -22.3643
   -14.3883 -14.3883 -14.3041 -14.3041 -14.2894 -14.2894 -14.2292 -14.2292
    -6.6081  -6.6081  -6.5165  -6.5165  -6.4620  -6.4620  -5.9389  -5.9389
    -5.8734  -5.8734  -5.8104  -5.8104  -5.7890  -5.7890  -5.7860  -5.7860
    -5.7395  -5.7395  -5.7301  -5.7301  -5.6676  -5.6676  -5.6338  -5.6338
    -0.0056  -0.0056   0.0056   0.0056   0.2035   0.2035   0.3706   0.3706
     0.4043   0.4043   0.4342   0.4342   0.4719   0.4719   0.5011   0.5011
     0.5940   0.5940   0.5941   0.5941   0.6309   0.6309   0.6483   0.6483
     6.1242   6.1242   6.3115   6.3115   6.3234   6.3234   6.6005   6.6005
     6.8889   6.8889   6.9916   6.9916   7.1601   7.1602   7.2053   7.2053
     7.2059   7.2060   7.3140   7.3140   7.3668   7.3668   7.6251   7.6251
     7.6821   7.6822   7.8335   7.8335   7.8795   7.8795   7.8895   7.8895
     7.9048   7.9048   7.9722   7.9722   7.9809   7.9809   8.3716   8.3717
     8.6587   8.6587   8.7073   8.7073   8.9476   8.9477   8.9532   8.9532
     9.0041   9.0041   9.1464   9.1464   9.1799   9.1799   9.2976   9.2976
     9.3152   9.3152   9.6211   9.6211   9.7379   9.7379   9.7537   9.7537
     9.7797   9.7797   9.8790   9.8790   9.9048   9.9048  10.1889  10.1889
    12.6762  12.6762  13.2098  13.2098  13.2508  13.2508  13.2617  13.2618
    13.3213  13.3213  13.9878  13.9878  14.0400  14.0400  14.0438  14.0438
    14.1207  14.1207  14.2446  14.2446  14.2895  14.2895  14.4897  14.4897
    14.6704  14.6704  15.1459  15.1459  15.2210  15.2210  15.7105  15.7105
    16.4483  16.4483  16.6206  16.6206  16.6651  16.6652  17.2080  17.2081

          k = 0.0000-0.5000 0.2473 ( 14840 PWs)   bands (ev):

   -46.1457 -46.1457 -46.1451 -46.1451 -46.1446 -46.1446 -46.1439 -46.1439
   -22.4670 -22.4670 -22.4641 -22.4641 -22.4335 -22.4335 -22.4313 -22.4313
   -22.4188 -22.4188 -22.4168 -22.4168 -22.3937 -22.3937 -22.3919 -22.3919
   -22.3910 -22.3910 -22.3895 -22.3895 -22.3657 -22.3657 -22.3645 -22.3645
   -14.3786 -14.3786 -14.3142 -14.3142 -14.2824 -14.2824 -14.2364 -14.2363
    -6.5752  -6.5752  -6.4620  -6.4619  -6.4591  -6.4591  -6.0400  -6.0400
    -5.8787  -5.8787  -5.8427  -5.8427  -5.7760  -5.7760  -5.7584  -5.7584
    -5.7374  -5.7373  -5.7367  -5.7367  -5.6627  -5.6627  -5.6369  -5.6369
    -0.0049  -0.0049   0.0500   0.0500   0.2778   0.2778   0.3045   0.3045
     0.3843   0.3843   0.4017   0.4017   0.4375   0.4375   0.4897   0.4898
     0.6114   0.6114   0.6189   0.6189   0.6246   0.6246   0.6417   0.6417
     6.1969   6.1969   6.3035   6.3035   6.4744   6.4744   6.7122   6.7122
     6.9733   6.9733   7.0134   7.0135   7.1341   7.1341   7.1503   7.1503
     7.2142   7.2142   7.3407   7.3407   7.3773   7.3773   7.6087   7.6087
     7.6768   7.6768   7.7348   7.7348   7.8804   7.8804   7.9066   7.9066
     7.9247   7.9247   7.9385   7.9385   8.0131   8.0131   8.1609   8.1609
     8.5046   8.5046   8.5479   8.5479   8.9051   8.9051   9.0066   9.0066
     9.1929   9.1929   9.2017   9.2017   9.2107   9.2107   9.2791   9.2791
     9.3388   9.3388   9.5536   9.5536   9.6547   9.6547   9.7218   9.7218
     9.8016   9.8016   9.8615   9.8615   9.8902   9.8902  10.0994  10.0994
    12.8412  12.8412  13.2203  13.2203  13.2518  13.2518  13.3060  13.3060
    13.4291  13.4291  13.8452  13.8452  13.9188  13.9188  14.0772  14.0772
    14.1304  14.1304  14.1415  14.1415  14.2686  14.2686  14.4184  14.4184
    14.8302  14.8302  15.1351  15.1351  15.5309  15.5309  15.8524  15.8524
    16.5783  16.5783  16.6743  16.6744  16.8368  16.8368  17.0421  17.0421

          k = 0.0000-0.5000 0.3709 ( 14810 PWs)   bands (ev):

   -46.1456 -46.1456 -46.1452 -46.1452 -46.1444 -46.1444 -46.1441 -46.1441
   -22.4593 -22.4593 -22.4566 -22.4566 -22.4412 -22.4412 -22.4388 -22.4388
   -22.4183 -22.4183 -22.4172 -22.4172 -22.3933 -22.3933 -22.3923 -22.3923
   -22.3907 -22.3907 -22.3899 -22.3899 -22.3654 -22.3654 -22.3648 -22.3648
   -14.3640 -14.3640 -14.3291 -14.3291 -14.2720 -14.2719 -14.2470 -14.2470
    -6.5311  -6.5311  -6.4657  -6.4656  -6.3773  -6.3772  -6.1548  -6.1547
    -5.8860  -5.8860  -5.8725  -5.8725  -5.7627  -5.7627  -5.7474  -5.7474
    -5.7421  -5.7421  -5.7385  -5.7385  -5.6558  -5.6558  -5.6419  -5.6419
     0.0202   0.0202   0.1350   0.1350   0.1734   0.1734   0.3446   0.3446
     0.3683   0.3683   0.3759   0.3759   0.4172   0.4172   0.5169   0.5169
     0.5827   0.5827   0.5995   0.5995   0.6416   0.6416   0.6465   0.6466
     6.2525   6.2525   6.2952   6.2952   6.6882   6.6882   6.9310   6.9310
     7.0411   7.0411   7.0558   7.0558   7.0957   7.0957   7.1017   7.1017
     7.2248   7.2248   7.3138   7.3138   7.4611   7.4611   7.5041   7.5041
     7.5057   7.5057   7.7940   7.7940   7.8644   7.8644   7.8947   7.8947
     7.9018   7.9018   7.9314   7.9315   8.0185   8.0185   8.0994   8.0994
     8.2764   8.2764   8.3951   8.3951   8.8699   8.8699   8.9450   8.9450
     9.2611   9.2611   9.2664   9.2664   9.3080   9.3080   9.3459   9.3459
     9.4608   9.4608   9.4638   9.4638   9.5216   9.5216   9.7614   9.7615
     9.8156   9.8156   9.8318   9.8318   9.8771   9.8771   9.9614   9.9614
    13.0635  13.0635  13.2353  13.2353  13.2494  13.2494  13.4121  13.4121
    13.5932  13.5932  13.6353  13.6353  13.7482  13.7482  13.9641  13.9641
    14.1392  14.1392  14.1775  14.1775  14.2370  14.2370  14.3265  14.3265
    14.9753  14.9753  15.1103  15.1103  15.9522  15.9522  16.1120  16.1121
    16.5965  16.5965  16.7786  16.7787  16.7804  16.7804  17.1763  17.1764

          k = 0.0000-0.5000-0.4946 ( 14836 PWs)   bands (ev):

   -46.1454 -46.1454 -46.1454 -46.1454 -46.1442 -46.1442 -46.1442 -46.1442
   -22.4503 -22.4503 -22.4503 -22.4503 -22.4477 -22.4477 -22.4477 -22.4477
   -22.4178 -22.4178 -22.4178 -22.4178 -22.3928 -22.3928 -22.3928 -22.3928
   -22.3903 -22.3903 -22.3903 -22.3903 -22.3651 -22.3651 -22.3651 -22.3651
   -14.3467 -14.3467 -14.3466 -14.3466 -14.2596 -14.2596 -14.2595 -14.2595
    -6.4904  -6.4904  -6.4903  -6.4903  -6.2713  -6.2712  -6.2711  -6.2711
    -5.8872  -5.8872  -5.8871  -5.8871  -5.7511  -5.7511  -5.7510  -5.7510
    -5.7418  -5.7417  -5.7416  -5.7416  -5.6485  -5.6485  -5.6484  -5.6484
     0.0822   0.0823   0.0823   0.0823   0.2381   0.2381   0.2382   0.2382
     0.3644   0.3644   0.3644   0.3644   0.5210   0.5210   0.5210   0.5210
     0.5494   0.5494   0.5495   0.5495   0.6523   0.6523   0.6523   0.6523
     6.2805   6.2805   6.2806   6.2806   6.9018   6.9018   6.9019   6.9019
     7.0703   7.0704   7.0704   7.0704   7.1790   7.1790   7.1792   7.1792
     7.2527   7.2527   7.2528   7.2528   7.3284   7.3284   7.3285   7.3285
     7.6995   7.6995   7.6996   7.6996   7.8371   7.8371   7.8372   7.8372
     7.8925   7.8926   7.8926   7.8926   8.1203   8.1203   8.1203   8.1204
     8.2339   8.2339   8.2340   8.2340   8.8780   8.8780   8.8780   8.8780
     9.3198   9.3198   9.3198   9.3198   9.3599   9.3599   9.3599   9.3599
     9.3938   9.3938   9.3938   9.3938   9.7011   9.7011   9.7011   9.7011
     9.8031   9.8031   9.8031   9.8031   9.8786   9.8786   9.8788   9.8788
    13.2013  13.2013  13.2013  13.2014  13.3908  13.3908  13.3909  13.3909
    13.5653  13.5653  13.5653  13.5653  13.7769  13.7769  13.7769  13.7769
    14.1965  14.1965  14.1965  14.1965  14.2365  14.2365  14.2366  14.2366
    15.0639  15.0639  15.0639  15.0639  16.3481  16.3482  16.3482  16.3483
    16.4473  16.4474  16.4474  16.4475  17.0297  17.0298  17.3093  17.3118

          k = 0.1250 0.1250 0.0000 ( 14849 PWs)   bands (ev):

   -46.1463 -46.1454 -46.1453 -46.1453 -46.1444 -46.1444 -46.1442 -46.1434
   -22.4754 -22.4722 -22.4722 -22.4697 -22.4274 -22.4254 -22.4254 -22.4236
   -22.4187 -22.4187 -22.4156 -22.4156 -22.4156 -22.4155 -22.4133 -22.4132
   -22.3691 -22.3690 -22.3672 -22.3671 -22.3671 -22.3671 -22.3653 -22.3653
   -14.4425 -14.3338 -14.3320 -14.3320 -14.2611 -14.2611 -14.2588 -14.1975
    -6.7483  -6.7483  -6.6885  -6.5394  -6.3013  -6.1540  -6.1539  -5.9043
    -5.8975  -5.8975  -5.8463  -5.8463  -5.8132  -5.7761  -5.7547  -5.7516
    -5.7408  -5.7407  -5.7346  -5.6924  -5.6325  -5.5896  -5.5463  -5.5463
    -0.3191  -0.2717  -0.2297   0.2977   0.2977   0.3073   0.3461   0.3638
     0.3638   0.3780   0.3830   0.4240   0.4952   0.5262   0.5263   0.5481
     0.5482   0.5651   0.6936   0.6936   0.7286   0.7378   0.7378   0.7749
     5.9765   6.1344   6.1344   6.1509   6.3252   6.3875   6.3875   6.4376
     6.4636   6.4636   6.5875   6.6191   6.6191   6.6495   6.6636   7.5765
     7.5765   7.5795   7.5929   7.5929   7.6328   7.6534   7.6534   7.6540
     7.6844   7.7552   7.7552   7.8177   7.9218   7.9376   7.9572   7.9654
     8.0388   8.0484   8.0727   8.0727   8.1760   8.2119   8.2119   8.6129
     8.6130   8.6557   8.7068   8.7068   8.7526   8.8717   8.9208   8.9265
     8.9265   8.9780   9.2147   9.2350   9.2350   9.2863   9.3698   9.4614
     9.4614   9.5105   9.5105   9.5428   9.5604   9.5604   9.6404   9.7689
    10.0368  10.0576  10.1629  10.1629  10.1897  10.2259  10.2992  10.3259
    12.4048  12.5443  12.5896  12.6141  12.7045  12.7045  13.9158  13.9158
    13.9612  13.9613  13.9648  13.9662  13.9662  14.0009  14.0107  14.0311
    14.0541  14.0541  14.3628  14.3740  14.3740  14.5747  14.5915  14.5981
    14.6556  14.6556  14.6746  14.6775  14.6949  15.1353  15.4450  15.4450
    15.5031  15.6440  16.3358  16.3358  16.6115  17.0002  17.1928  17.3055

          k = 0.1250 0.1250 0.1236 ( 14847 PWs)   bands (ev):

   -46.1463 -46.1454 -46.1453 -46.1453 -46.1444 -46.1444 -46.1442 -46.1434
   -22.4736 -22.4705 -22.4705 -22.4680 -22.4292 -22.4272 -22.4272 -22.4253
   -22.4186 -22.4186 -22.4157 -22.4157 -22.4156 -22.4154 -22.4134 -22.4133
   -22.3690 -22.3689 -22.3672 -22.3672 -22.3670 -22.3670 -22.3654 -22.3654
   -14.4384 -14.3380 -14.3294 -14.3293 -14.2639 -14.2638 -14.2564 -14.1999
    -6.7300  -6.7300  -6.6770  -6.5362  -6.2828  -6.1877  -6.1877  -5.9069
    -5.8856  -5.8856  -5.8442  -5.8442  -5.8118  -5.7814  -5.7775  -5.7458
    -5.7329  -5.7329  -5.7298  -5.7080  -5.6321  -5.5962  -5.5542  -5.5542
    -0.2964  -0.2694  -0.1789   0.2820   0.3083   0.3083   0.3156   0.3698
     0.3699   0.3791   0.3824   0.4485   0.4905   0.5016   0.5017   0.5546
     0.5662   0.5662   0.6899   0.6917   0.6917   0.7242   0.7242   0.7654
     6.0069   6.1519   6.1706   6.1706   6.3843   6.4234   6.4234   6.4562
     6.4562   6.4978   6.6251   6.6468   6.6468   6.6500   6.6629   7.5784
     7.5784   7.5819   7.5819   7.5944   7.6445   7.6445   7.6519   7.6708
     7.7022   7.7821   7.7821   7.7850   7.9101   7.9117   7.9117   7.9190
     7.9401   7.9786   8.0136   8.0384   8.1922   8.2061   8.2061   8.5485
     8.6300   8.6300   8.7714   8.8509   8.8509   8.8813   8.8841   8.9045
     8.9443   8.9443   9.2056   9.2056   9.2246   9.3088   9.3920   9.4078
     9.4078   9.5071   9.5071   9.5084   9.5084   9.5603   9.6524   9.7208
    10.0114  10.0171  10.1423  10.1423  10.1458  10.1777  10.3010  10.3311
    12.4099  12.5390  12.6519  12.6695  12.7630  12.7630  13.9187  13.9187
    13.9579  13.9627  13.9627  13.9651  13.9651  13.9767  13.9888  14.0075
    14.0076  14.0223  14.3442  14.3442  14.3700  14.5587  14.5634  14.5779
    14.6738  14.6758  14.7397  14.7397  14.7981  15.2590  15.4408  15.4408
    15.5736  15.7162  16.3759  16.3759  16.5604  17.0099  17.2787  17.3731

          k = 0.1250 0.1250 0.2473 ( 14813 PWs)   bands (ev):

   -46.1462 -46.1456 -46.1452 -46.1452 -46.1445 -46.1445 -46.1441 -46.1435
   -22.4685 -22.4654 -22.4654 -22.4630 -22.4344 -22.4323 -22.4323 -22.4303
   -22.4183 -22.4183 -22.4161 -22.4161 -22.4153 -22.4152 -22.4136 -22.4136
   -22.3688 -22.3687 -22.3675 -22.3674 -22.3668 -22.3668 -22.3656 -22.3656
   -14.4269 -14.3501 -14.3218 -14.3218 -14.2717 -14.2717 -14.2499 -14.2066
    -6.6767  -6.6767  -6.6455  -6.5314  -6.2712  -6.2712  -6.2295  -5.9089
    -5.8626  -5.8626  -5.8502  -5.8393  -5.8393  -5.8078  -5.7816  -5.7506
    -5.7291  -5.7163  -5.7122  -5.7122  -5.6373  -5.6147  -5.5764  -5.5764
    -0.2314  -0.2276  -0.0674   0.2107   0.2311   0.3339   0.3339   0.3855
     0.3930   0.3930   0.3947   0.4648   0.4648   0.4775   0.5006   0.5259
     0.5809   0.5809   0.5828   0.6859   0.6859   0.6900   0.6900   0.7369
     6.0717   6.1544   6.2517   6.2517   6.4369   6.4369   6.5324   6.5324
     6.5555   6.6514   6.6609   6.6656   6.7455   6.7455   6.7576   7.4957
     7.4957   7.5834   7.5834   7.6023   7.6023   7.6406   7.6598   7.6598
     7.6621   7.7059   7.7068   7.7287   7.7475   7.8577   7.8577   7.9096
     7.9187   7.9656   8.0071   8.0921   8.2132   8.2132   8.2404   8.2684
     8.6786   8.6787   8.7502   8.7730   8.8302   8.8890   8.8890   8.9242
     9.0520   9.0520   9.2068   9.2534   9.2534   9.3003   9.3003   9.3793
     9.4073   9.4073   9.4592   9.4593   9.4593   9.5659   9.6099   9.6898
     9.9276   9.9664  10.0249  10.0572  10.0775  10.0775  10.3051  10.3326
    12.4261  12.5219  12.8247  12.8313  12.9232  12.9232  13.8112  13.8299
    13.8649  13.8649  13.9248  13.9248  13.9631  13.9631  13.9824  13.9824
    14.0536  14.0821  14.2715  14.2715  14.3926  14.4890  14.4926  14.5463
    14.6727  14.6741  14.9376  14.9376  15.0793  15.4247  15.4247  15.5922
    15.7737  15.9269  16.4020  16.5067  16.5067  16.9832  17.1209  17.5680

          k = 0.1250 0.1250 0.3709 ( 14822 PWs)   bands (ev):

   -46.1460 -46.1457 -46.1450 -46.1450 -46.1447 -46.1447 -46.1439 -46.1436
   -22.4607 -22.4578 -22.4578 -22.4555 -22.4423 -22.4399 -22.4399 -22.4379
   -22.4178 -22.4178 -22.4166 -22.4166 -22.4149 -22.4148 -22.4140 -22.4139
   -22.3685 -22.3684 -22.3678 -22.3677 -22.3665 -22.3665 -22.3659 -22.3659
   -14.4095 -14.3679 -14.3104 -14.3104 -14.2833 -14.2833 -14.2400 -14.2166
    -6.6029  -6.5940  -6.5940  -6.5372  -6.3783  -6.3783  -6.1479  -5.9443
    -5.8971  -5.8436  -5.8436  -5.8345  -5.8345  -5.8076  -5.8018  -5.7876
    -5.7037  -5.6962  -5.6825  -5.6825  -5.6520  -5.6419  -5.6093  -5.6093
    -0.1408  -0.1330   0.0824   0.1060   0.1106   0.3620   0.3621   0.4085
     0.4134   0.4269   0.4269   0.4291   0.4417   0.4417   0.4582   0.4863
     0.5643   0.5644   0.5647   0.6637   0.6637   0.6766   0.6766   0.6907
     6.1235   6.1547   6.3244   6.3244   6.4087   6.4087   6.6534   6.6582
     6.7107   6.7107   6.8157   6.9074   6.9404   6.9404   7.0091   7.2262
     7.2262   7.4452   7.4452   7.4524   7.4525   7.5898   7.5898   7.6099
     7.6099   7.6711   7.7161   7.7872   7.8030   7.8886   7.8960   7.9046
     7.9525   7.9603   7.9673   7.9673   8.1776   8.1777   8.2554   8.3196
     8.5820   8.6190   8.7484   8.7484   8.8662   8.8662   8.9202   9.0061
     9.0436   9.0437   9.1350   9.1829   9.1829   9.2767   9.2767   9.3474
     9.3692   9.3692   9.5001   9.5500   9.5500   9.5719   9.6817   9.7476
     9.8474   9.8520   9.8956   9.8974   9.9594   9.9594  10.3116  10.3278
    12.4491  12.4995  13.0675  13.0709  13.1498  13.1498  13.5923  13.6086
    13.6559  13.6559  13.9335  13.9335  13.9547  13.9547  14.0203  14.0203
    14.1488  14.1667  14.1758  14.1758  14.3796  14.3864  14.4285  14.5102
    14.6723  14.6738  15.1480  15.1480  15.3825  15.3825  15.4444  16.0328
    16.0726  16.1439  16.2584  16.7424  16.7424  16.7956  16.8241  17.1460

          k = 0.1250 0.1250-0.4946 ( 14838 PWs)   bands (ev):

   -46.1459 -46.1459 -46.1448 -46.1448 -46.1448 -46.1448 -46.1438 -46.1438
   -22.4515 -22.4515 -22.4489 -22.4489 -22.4489 -22.4489 -22.4467 -22.4467
   -22.4172 -22.4172 -22.4172 -22.4172 -22.4145 -22.4145 -22.4144 -22.4144
   -22.3681 -22.3681 -22.3680 -22.3680 -22.3662 -22.3662 -22.3662 -22.3662
   -14.3889 -14.3888 -14.2970 -14.2969 -14.2969 -14.2968 -14.2284 -14.2283
    -6.5624  -6.5623  -6.4907  -6.4907  -6.4906  -6.4906  -6.0485  -6.0484
    -5.8618  -5.8617  -5.8345  -5.8345  -5.8344  -5.8344  -5.7948  -5.7947
    -5.6733  -5.6733  -5.6732  -5.6731  -5.6468  -5.6468  -5.6467  -5.6467
    -0.0215  -0.0215  -0.0148  -0.0147   0.2544   0.2545   0.3921   0.3921
     0.3921   0.3921   0.4356   0.4357   0.4443   0.4443   0.5068   0.5068
     0.5068   0.5069   0.6310   0.6311   0.6659   0.6659   0.6660   0.6660
     6.1479   6.1480   6.3736   6.3736   6.3737   6.3737   6.6560   6.6561
     6.9458   6.9458   6.9459   6.9460   7.1303   7.1304   7.1745   7.1745
     7.2015   7.2015   7.2017   7.2017   7.3727   7.3729   7.5977   7.5977
     7.5978   7.5978   7.8076   7.8077   7.8533   7.8533   7.8755   7.8756
     7.8940   7.8940   8.0855   8.0855   8.0856   8.0856   8.4332   8.4332
     8.4397   8.4398   8.8169   8.8169   8.8169   8.8170   9.0301   9.0302
     9.0937   9.0937   9.0938   9.0938   9.1459   9.1459   9.2808   9.2808
     9.2808   9.2808   9.6659   9.6659   9.7239   9.7239   9.7637   9.7638
     9.7817   9.7817   9.7817   9.7817   9.8194   9.8195  10.3196  10.3198
    12.4726  12.4727  13.3318  13.3319  13.3434  13.3435  13.4054  13.4054
    13.4055  13.4055  13.9433  13.9433  13.9433  13.9433  14.0857  14.0857
    14.0858  14.0858  14.2627  14.2627  14.2741  14.2742  14.4689  14.4690
    14.6723  14.6724  15.2977  15.2977  15.2977  15.2977  15.8147  15.8148
    16.4288  16.4290  16.4845  16.4847  16.6802  16.6804  17.0702  17.0702

          k = 0.1250 0.2500 0.0000 ( 14859 PWs)   bands (ev):

   -46.1462 -46.1454 -46.1453 -46.1452 -46.1445 -46.1444 -46.1442 -46.1435
   -22.4751 -22.4726 -22.4719 -22.4700 -22.4271 -22.4257 -22.4252 -22.4238
   -22.4183 -22.4160 -22.4154 -22.4135 -22.4129 -22.4100 -22.4099 -22.4076
   -22.3749 -22.3729 -22.3728 -22.3710 -22.3688 -22.3673 -22.3669 -22.3655
   -14.4298 -14.3453 -14.3254 -14.3236 -14.2698 -14.2675 -14.2537 -14.2051
    -6.7128  -6.6987  -6.6339  -6.5469  -6.3567  -6.2300  -6.0971  -5.8942
    -5.8812  -5.8740  -5.8504  -5.8326  -5.8067  -5.7731  -5.7663  -5.7575
    -5.7330  -5.7233  -5.7170  -5.7159  -5.6996  -5.6054  -5.5959  -5.5701
    -0.2644  -0.1884  -0.1356   0.2163   0.2876   0.3120   0.3200   0.3845
     0.3970   0.4007   0.4079   0.4544   0.4731   0.4933   0.5052   0.5261
     0.5657   0.5669   0.5927   0.6829   0.6933   0.7062   0.7069   0.7227
     6.0401   6.1339   6.1976   6.2329   6.3099   6.4396   6.4603   6.5385
     6.5644   6.6026   6.6350   6.6539   6.7485   6.7768   6.7807   7.4386
     7.5456   7.6202   7.6342   7.6386   7.6496   7.6537   7.6551   7.6677
     7.7113   7.7124   7.7357   7.7561   7.7613   7.7902   7.7925   7.9108
     7.9545   8.0038   8.0116   8.1251   8.1892   8.1913   8.2680   8.3327
     8.6917   8.7005   8.7018   8.7586   8.7720   8.8232   8.8690   8.9283
     8.9835   9.1812   9.1858   9.1912   9.3347   9.3395   9.3425   9.3490
     9.3598   9.4527   9.5294   9.5332   9.5405   9.5496   9.5795   9.6115
     9.9567   9.9986  10.0897  10.0901  10.1684  10.1910  10.2242  10.2297
    12.5653  12.6531  12.6904  12.7286  12.7363  12.8138  13.7558  13.7842
    13.8019  13.8131  13.9349  13.9673  13.9851  14.0019  14.0296  14.0304
    14.0504  14.0933  14.2756  14.2902  14.3989  14.4906  14.5139  14.5690
    14.6684  14.6895  14.8419  14.8897  14.9828  15.1491  15.4244  15.7270
    15.7825  15.8544  16.2108  16.5077  16.7400  17.0647  17.2015  17.3453

          k = 0.1250 0.2500 0.1236 ( 14846 PWs)   bands (ev):

   -46.1462 -46.1454 -46.1453 -46.1452 -46.1445 -46.1443 -46.1443 -46.1435
   -22.4733 -22.4708 -22.4702 -22.4683 -22.4290 -22.4274 -22.4270 -22.4256
   -22.4182 -22.4159 -22.4155 -22.4136 -22.4128 -22.4101 -22.4098 -22.4077
   -22.3748 -22.3729 -22.3727 -22.3710 -22.3687 -22.3672 -22.3670 -22.3656
   -14.4259 -14.3424 -14.3295 -14.3209 -14.2727 -14.2652 -14.2565 -14.2075
    -6.6956  -6.6803  -6.6240  -6.5413  -6.3381  -6.2486  -6.1330  -5.8978
    -5.8747  -5.8674  -5.8491  -5.8303  -5.8113  -5.8053  -5.7685  -5.7522
    -5.7303  -5.7269  -5.7171  -5.7136  -5.6863  -5.6108  -5.6030  -5.5764
    -0.2445  -0.1985  -0.0755   0.2304   0.2843   0.2943   0.3154   0.3624
     0.3824   0.3944   0.4155   0.4505   0.4599   0.4865   0.5017   0.5316
     0.5745   0.5759   0.5800   0.6818   0.6830   0.6885   0.7058   0.7260
     6.0749   6.1707   6.2338   6.2402   6.3682   6.4333   6.4936   6.5638
     6.6109   6.6260   6.6322   6.6798   6.7497   6.7828   6.7989   7.4509
     7.5196   7.6185   7.6308   7.6388   7.6419   7.6423   7.6502   7.6675
     7.6945   7.7135   7.7524   7.7555   7.7730   7.7810   7.8134   7.9109
     7.9412   7.9636   7.9998   8.0422   8.0953   8.1407   8.2652   8.3500
     8.5983   8.7145   8.7191   8.8042   8.8219   8.8383   8.8970   8.9232
     8.9714   9.1659   9.2158   9.2180   9.2970   9.3254   9.3311   9.3577
     9.3929   9.4755   9.4809   9.5025   9.5035   9.5482   9.5647   9.5801
     9.9323   9.9603  10.0481  10.0753  10.1455  10.1455  10.2298  10.2342
    12.5910  12.6945  12.7308  12.7482  12.7750  12.8662  13.7591  13.7930
    13.8094  13.8297  13.9393  13.9522  13.9732  13.9805  14.0016  14.0054
    14.0221  14.0487  14.2570  14.2850  14.3714  14.4752  14.4895  14.5430
    14.7492  14.7604  14.8893  14.9334  15.0207  15.2734  15.4181  15.7812
    15.7917  15.9246  16.2509  16.5329  16.6884  17.0945  17.2365  17.3851

          k = 0.1250 0.2500 0.2473 ( 14823 PWs)   bands (ev):

   -46.1461 -46.1454 -46.1453 -46.1450 -46.1446 -46.1444 -46.1442 -46.1436
   -22.4681 -22.4658 -22.4651 -22.4633 -22.4342 -22.4326 -22.4321 -22.4306
   -22.4179 -22.4158 -22.4156 -22.4139 -22.4125 -22.4104 -22.4096 -22.4080
   -22.3746 -22.3732 -22.3725 -22.3712 -22.3685 -22.3672 -22.3670 -22.3658
   -14.4148 -14.3410 -14.3344 -14.3135 -14.2810 -14.2641 -14.2585 -14.2143
    -6.6462  -6.6268  -6.5973  -6.5293  -6.3029  -6.2846  -6.2189  -5.9035
    -5.8922  -5.8713  -5.8463  -5.8429  -5.8244  -5.8011  -5.7799  -5.7637
    -5.7373  -5.7131  -5.7040  -5.7008  -5.6757  -5.6259  -5.6224  -5.5940
    -0.1942  -0.1655   0.0424   0.2202   0.2632   0.2728   0.2893   0.3260
     0.3747   0.4014   0.4032   0.4370   0.4392   0.4501   0.5322   0.5331
     0.5575   0.5586   0.6086   0.6114   0.6832   0.6855   0.7014   0.7248
     6.1488   6.2358   6.2514   6.3433   6.4161   6.5347   6.5985   6.6009
     6.6479   6.7202   6.7340   6.7596   6.7701   6.8081   6.8795   7.4020
     7.4920   7.5079   7.5497   7.5881   7.6140   7.6175   7.6516   7.6540
     7.6641   7.6844   7.6978   7.8015   7.8058   7.8560   7.8687   7.8698
     7.8701   7.9109   7.9166   7.9724   8.0282   8.1878   8.2597   8.3335
     8.3982   8.5734   8.6840   8.7481   8.7765   8.8740   8.8791   9.0824
     9.1493   9.1709   9.1954   9.2473   9.2982   9.3247   9.3314   9.3866
     9.3898   9.4151   9.4292   9.4726   9.4822   9.4961   9.5443   9.5937
     9.8520   9.8997   9.9333  10.0284  10.0368  10.0740  10.2292  10.2381
    12.6205  12.7165  12.8470  12.9071  12.9089  13.0157  13.7696  13.7933
    13.8066  13.8176  13.8362  13.8747  13.9022  13.9062  13.9515  13.9947
    14.0199  14.0614  14.1716  14.2979  14.3078  14.3921  14.4504  14.4757
    14.8526  14.8898  14.9434  15.1688  15.2135  15.4035  15.6040  15.7707
    15.9749  16.1305  16.3803  16.5295  16.6227  17.0838  17.2419  17.3352

          k = 0.1250 0.2500 0.3709 ( 14820 PWs)   bands (ev):

   -46.1459 -46.1456 -46.1451 -46.1449 -46.1448 -46.1445 -46.1441 -46.1437
   -22.4604 -22.4581 -22.4575 -22.4558 -22.4420 -22.4402 -22.4397 -22.4381
   -22.4174 -22.4163 -22.4152 -22.4143 -22.4120 -22.4109 -22.4092 -22.4084
   -22.3743 -22.3735 -22.3722 -22.3715 -22.3682 -22.3675 -22.3667 -22.3661
   -14.3981 -14.3582 -14.3223 -14.3023 -14.2934 -14.2756 -14.2484 -14.2245
    -6.5706  -6.5631  -6.5439  -6.5232  -6.3845  -6.3272  -6.2023  -5.9932
    -5.8988  -5.8610  -5.8454  -5.8259  -5.8242  -5.8182  -5.7945  -5.7772
    -5.7156  -5.6962  -5.6895  -5.6785  -5.6777  -5.6488  -5.6478  -5.6200
    -0.1204  -0.0772   0.1085   0.1576   0.1889   0.2783   0.3447   0.3453
     0.3454   0.3807   0.4095   0.4212   0.4217   0.4678   0.4874   0.4916
     0.5000   0.5219   0.6174   0.6461   0.6842   0.6847   0.6939   0.7070
     6.2062   6.2366   6.3198   6.3921   6.4442   6.5631   6.7518   6.7541
     6.7762   6.7852   6.7916   6.9357   6.9553   7.0019   7.0460   7.1892
     7.2690   7.3784   7.3914   7.4553   7.5350   7.5656   7.6092   7.6165
     7.6200   7.6618   7.6943   7.7681   7.7708   7.8354   7.8932   7.9174
     7.9230   7.9391   7.9688   8.0190   8.0306   8.0496   8.2034   8.2686
     8.3935   8.4646   8.5388   8.6432   8.7790   8.8146   8.9432   9.1258
     9.1469   9.1681   9.1801   9.2666   9.2708   9.3030   9.3061   9.3377
     9.4200   9.4276   9.4709   9.5232   9.5503   9.5795   9.6149   9.6651
     9.7641   9.7715   9.8295   9.8841   9.9385   9.9465  10.2292  10.2355
    12.6457  12.6946  13.0815  13.1100  13.1368  13.2259  13.5917  13.6197
    13.6407  13.7083  13.7792  13.8079  13.8687  13.9683  14.0044  14.0117
    14.0393  14.0585  14.1437  14.2007  14.2719  14.3429  14.3576  14.4275
    14.8791  14.8897  15.1462  15.3663  15.4333  15.5596  15.7288  16.0505
    16.2494  16.2698  16.4570  16.6162  16.8025  16.8921  16.9276  17.2888

          k = 0.1250 0.2500-0.4946 ( 14826 PWs)   bands (ev):

   -46.1458 -46.1458 -46.1449 -46.1449 -46.1447 -46.1447 -46.1439 -46.1439
   -22.4512 -22.4512 -22.4492 -22.4492 -22.4486 -22.4486 -22.4470 -22.4470
   -22.4169 -22.4168 -22.4148 -22.4147 -22.4114 -22.4114 -22.4088 -22.4088
   -22.3739 -22.3739 -22.3719 -22.3719 -22.3679 -22.3678 -22.3664 -22.3664
   -14.3783 -14.3782 -14.3079 -14.3079 -14.2890 -14.2889 -14.2365 -14.2365
    -6.5346  -6.5345  -6.4790  -6.4789  -6.4402  -6.4401  -6.1011  -6.1010
    -5.8723  -5.8722  -5.8502  -5.8501  -5.8165  -5.8165  -5.7862  -5.7861
    -5.6933  -5.6932  -5.6750  -5.6749  -5.6708  -5.6707  -5.6497  -5.6496
    -0.0145  -0.0145   0.0365   0.0366   0.3029   0.3029   0.3452   0.3453
     0.3728   0.3729   0.3993   0.3993   0.4225   0.4226   0.4491   0.4492
     0.4991   0.4991   0.6699   0.6699   0.6724   0.6724   0.6874   0.6874
     6.2306   6.2308   6.3622   6.3623   6.5137   6.5138   6.7544   6.7545
     6.9740   6.9740   7.0081   7.0082   7.0820   7.0822   7.1379   7.1380
     7.2162   7.2163   7.2891   7.2892   7.3657   7.3658   7.6075   7.6076
     7.6624   7.6625   7.6737   7.6738   7.8524   7.8525   7.8679   7.8679
     7.9389   7.9389   7.9952   7.9953   8.0958   8.0959   8.2106   8.2107
     8.3891   8.3892   8.5417   8.5418   8.7875   8.7876   9.0408   9.0408
     9.1328   9.1329   9.2160   9.2160   9.2592   9.2592   9.3383   9.3383
     9.3887   9.3888   9.5932   9.5932   9.6734   9.6735   9.7111   9.7111
     9.7487   9.7487   9.7584   9.7584   9.7973   9.7974  10.2314  10.2315
    12.6699  12.6700  13.3413  13.3414  13.3587  13.3588  13.3940  13.3941
    13.4695  13.4696  13.7910  13.7910  13.9505  13.9506  13.9860  13.9861
    14.1096  14.1096  14.1422  14.1422  14.2481  14.2481  14.3840  14.3841
    14.8860  14.8860  15.2872  15.2872  15.6265  15.6265  15.9327  15.9328
    16.5171  16.5173  16.5804  16.5806  16.8742  16.8744  16.9426  16.9427

          k = 0.1250 0.3750 0.0000 ( 14838 PWs)   bands (ev):

   -46.1460 -46.1456 -46.1451 -46.1450 -46.1447 -46.1446 -46.1440 -46.1436
   -22.4745 -22.4732 -22.4715 -22.4705 -22.4268 -22.4260 -22.4248 -22.4241
   -22.4178 -22.4165 -22.4149 -22.4139 -22.4043 -22.4015 -22.4015 -22.3993
   -22.3837 -22.3814 -22.3813 -22.3794 -22.3684 -22.3676 -22.3666 -22.3659
   -14.4107 -14.3650 -14.3128 -14.3108 -14.2827 -14.2805 -14.2427 -14.2163
    -6.6628  -6.6232  -6.5697  -6.5496  -6.4382  -6.3333  -6.0106  -5.8795
    -5.8571  -5.8564  -5.8379  -5.8127  -5.8079  -5.7860  -5.7830  -5.7709
    -5.7578  -5.7466  -5.7317  -5.6968  -5.6862  -5.6643  -5.6326  -5.6056
    -0.1653  -0.0798   0.0133   0.0975   0.1759   0.3364   0.3504   0.3898
     0.4065   0.4111   0.4277   0.4451   0.4657   0.4741   0.4759   0.4950
     0.5339   0.5932   0.6186   0.6292   0.6471   0.6587   0.6661   0.6734
     6.0932   6.1318   6.2433   6.2911   6.3112   6.4070   6.5937   6.6044
     6.6225   6.7613   6.8654   6.8940   6.9492   7.0181   7.0305   7.1527
     7.3281   7.4401   7.4642   7.5188   7.5362   7.6170   7.6431   7.6481
     7.6499   7.6674   7.7425   7.7982   7.8230   7.8308   7.8842   7.8880
     7.9362   7.9468   7.9637   8.0272   8.0581   8.1415   8.3444   8.3656
     8.6100   8.6895   8.7142   8.7291   8.8328   8.8556   8.9127   8.9226
     8.9708   9.0988   9.1009   9.1529   9.2155   9.2881   9.2913   9.3817
     9.4087   9.4309   9.4852   9.5029   9.6387   9.6649   9.6905   9.6950
     9.8169   9.8969   9.9410   9.9595  10.0316  10.1054  10.1779  10.2025
    12.6149  12.6687  12.9089  12.9560  13.0029  13.0146  13.5141  13.5341
    13.5543  13.5807  13.9596  13.9789  13.9933  14.0182  14.0433  14.0436
    14.1280  14.1677  14.1721  14.1874  14.3744  14.4028  14.4379  14.5306
    14.6771  14.6870  15.0091  15.1120  15.1474  15.3567  15.3726  16.0021
    16.0689  16.1790  16.2307  16.7962  16.8640  16.9670  16.9734  17.0868

          k = 0.1250 0.3750 0.1236 ( 14827 PWs)   bands (ev):

   -46.1460 -46.1456 -46.1451 -46.1450 -46.1447 -46.1445 -46.1441 -46.1437
   -22.4727 -22.4714 -22.4697 -22.4687 -22.4286 -22.4278 -22.4267 -22.4259
   -22.4177 -22.4164 -22.4150 -22.4140 -22.4042 -22.4016 -22.4014 -22.3993
   -22.3836 -22.3815 -22.3813 -22.3794 -22.3684 -22.3676 -22.3667 -22.3659
   -14.4071 -14.3619 -14.3166 -14.3083 -14.2859 -14.2781 -14.2453 -14.2188
    -6.6477  -6.6047  -6.5607  -6.5426  -6.4196  -6.3396  -6.0509  -5.8829
    -5.8690  -5.8570  -5.8476  -5.8386  -5.8099  -5.7831  -5.7727  -5.7665
    -5.7489  -5.7469  -5.7276  -5.6931  -5.6848  -5.6698  -5.6353  -5.6094
    -0.1484  -0.0943   0.0716   0.1137   0.1640   0.3219   0.3352   0.4021
     0.4073   0.4106   0.4162   0.4217   0.4270   0.4636   0.4777   0.4870
     0.5592   0.5624   0.5803   0.6576   0.6698   0.6707   0.6713   0.6784
     6.1309   6.1690   6.2927   6.3105   6.3477   6.4015   6.6182   6.6307
     6.6528   6.7877   6.8749   6.8803   6.9526   7.0264   7.0372   7.1746
     7.3018   7.4253   7.4696   7.4914   7.5548   7.6072   7.6533   7.6574
     7.6707   7.6831   7.7085   7.7770   7.8382   7.8449   7.8812   7.8923
     7.8947   7.9399   7.9456   8.0470   8.0669   8.0717   8.2103   8.3649
     8.5415   8.6436   8.6669   8.7054   8.8348   8.9003   8.9453   8.9782
     8.9800   9.1349   9.1496   9.1722   9.1762   9.2686   9.3014   9.3941
     9.4060   9.4103   9.4728   9.5401   9.5941   9.6505   9.6551   9.6994
     9.7963   9.8625   9.9001   9.9548  10.0278  10.1020  10.1520  10.1782
    12.6728  12.7268  12.9170  12.9833  13.0009  13.0612  13.5173  13.5429
    13.5779  13.5880  13.9686  13.9708  13.9944  13.9954  13.9959  14.0001
    14.1136  14.1363  14.1493  14.1757  14.3549  14.3749  14.4109  14.5027
    14.7572  14.7655  15.1134  15.1151  15.2697  15.3690  15.3886  16.0391
    16.1236  16.2325  16.2484  16.8069  16.9007  16.9149  17.0012  17.1541

          k = 0.1250 0.3750 0.2473 ( 14833 PWs)   bands (ev):

   -46.1459 -46.1455 -46.1452 -46.1449 -46.1448 -46.1444 -46.1442 -46.1438
   -22.4676 -22.4663 -22.4647 -22.4637 -22.4338 -22.4329 -22.4318 -22.4309
   -22.4174 -22.4161 -22.4153 -22.4143 -22.4038 -22.4019 -22.4011 -22.3996
   -22.3834 -22.3817 -22.3811 -22.3797 -22.3682 -22.3674 -22.3669 -22.3661
   -14.3967 -14.3531 -14.3274 -14.3010 -14.2950 -14.2712 -14.2528 -14.2258
    -6.6047  -6.5510  -6.5381  -6.5252  -6.3658  -6.3619  -6.1407  -5.9613
    -5.8910  -5.8651  -5.8579  -5.8117  -5.8082  -5.8025  -5.7816  -5.7543
    -5.7516  -5.7239  -5.7208  -5.6838  -5.6838  -5.6809  -5.6432  -5.6203
    -0.1136  -0.0694   0.1456   0.1658   0.1868   0.2413   0.3345   0.3356
     0.3391   0.3785   0.3963   0.4228   0.4264   0.4819   0.4858   0.4924
     0.4978   0.5323   0.6151   0.6394   0.6805   0.6825   0.6928   0.7060
     6.2110   6.2493   6.3080   6.3880   6.4233   6.5059   6.7115   6.7285
     6.7425   6.8439   6.8568   6.9102   6.9667   7.0202   7.1029   7.2267
     7.2372   7.3767   7.4034   7.4781   7.5674   7.5825   7.6101   7.6316
     7.6562   7.7180   7.7479   7.7493   7.7629   7.8754   7.8795   7.8933
     7.9041   7.9206   7.9272   7.9690   7.9905   8.0981   8.1117   8.3362
     8.3772   8.4089   8.5700   8.5851   8.8247   8.8755   8.8901   9.1330
     9.1370   9.1418   9.2031   9.2179   9.2360   9.2602   9.3321   9.3645
     9.4222   9.4394   9.4475   9.5065   9.6069   9.6142   9.6337   9.6817
     9.7304   9.7951   9.8151   9.9355   9.9903  10.0720  10.0939  10.1239
    12.8160  12.8872  12.9527  12.9873  13.0754  13.1893  13.5282  13.5663
    13.5799  13.6772  13.8267  13.8583  13.8584  13.9940  13.9945  14.0223
    14.0430  14.0438  14.1112  14.1980  14.2615  14.3351  14.3442  14.4287
    14.9242  14.9475  15.1100  15.3567  15.3975  15.5220  15.5948  16.1667
    16.2250  16.2790  16.4529  16.7508  16.8466  17.0070  17.0209  17.3393

          k = 0.1250 0.3750 0.3709 ( 14826 PWs)   bands (ev):

   -46.1458 -46.1454 -46.1453 -46.1450 -46.1447 -46.1443 -46.1443 -46.1439
   -22.4599 -22.4586 -22.4571 -22.4562 -22.4416 -22.4406 -22.4393 -22.4385
   -22.4169 -22.4158 -22.4157 -22.4147 -22.4034 -22.4023 -22.4008 -22.3999
   -22.3830 -22.3821 -22.3808 -22.3800 -22.3679 -22.3672 -22.3671 -22.3664
   -14.3810 -14.3435 -14.3399 -14.3085 -14.2901 -14.2640 -14.2609 -14.2363
    -6.5416  -6.5134  -6.5071  -6.4678  -6.4064  -6.2828  -6.2504  -6.0687
    -5.8952  -5.8738  -5.8624  -5.8506  -5.7942  -5.7939  -5.7767  -5.7596
    -5.7377  -5.7162  -5.7158  -5.6993  -5.6747  -5.6707  -5.6548  -5.6363
    -0.0632   0.0128   0.1306   0.1556   0.2324   0.2367   0.2563   0.3213
     0.3399   0.3655   0.3810   0.3865   0.4166   0.4383   0.4859   0.4874
     0.4917   0.5657   0.5699   0.6648   0.6737   0.6965   0.7060   0.7141
     6.2711   6.3045   6.3131   6.3699   6.5802   6.7390   6.7856   6.8777
     6.8941   6.8966   6.9226   7.0080   7.0219   7.0485   7.1195   7.2383
     7.2386   7.2971   7.3337   7.3451   7.4524   7.5453   7.5558   7.5693
     7.6005   7.6606   7.6991   7.7492   7.8282   7.8642   7.8746   7.8755
     7.8969   7.9128   7.9318   7.9478   7.9963   8.1482   8.1723   8.1860
     8.1880   8.2527   8.4081   8.4392   8.7887   8.8037   8.8679   9.0073
     9.1541   9.2396   9.2693   9.3002   9.3022   9.3595   9.3788   9.4113
     9.4299   9.4725   9.4809   9.5094   9.6178   9.6401   9.6463   9.6523
     9.6882   9.6908   9.7864   9.8754   9.8894   9.9335  10.0852  10.0907
    12.9075  12.9681  13.1111  13.1167  13.2254  13.3780  13.5363  13.5451
    13.6178  13.6526  13.6561  13.6673  13.8067  13.8097  13.9046  14.0257
    14.0698  14.0867  14.1170  14.1228  14.2326  14.2394  14.2996  14.3367
    15.0319  15.1015  15.1350  15.3256  15.7458  15.8005  16.0410  16.1736
    16.4036  16.4911  16.5146  16.7775  16.8697  16.9431  17.0653  17.1324

          k = 0.1250 0.3750-0.4946 ( 14808 PWs)   bands (ev):

   -46.1456 -46.1456 -46.1451 -46.1451 -46.1445 -46.1445 -46.1441 -46.1441
   -22.4508 -22.4507 -22.4497 -22.4496 -22.4482 -22.4482 -22.4474 -22.4473
   -22.4164 -22.4163 -22.4152 -22.4152 -22.4029 -22.4029 -22.4004 -22.4004
   -22.3826 -22.3826 -22.3804 -22.3804 -22.3675 -22.3675 -22.3667 -22.3667
   -14.3624 -14.3623 -14.3243 -14.3242 -14.2771 -14.2770 -14.2487 -14.2486
    -6.5010  -6.5009  -6.4705  -6.4704  -6.3638  -6.3637  -6.1800  -6.1799
    -5.8831  -5.8830  -5.8702  -5.8701  -5.7893  -5.7892  -5.7688  -5.7687
    -5.7226  -5.7225  -5.7102  -5.7100  -5.6662  -5.6660  -5.6544  -5.6543
     0.0213   0.0213   0.1192   0.1193   0.1928   0.1928   0.3251   0.3252
     0.3566   0.3566   0.3680   0.3680   0.4542   0.4542   0.4608   0.4609
     0.4878   0.4879   0.6346   0.6346   0.6998   0.6998   0.7063   0.7063
     6.2963   6.2964   6.3477   6.3478   6.7025   6.7026   6.9423   6.9424
     7.0018   7.0019   7.0053   7.0053   7.1044   7.1045   7.1201   7.1201
     7.2414   7.2416   7.3449   7.3450   7.4473   7.4474   7.4551   7.4552
     7.5348   7.5349   7.7770   7.7771   7.7995   7.7996   7.8826   7.8827
     7.9269   7.9269   8.0062   8.0062   8.0111   8.0111   8.1278   8.1279
     8.2710   8.2710   8.3001   8.3002   8.7653   8.7654   8.9053   8.9053
     9.2232   9.2232   9.3024   9.3024   9.3352   9.3352   9.3831   9.3831
     9.4989   9.4989   9.5505   9.5505   9.6167   9.6168   9.6992   9.6992
     9.7357   9.7358   9.7499   9.7500   9.8044   9.8044  10.0821  10.0823
    12.9427  12.9428  13.3668  13.3669  13.3684  13.3685  13.4310  13.4311
    13.5681  13.5682  13.5960  13.5961  13.7648  13.7649  13.9630  13.9631
    14.0575  14.0575  14.1459  14.1459  14.2127  14.2127  14.2768  14.2768
    15.0806  15.0806  15.2599  15.2599  16.0270  16.0270  16.1554  16.1555
    16.5036  16.5037  16.7278  16.7279  16.8060  16.8062  17.1344  17.1345

          k = 0.1250-0.5000 0.0000 ( 14828 PWs)   bands (ev):

   -46.1458 -46.1458 -46.1449 -46.1449 -46.1448 -46.1448 -46.1439 -46.1439
   -22.4738 -22.4738 -22.4710 -22.4710 -22.4264 -22.4264 -22.4245 -22.4245
   -22.4172 -22.4172 -22.4144 -22.4144 -22.3940 -22.3940 -22.3915 -22.3915
   -22.3914 -22.3914 -22.3893 -22.3893 -22.3680 -22.3680 -22.3662 -22.3662
   -14.3880 -14.3880 -14.2978 -14.2978 -14.2957 -14.2957 -14.2295 -14.2295
    -6.6107  -6.6107  -6.5319  -6.5319  -6.4451  -6.4451  -5.9063  -5.9063
    -5.8665  -5.8665  -5.8261  -5.8261  -5.7954  -5.7954  -5.7906  -5.7906
    -5.7388  -5.7388  -5.7329  -5.7329  -5.6649  -5.6649  -5.6467  -5.6467
    -0.0376  -0.0375   0.0469   0.0470   0.1958   0.1958   0.3702   0.3703
     0.3943   0.3943   0.4387   0.4387   0.4606   0.4606   0.5442   0.5443
     0.5592   0.5592   0.5986   0.5986   0.6360   0.6361   0.6444   0.6445
     6.1208   6.1208   6.2704   6.2704   6.3663   6.3663   6.6016   6.6016
     6.8631   6.8631   7.0211   7.0212   7.1510   7.1510   7.2026   7.2026
     7.2185   7.2185   7.2962   7.2963   7.3730   7.3730   7.6462   7.6462
     7.6573   7.6573   7.8439   7.8439   7.8551   7.8551   7.8902   7.8902
     7.9386   7.9386   7.9460   7.9460   8.0239   8.0239   8.4671   8.4672
     8.5392   8.5392   8.7089   8.7089   8.9879   8.9879   8.9882   8.9882
     8.9996   8.9996   9.0549   9.0549   9.0813   9.0813   9.3231   9.3231
     9.3503   9.3503   9.6480   9.6480   9.7645   9.7645   9.7812   9.7812
     9.7886   9.7886   9.8522   9.8522   9.9169   9.9169  10.1895  10.1895
    12.6422  12.6422  13.2169  13.2169  13.2419  13.2419  13.2794  13.2794
    13.3015  13.3016  13.9700  13.9700  14.0356  14.0356  14.0669  14.0669
    14.0966  14.0966  14.2466  14.2466  14.2802  14.2802  14.4852  14.4852
    14.6829  14.6829  15.1084  15.1084  15.2761  15.2761  15.7101  15.7101
    16.4705  16.4706  16.6001  16.6001  16.6653  16.6654  17.1579  17.1579

          k = 0.1250-0.5000 0.1236 ( 14836 PWs)   bands (ev):

   -46.1458 -46.1458 -46.1449 -46.1449 -46.1447 -46.1447 -46.1439 -46.1439
   -22.4721 -22.4721 -22.4692 -22.4692 -22.4282 -22.4282 -22.4263 -22.4263
   -22.4170 -22.4170 -22.4145 -22.4145 -22.3939 -22.3939 -22.3916 -22.3916
   -22.3913 -22.3913 -22.3894 -22.3894 -22.3680 -22.3680 -22.3663 -22.3663
   -14.3846 -14.3846 -14.3013 -14.3013 -14.2933 -14.2932 -14.2321 -14.2321
    -6.5984  -6.5984  -6.5133  -6.5133  -6.4432  -6.4432  -5.9557  -5.9557
    -5.8682  -5.8682  -5.8100  -5.8100  -5.7999  -5.7998  -5.7871  -5.7870
    -5.7362  -5.7362  -5.7359  -5.7359  -5.6644  -5.6644  -5.6478  -5.6478
    -0.0214  -0.0214   0.0317   0.0317   0.2441   0.2441   0.3622   0.3622
     0.3670   0.3670   0.4343   0.4343   0.4455   0.4455   0.4996   0.4996
     0.5433   0.5434   0.6216   0.6216   0.6578   0.6578   0.6613   0.6613
     6.1590   6.1590   6.3234   6.3234   6.3629   6.3629   6.6267   6.6267
     6.8899   6.8899   7.0225   7.0225   7.1404   7.1404   7.1838   7.1839
     7.2237   7.2237   7.3137   7.3138   7.3729   7.3729   7.6503   7.6503
     7.6793   7.6793   7.8042   7.8042   7.8659   7.8659   7.8684   7.8684
     7.9433   7.9433   7.9574   7.9574   7.9920   7.9920   8.3763   8.3764
     8.5096   8.5096   8.6602   8.6602   8.9338   8.9338   9.0388   9.0389
     9.0549   9.0549   9.0906   9.0906   9.1003   9.1003   9.3073   9.3074
     9.3644   9.3644   9.6341   9.6341   9.7394   9.7394   9.7542   9.7542
     9.7729   9.7729   9.8568   9.8568   9.9100   9.9100  10.1618  10.1618
    12.7011  12.7011  13.2237  13.2237  13.2588  13.2588  13.2959  13.2959
    13.3157  13.3157  13.9841  13.9841  13.9843  13.9843  14.0522  14.0522
    14.0737  14.0737  14.2276  14.2276  14.2494  14.2494  14.4566  14.4566
    14.7626  14.7626  15.2260  15.2260  15.2738  15.2738  15.7462  15.7462
    16.5138  16.5138  16.6702  16.6702  16.6758  16.6758  17.1598  17.1598

          k = 0.1250-0.5000 0.2473 ( 14838 PWs)   bands (ev):

   -46.1457 -46.1457 -46.1450 -46.1450 -46.1446 -46.1446 -46.1440 -46.1440
   -22.4669 -22.4669 -22.4642 -22.4642 -22.4334 -22.4334 -22.4314 -22.4314
   -22.4167 -22.4167 -22.4148 -22.4148 -22.3936 -22.3936 -22.3918 -22.3918
   -22.3911 -22.3911 -22.3896 -22.3896 -22.3678 -22.3678 -22.3665 -22.3665
   -14.3750 -14.3750 -14.3113 -14.3113 -14.2862 -14.2862 -14.2394 -14.2394
    -6.5647  -6.5647  -6.4596  -6.4595  -6.4414  -6.4414  -6.0494  -6.0494
    -5.8737  -5.8737  -5.8411  -5.8411  -5.7776  -5.7775  -5.7711  -5.7710
    -5.7419  -5.7419  -5.7349  -5.7349  -5.6636  -5.6636  -5.6511  -5.6511
     0.0055   0.0055   0.0462   0.0463   0.2800   0.2800   0.3439   0.3439
     0.3591   0.3591   0.3988   0.3988   0.4188   0.4188   0.4496   0.4496
     0.5164   0.5164   0.6628   0.6628   0.6654   0.6654   0.6893   0.6893
     6.2398   6.2398   6.3543   6.3543   6.4715   6.4715   6.7235   6.7235
     6.9683   6.9683   7.0269   7.0269   7.1180   7.1180   7.1263   7.1263
     7.2407   7.2407   7.3667   7.3667   7.3724   7.3725   7.6357   7.6357
     7.6584   7.6584   7.7372   7.7373   7.8424   7.8424   7.8896   7.8896
     7.9351   7.9351   7.9608   7.9608   7.9976   7.9976   8.1846   8.1846
     8.4446   8.4446   8.4800   8.4800   8.8579   8.8579   8.9740   8.9741
     9.1697   9.1697   9.2030   9.2030   9.2194   9.2194   9.3082   9.3082
     9.3928   9.3928   9.5866   9.5866   9.6446   9.6446   9.7179   9.7179
     9.7914   9.7914   9.8504   9.8504   9.8940   9.8940  10.0786  10.0786
    12.8609  12.8609  13.2383  13.2383  13.2843  13.2843  13.3136  13.3137
    13.4243  13.4244  13.8459  13.8459  13.9311  13.9311  14.0236  14.0236
    14.0952  14.0952  14.1218  14.1218  14.2210  14.2210  14.3822  14.3822
    14.9430  14.9430  15.2659  15.2659  15.5376  15.5377  15.8697  15.8698
    16.6387  16.6388  16.6790  16.6790  16.8747  16.8747  17.0428  17.0429

          k = 0.1250-0.5000 0.3709 ( 14828 PWs)   bands (ev):

   -46.1456 -46.1456 -46.1452 -46.1452 -46.1445 -46.1445 -46.1441 -46.1441
   -22.4593 -22.4593 -22.4567 -22.4567 -22.4411 -22.4411 -22.4389 -22.4389
   -22.4163 -22.4163 -22.4153 -22.4153 -22.3932 -22.3932 -22.3922 -22.3922
   -22.3908 -22.3908 -22.3900 -22.3900 -22.3675 -22.3675 -22.3668 -22.3668
   -14.3606 -14.3605 -14.3261 -14.3260 -14.2755 -14.2755 -14.2502 -14.2502
    -6.5192  -6.5192  -6.4497  -6.4497  -6.3763  -6.3762  -6.1593  -6.1593
    -5.8816  -5.8816  -5.8700  -5.8700  -5.7654  -5.7654  -5.7567  -5.7567
    -5.7450  -5.7450  -5.7381  -5.7381  -5.6627  -5.6627  -5.6557  -5.6557
     0.0330   0.0331   0.1222   0.1222   0.1808   0.1808   0.3230   0.3230
     0.3521   0.3521   0.3687   0.3688   0.4555   0.4555   0.4602   0.4602
     0.4929   0.4929   0.6312   0.6312   0.6961   0.6961   0.7089   0.7089
     6.3006   6.3006   6.3436   6.3436   6.6763   6.6763   6.9140   6.9140
     7.0286   7.0286   7.0304   7.0304   7.0895   7.0895   7.1135   7.1135
     7.2636   7.2637   7.3521   7.3522   7.4545   7.4545   7.4852   7.4852
     7.5326   7.5326   7.7870   7.7870   7.8081   7.8081   7.8998   7.8998
     7.9004   7.9004   7.9962   7.9962   8.0104   8.0104   8.0777   8.0777
     8.2565   8.2565   8.3342   8.3342   8.8018   8.8018   8.8616   8.8616
     9.2493   9.2493   9.2926   9.2926   9.3172   9.3172   9.4131   9.4131
     9.4805   9.4805   9.4996   9.4996   9.5253   9.5253   9.7474   9.7474
     9.8020   9.8020   9.8247   9.8247   9.8777   9.8777   9.9520   9.9520
    13.0784  13.0785  13.2663  13.2663  13.2695  13.2695  13.4196  13.4196
    13.5852  13.5852  13.6376  13.6376  13.7593  13.7593  13.9560  13.9560
    14.0845  14.0845  14.1297  14.1297  14.1881  14.1881  14.2845  14.2845
    15.1045  15.1045  15.2451  15.2451  15.9574  15.9574  16.1142  16.1142
    16.6039  16.6039  16.7780  16.7780  16.8332  16.8333  17.1929  17.1933

          k = 0.1250-0.5000-0.4946 ( 14832 PWs)   bands (ev):

   -46.1454 -46.1454 -46.1454 -46.1454 -46.1443 -46.1443 -46.1443 -46.1443
   -22.4502 -22.4502 -22.4502 -22.4502 -22.4478 -22.4478 -22.4478 -22.4478
   -22.4158 -22.4158 -22.4158 -22.4158 -22.3927 -22.3927 -22.3927 -22.3927
   -22.3904 -22.3904 -22.3904 -22.3904 -22.3671 -22.3671 -22.3671 -22.3671
   -14.3434 -14.3434 -14.3434 -14.3433 -14.2630 -14.2630 -14.2629 -14.2629
    -6.4766  -6.4766  -6.4764  -6.4764  -6.2725  -6.2725  -6.2724  -6.2723
    -5.8838  -5.8838  -5.8837  -5.8837  -5.7564  -5.7564  -5.7563  -5.7562
    -5.7429  -5.7429  -5.7428  -5.7428  -5.6602  -5.6602  -5.6601  -5.6601
     0.0929   0.0929   0.0929   0.0929   0.2199   0.2199   0.2199   0.2200
     0.3534   0.3534   0.3535   0.3535   0.4745   0.4745   0.4745   0.4745
     0.5571   0.5571   0.5571   0.5571   0.7121   0.7121   0.7121   0.7121
     6.3292   6.3292   6.3293   6.3293   6.8783   6.8783   6.8784   6.8784
     7.0254   7.0254   7.0255   7.0255   7.2352   7.2352   7.2352   7.2352
     7.2515   7.2515   7.2516   7.2516   7.3613   7.3613   7.3613   7.3614
     7.6483   7.6484   7.6484   7.6484   7.8791   7.8791   7.8792   7.8792
     7.8948   7.8949   7.8949   7.8949   8.1021   8.1021   8.1021   8.1021
     8.1992   8.1992   8.1992   8.1993   8.7952   8.7952   8.7952   8.7952
     9.3145   9.3145   9.3145   9.3145   9.4070   9.4070   9.4071   9.4071
     9.4296   9.4296   9.4297   9.4297   9.7004   9.7004   9.7004   9.7004
     9.7875   9.7875   9.7875   9.7875   9.8776   9.8777   9.8778   9.8778
    13.2283  13.2284  13.2284  13.2284  13.4017  13.4017  13.4018  13.4018
    13.5756  13.5756  13.5756  13.5756  13.7687  13.7687  13.7687  13.7688
    14.1465  14.1465  14.1465  14.1466  14.1911  14.1911  14.1911  14.1911
    15.1986  15.1986  15.1986  15.1986  16.3540  16.3540  16.3541  16.3541
    16.4454  16.4454  16.4455  16.4455  17.2570  17.2578  17.2579  17.2580

          k = 0.2500 0.2500 0.0000 ( 14825 PWs)   bands (ev):

   -46.1461 -46.1453 -46.1453 -46.1452 -46.1445 -46.1443 -46.1443 -46.1436
   -22.4747 -22.4723 -22.4723 -22.4703 -22.4269 -22.4254 -22.4254 -22.4240
   -22.4126 -22.4126 -22.4104 -22.4101 -22.4097 -22.4097 -22.4080 -22.4078
   -22.3748 -22.3744 -22.3730 -22.3730 -22.3728 -22.3725 -22.3712 -22.3712
   -14.4176 -14.3363 -14.3363 -14.3171 -14.2768 -14.2623 -14.2623 -14.2128
    -6.6682  -6.6682  -6.5791  -6.5468  -6.3924  -6.1738  -6.1738  -5.8814
    -5.8620  -5.8620  -5.8365  -5.8365  -5.8067  -5.7893  -5.7695  -5.7595
    -5.7555  -5.7347  -5.7202  -5.7163  -5.7163  -5.6183  -5.6183  -5.6128
    -0.2338  -0.1166  -0.0238   0.2205   0.2205   0.3161   0.3347   0.3347
     0.3708   0.3877   0.4185   0.4532   0.4646   0.4646   0.5278   0.5436
     0.5436   0.5909   0.5909   0.6247   0.6683   0.6845   0.6870   0.6870
     6.1067   6.1993   6.1993   6.2998   6.3316   6.5754   6.5755   6.6054
     6.6054   6.6867   6.7064   6.8073   6.8073   6.8162   6.8207   7.3188
     7.5432   7.5708   7.5708   7.6136   7.6431   7.6530   7.6530   7.6612
     7.6918   7.7109   7.7109   7.7930   7.7930   7.8082   7.8714   7.8714
     7.9084   7.9176   7.9648   7.9907   8.0270   8.2474   8.2474   8.4301
     8.4301   8.6127   8.6959   8.6959   8.7015   8.7685   9.0152   9.0153
     9.1150   9.1177   9.1377   9.2115   9.2221   9.2781   9.3380   9.4216
     9.4216   9.4488   9.4488   9.4800   9.5215   9.5215   9.6099   9.6099
     9.9455   9.9456  10.0463  10.0835  10.0909  10.0909  10.1554  10.1785
    12.6519  12.7849  12.7968  12.7987  12.7987  12.8993  13.7468  13.7734
    13.7734  13.7992  13.7992  13.8654  13.8843  13.8843  14.0063  14.0393
    14.0856  14.0856  14.1836  14.3183  14.3183  14.3966  14.4807  14.4975
    14.8260  14.8524  14.8524  15.1375  15.1585  15.1618  15.7681  15.7681
    15.9517  16.0422  16.3774  16.3774  16.8352  17.2496  17.2843  17.3291

          k = 0.2500 0.2500 0.1236 ( 14846 PWs)   bands (ev):

   -46.1461 -46.1453 -46.1453 -46.1452 -46.1444 -46.1444 -46.1444 -46.1436
   -22.4729 -22.4705 -22.4705 -22.4686 -22.4287 -22.4272 -22.4272 -22.4258
   -22.4125 -22.4125 -22.4104 -22.4100 -22.4098 -22.4098 -22.4081 -22.4079
   -22.3748 -22.3744 -22.3730 -22.3730 -22.3728 -22.3726 -22.3713 -22.3713
   -14.4139 -14.3336 -14.3335 -14.3211 -14.2744 -14.2652 -14.2652 -14.2152
    -6.6508  -6.6508  -6.5707  -6.5393  -6.3740  -6.1937  -6.1937  -5.8859
    -5.8612  -5.8612  -5.8445  -5.8349  -5.8349  -5.8048  -5.7574  -5.7542
    -5.7489  -5.7364  -5.7185  -5.7122  -5.7122  -5.6239  -5.6239  -5.6187
    -0.2137  -0.1305   0.0342   0.2309   0.2309   0.2942   0.3275   0.3275
     0.3716   0.3872   0.4006   0.4055   0.4447   0.4447   0.5274   0.5275
     0.5600   0.5760   0.6078   0.6078   0.6787   0.7012   0.7013   0.7049
     6.1478   6.2419   6.2419   6.3317   6.3562   6.5963   6.5963   6.5966
     6.5966   6.7072   6.7406   6.8160   6.8202   6.8299   6.8299   7.3274
     7.5316   7.5337   7.5337   7.6221   7.6259   7.6582   7.6582   7.6898
     7.6914   7.6914   7.7015   7.8105   7.8105   7.8155   7.8716   7.8716
     7.9068   7.9097   7.9469   7.9477   8.0405   8.1458   8.1458   8.4384
     8.4384   8.5862   8.6086   8.6901   8.7763   8.7763   9.0408   9.0408
     9.0477   9.1319   9.1572   9.2476   9.2545   9.3061   9.3650   9.3899
     9.3899   9.4088   9.4088   9.4963   9.5507   9.5507   9.5703   9.5703
     9.9019   9.9251  10.0102  10.0493  10.0740  10.0740  10.1601  10.1764
    12.6944  12.8163  12.8236  12.8512  12.8512  12.8940  13.7758  13.7792
    13.7792  13.8062  13.8063  13.8790  13.8790  13.8846  13.9537  13.9896
    14.0371  14.0371  14.1901  14.2847  14.2847  14.3866  14.4489  14.4645
    14.9368  14.9443  14.9443  15.1379  15.1578  15.2840  15.7644  15.7644
    16.0097  16.1083  16.4016  16.4016  16.7813  17.2479  17.3267  17.3660

          k = 0.2500 0.2500 0.2473 ( 14816 PWs)   bands (ev):

   -46.1460 -46.1453 -46.1452 -46.1452 -46.1445 -46.1445 -46.1443 -46.1437
   -22.4677 -22.4655 -22.4655 -22.4636 -22.4339 -22.4323 -22.4323 -22.4308
   -22.4121 -22.4121 -22.4101 -22.4101 -22.4101 -22.4097 -22.4084 -22.4082
   -22.3746 -22.3741 -22.3731 -22.3728 -22.3728 -22.3728 -22.3714 -22.3714
   -14.4032 -14.3322 -14.3257 -14.3256 -14.2733 -14.2733 -14.2675 -14.2223
    -6.6009  -6.6009  -6.5486  -6.5214  -6.3208  -6.2507  -6.2507  -5.9299
    -5.8948  -5.8554  -5.8554  -5.8312  -5.8312  -5.7993  -5.7870  -5.7631
    -5.7390  -5.7138  -5.7135  -5.7032  -5.7032  -5.6392  -5.6392  -5.6354
    -0.1561  -0.1207   0.1520   0.2323   0.2581   0.2581   0.2926   0.3187
     0.3187   0.3737   0.3800   0.3857   0.3982   0.3982   0.4903   0.4904
     0.5089   0.6206   0.6414   0.6467   0.6468   0.7233   0.7233   0.7371
     6.2384   6.3333   6.3429   6.3429   6.5171   6.5729   6.5729   6.6728
     6.6728   6.7950   6.8161   6.8185   6.8375   6.9071   6.9071   7.3661
     7.4093   7.4093   7.4840   7.4978   7.6553   7.6553   7.6609   7.6671
     7.6671   7.7073   7.7969   7.7969   7.8147   7.8344   7.8418   7.8641
     7.8641   7.8846   7.9021   7.9138   8.0683   8.0683   8.0804   8.3572
     8.4596   8.4596   8.5056   8.5318   8.7340   8.7340   8.9673   9.1501
     9.1779   9.2046   9.2046   9.2345   9.3072   9.3072   9.3150   9.3917
     9.3917   9.4304   9.4430   9.5081   9.5081   9.5409   9.5593   9.5593
     9.8154   9.8692   9.9061   9.9640  10.0199  10.0199  10.1626  10.1713
    12.7609  12.8789  12.9212  12.9446  13.0005  13.0005  13.7960  13.7960
    13.8107  13.8348  13.8349  13.8501  13.8522  13.8522  13.8542  13.9182
    13.9182  13.9428  14.1985  14.1985  14.2131  14.3455  14.3662  14.3883
    15.1397  15.1558  15.1800  15.1800  15.2273  15.6139  15.7530  15.7530
    16.1753  16.3035  16.4899  16.4899  16.6212  17.1776  17.3669  17.4274

          k = 0.2500 0.2500 0.3709 ( 14819 PWs)   bands (ev):

   -46.1458 -46.1455 -46.1450 -46.1450 -46.1446 -46.1446 -46.1442 -46.1439
   -22.4601 -22.4579 -22.4579 -22.4561 -22.4417 -22.4400 -22.4400 -22.4384
   -22.4117 -22.4117 -22.4106 -22.4106 -22.4097 -22.4094 -22.4088 -22.4085
   -22.3742 -22.3738 -22.3734 -22.3731 -22.3725 -22.3725 -22.3717 -22.3717
   -14.3871 -14.3487 -14.3138 -14.3137 -14.2855 -14.2854 -14.2572 -14.2327
    -6.5245  -6.5245  -6.5222  -6.5054  -6.3350  -6.3350  -6.2392  -6.0315
    -5.8957  -5.8438  -5.8438  -5.8354  -5.8291  -5.8291  -5.7911  -5.7714
    -5.7160  -5.7080  -5.7041  -5.6926  -5.6926  -5.6599  -5.6596  -5.6595
    -0.0690  -0.0655   0.1410   0.1579   0.2858   0.2858   0.2928   0.3362
     0.3363   0.3485   0.3485   0.3767   0.3794   0.3832   0.4407   0.4408
     0.4481   0.5575   0.6800   0.6884   0.6884   0.7314   0.7314   0.7442
     6.3079   6.3360   6.4348   6.4348   6.5379   6.5379   6.7533   6.8172
     6.8173   6.8226   6.8226   6.9802   6.9870   7.0627   7.0627   7.2175
     7.2175   7.2897   7.3930   7.4477   7.5358   7.5358   7.6346   7.6753
     7.6754   7.7075   7.7108   7.7108   7.7162   7.8406   7.8568   7.8928
     7.9043   7.9414   7.9414   7.9906   8.0497   8.0497   8.0742   8.1452
     8.3708   8.3715   8.4836   8.4836   8.6086   8.6086   8.9223   9.0189
     9.2403   9.2566   9.2566   9.2888   9.2888   9.3309   9.3762   9.4052
     9.4052   9.5243   9.5243   9.5481   9.5607   9.5848   9.5848   9.6095
     9.7344   9.7471   9.7875   9.8431   9.9196   9.9196  10.1617  10.1659
    12.7984  12.8560  13.1301  13.1309  13.2106  13.2106  13.5966  13.6369
    13.6903  13.6903  13.8157  13.8157  13.8636  13.8636  13.8901  13.8901
    13.9674  14.0271  14.0851  14.0851  14.2399  14.2494  14.2544  14.3369
    15.1450  15.1522  15.4369  15.4369  15.6089  15.7154  15.7154  16.0642
    16.3503  16.4270  16.6158  16.6681  16.6681  16.9391  17.0625  17.2804

          k = 0.2500 0.2500-0.4946 ( 14798 PWs)   bands (ev):

   -46.1457 -46.1457 -46.1448 -46.1448 -46.1448 -46.1448 -46.1440 -46.1440
   -22.4509 -22.4509 -22.4489 -22.4489 -22.4489 -22.4489 -22.4472 -22.4472
   -22.4111 -22.4111 -22.4111 -22.4111 -22.4093 -22.4092 -22.4090 -22.4089
   -22.3738 -22.3738 -22.3735 -22.3735 -22.3721 -22.3721 -22.3721 -22.3721
   -14.3680 -14.3679 -14.2997 -14.2997 -14.2996 -14.2996 -14.2451 -14.2450
    -6.5047  -6.5046  -6.4315  -6.4315  -6.4314  -6.4314  -6.1388  -6.1387
    -5.8762  -5.8761  -5.8331  -5.8330  -5.8330  -5.8330  -5.7813  -5.7812
    -5.7037  -5.7036  -5.6883  -5.6882  -5.6786  -5.6786  -5.6785  -5.6785
     0.0316   0.0316   0.0351   0.0351   0.3104   0.3104   0.3105   0.3105
     0.3801   0.3801   0.3851   0.3851   0.3852   0.3852   0.4029   0.4030
     0.4351   0.4351   0.7192   0.7192   0.7192   0.7192   0.7240   0.7240
     6.3329   6.3330   6.4948   6.4948   6.4949   6.4949   6.8171   6.8172
     7.0129   7.0129   7.0130   7.0130   7.0268   7.0269   7.1100   7.1101
     7.2995   7.2995   7.2996   7.2996   7.4168   7.4169   7.5679   7.5680
     7.6855   7.6855   7.6856   7.6856   7.7809   7.7810   7.8777   7.8777
     7.9385   7.9386   8.0121   8.0121   8.0122   8.0122   8.1883   8.1884
     8.2402   8.2402   8.5220   8.5221   8.5221   8.5221   8.9337   8.9338
     9.2591   9.2591   9.2591   9.2591   9.2994   9.2994   9.4621   9.4621
     9.4621   9.4622   9.5590   9.5590   9.6506   9.6507   9.6949   9.6950
     9.7020   9.7020   9.7683   9.7683   9.7684   9.7684  10.1623  10.1625
    12.8271  12.8272  13.3583  13.3584  13.3853  13.3853  13.4552  13.4552
    13.4553  13.4553  13.8396  13.8396  13.8396  13.8397  13.9764  13.9764
    13.9765  13.9765  14.1049  14.1049  14.1368  14.1368  14.2924  14.2925
    15.1468  15.1469  15.6218  15.6218  15.6218  15.6218  16.0018  16.0019
    16.5383  16.5385  16.7345  16.7347  16.9539  16.9539  17.0192  17.0194

          k = 0.2500 0.3750 0.0000 ( 14834 PWs)   bands (ev):

   -46.1459 -46.1455 -46.1451 -46.1450 -46.1447 -46.1446 -46.1442 -46.1438
   -22.4742 -22.4729 -22.4718 -22.4708 -22.4266 -22.4258 -22.4251 -22.4243
   -22.4120 -22.4108 -22.4093 -22.4083 -22.4039 -22.4018 -22.4012 -22.3995
   -22.3834 -22.3816 -22.3812 -22.3796 -22.3743 -22.3734 -22.3723 -22.3715
   -14.3992 -14.3552 -14.3228 -14.3047 -14.2906 -14.2750 -14.2510 -14.2242
    -6.6265  -6.6018  -6.5578  -6.4945  -6.4509  -6.2776  -6.0880  -5.8748
    -5.8633  -5.8440  -5.8424  -5.8324  -5.8158  -5.8009  -5.7923  -5.7708
    -5.7635  -5.7403  -5.7167  -5.7104  -5.6912  -5.6841  -5.6502  -5.6335
    -0.1555  -0.0157   0.0938   0.1258   0.2277   0.2372   0.3234   0.3316
     0.3752   0.4070   0.4129   0.4287   0.4458   0.4540   0.5130   0.5180
     0.5713   0.5837   0.5863   0.6179   0.6414   0.6494   0.6532   0.6675
     6.1597   6.1964   6.2470   6.2871   6.4337   6.5633   6.6769   6.6918
     6.7196   6.8526   6.8996   6.9179   6.9944   7.0184   7.0334   7.1009
     7.3611   7.3777   7.4299   7.5176   7.5681   7.5937   7.6113   7.6313
     7.6486   7.7063   7.7157   7.8004   7.8216   7.8351   7.8493   7.8958
     7.9195   7.9516   7.9792   7.9871   8.0548   8.1443   8.1861   8.3388
     8.4359   8.5597   8.6153   8.6252   8.6610   8.7303   8.8870   9.0180
     9.0463   9.0719   9.1452   9.1841   9.1936   9.3073   9.3436   9.4147
     9.4470   9.4534   9.4892   9.5419   9.5862   9.6260   9.6968   9.7233
     9.8304   9.8808   9.9232   9.9285   9.9538  10.0809  10.0943  10.1176
    12.7145  12.7758  12.9675  13.0009  13.0178  13.1363  13.5299  13.5335
    13.5622  13.6636  13.7919  13.8222  13.8464  13.9935  14.0252  14.0553
    14.0638  14.0683  14.1569  14.2154  14.2661  14.3570  14.3752  14.4493
    14.8614  14.8631  15.0206  15.1584  15.4057  15.5015  15.7159  16.1614
    16.2212  16.2902  16.3407  16.6617  17.0083  17.0166  17.0571  17.2748

          k = 0.2500 0.3750 0.1236 ( 14842 PWs)   bands (ev):

   -46.1459 -46.1454 -46.1451 -46.1450 -46.1446 -46.1446 -46.1442 -46.1438
   -22.4724 -22.4711 -22.4701 -22.4690 -22.4284 -22.4276 -22.4269 -22.4261
   -22.4119 -22.4107 -22.4094 -22.4084 -22.4038 -22.4017 -22.4014 -22.3996
   -22.3833 -22.3815 -22.3813 -22.3797 -22.3742 -22.3733 -22.3724 -22.3716
   -14.3957 -14.3522 -14.3201 -14.3084 -14.2881 -14.2781 -14.2538 -14.2268
    -6.6110  -6.5842  -6.5476  -6.4889  -6.4327  -6.2849  -6.1105  -5.9147
    -5.8677  -5.8420  -5.8404  -5.8404  -5.8136  -5.7912  -5.7812  -5.7773
    -5.7665  -5.7416  -5.7149  -5.7101  -5.6900  -5.6884  -5.6538  -5.6381
    -0.1377  -0.0317   0.1077   0.1795   0.2120   0.2441   0.3109   0.3252
     0.3738   0.3910   0.3924   0.4199   0.4205   0.4535   0.4818   0.4877
     0.5183   0.5345   0.6181   0.6405   0.6764   0.6875   0.6898   0.6943
     6.2049   6.2405   6.2954   6.3412   6.4307   6.5552   6.6876   6.7109
     6.7318   6.8387   6.9105   6.9344   7.0015   7.0137   7.0523   7.1151
     7.3441   7.3680   7.3981   7.5357   7.5628   7.5969   7.5998   7.6405
     7.6655   7.7135   7.7329   7.7679   7.8070   7.8433   7.8603   7.8958
     7.9078   7.9147   7.9638   7.9983   8.0706   8.1111   8.1482   8.2331
     8.4193   8.5532   8.5546   8.5926   8.6256   8.7677   8.8513   8.9949
     9.0987   9.1167   9.1543   9.2183   9.2428   9.3024   9.3325   9.4206
     9.4249   9.4870   9.5146   9.5243   9.5278   9.6627   9.6645   9.7109
     9.7986   9.8578   9.8764   9.9396   9.9456  10.0745  10.0761  10.1022
    12.7650  12.8296  12.9934  13.0315  13.0454  13.1307  13.5400  13.5679
    13.5705  13.6585  13.8029  13.8396  13.8532  13.9755  13.9858  14.0164
    14.0207  14.0641  14.1123  14.1744  14.2573  14.3257  14.3393  14.4177
    14.9566  14.9644  15.1259  15.2787  15.4063  15.5109  15.7143  16.1827
    16.2210  16.3382  16.4030  16.6713  16.9609  17.0474  17.0718  17.3585

          k = 0.2500 0.3750 0.2473 ( 14828 PWs)   bands (ev):

   -46.1458 -46.1453 -46.1451 -46.1450 -46.1447 -46.1445 -46.1443 -46.1439
   -22.4672 -22.4660 -22.4650 -22.4640 -22.4336 -22.4327 -22.4320 -22.4312
   -22.4116 -22.4104 -22.4097 -22.4087 -22.4035 -22.4016 -22.4014 -22.3998
   -22.3831 -22.3815 -22.3813 -22.3799 -22.3740 -22.3731 -22.3726 -22.3718
   -14.3857 -14.3437 -14.3188 -14.3125 -14.2870 -14.2810 -14.2617 -14.2341
    -6.5669  -6.5335  -6.5210  -6.4757  -6.3802  -6.3104  -6.1727  -5.9956
    -5.8784  -5.8547  -5.8424  -5.8302  -5.8114  -5.8084  -5.7868  -5.7573
    -5.7549  -5.7472  -5.7128  -5.7091  -5.6989  -5.6881  -5.6633  -5.6512
    -0.0881  -0.0334   0.1470   0.1910   0.2509   0.2631   0.2912   0.3299
     0.3340   0.3369   0.3638   0.3677   0.3846   0.3929   0.4316   0.4414
     0.4678   0.5607   0.6791   0.6801   0.6873   0.7279   0.7355   0.7376
     6.3080   6.3418   6.4202   6.4245   6.4923   6.5343   6.7427   6.7790
     6.7916   6.8000   6.9320   6.9877   7.0054   7.0316   7.1150   7.1666
     7.2566   7.3010   7.3771   7.4792   7.5601   7.5773   7.6111   7.7062
     7.7100   7.7136   7.7263   7.7345   7.7382   7.8267   7.8723   7.8968
     7.8984   7.9048   7.9307   8.0041   8.0070   8.0327   8.1350   8.1573
     8.3467   8.3784   8.4229   8.5336   8.5361   8.7104   8.7813   8.9035
     9.2196   9.2534   9.2614   9.2717   9.2864   9.3315   9.3737   9.4134
     9.4535   9.4592   9.4956   9.5311   9.5750   9.6175   9.6810   9.6838
     9.7300   9.7913   9.8058   9.9086   9.9187  10.0117  10.0637  10.0686
    12.8988  12.9767  13.0437  13.1045  13.1153  13.1744  13.5646  13.6035
    13.6435  13.6560  13.8353  13.8379  13.8773  13.8837  13.8890  13.8943
    13.9469  14.0045  14.0731  14.0879  14.2191  14.2373  14.2539  14.3339
    15.1907  15.2041  15.4087  15.4120  15.5652  15.6030  15.7051  16.2116
    16.2635  16.4770  16.5878  16.7074  16.7949  17.0753  17.1565  17.3280

          k = 0.2500 0.3750 0.3709 ( 14824 PWs)   bands (ev):

   -46.1456 -46.1453 -46.1452 -46.1448 -46.1448 -46.1445 -46.1444 -46.1440
   -22.4595 -22.4584 -22.4575 -22.4565 -22.4413 -22.4404 -22.4396 -22.4387
   -22.4112 -22.4101 -22.4100 -22.4091 -22.4031 -22.4021 -22.4011 -22.4002
   -22.3827 -22.3819 -22.3810 -22.3803 -22.3737 -22.3729 -22.3728 -22.3721
   -14.3705 -14.3343 -14.3308 -14.3009 -14.3001 -14.2735 -14.2703 -14.2449
    -6.5017  -6.4893  -6.4646  -6.4557  -6.3591  -6.2997  -6.2614  -6.0950
    -5.8865  -5.8607  -5.8512  -5.8468  -5.8166  -5.8041  -5.7786  -5.7567
    -5.7421  -5.7411  -5.7132  -5.7092  -5.7048  -5.6869  -5.6750  -5.6705
    -0.0210   0.0142   0.1595   0.1846   0.2133   0.2134   0.2693   0.2888
     0.3361   0.3511   0.3513   0.3517   0.3641   0.3753   0.3940   0.4145
     0.4195   0.6329   0.6384   0.7315   0.7320   0.7321   0.7597   0.7646
     6.3870   6.4198   6.4262   6.5050   6.5576   6.7062   6.7399   6.8748
     6.9171   6.9186   6.9466   7.0277   7.0909   7.1028   7.1420   7.1424
     7.2354   7.2674   7.3026   7.3748   7.5172   7.5900   7.6128   7.6173
     7.6327   7.6329   7.6479   7.7506   7.7655   7.8706   7.8787   7.8963
     7.8966   7.9148   7.9173   7.9548   7.9695   8.0934   8.1093   8.1144
     8.1777   8.2031   8.3099   8.3672   8.5092   8.5851   8.7238   8.7798
     9.2659   9.3384   9.3428   9.3514   9.3517   9.3879   9.3966   9.4847
     9.5141   9.5176   9.5402   9.5406   9.6434   9.6558   9.6612   9.6658
     9.6679   9.6703   9.7501   9.8201   9.8621   9.8997  10.0449  10.0494
    13.0154  13.0919  13.1728  13.1871  13.2547  13.3603  13.5920  13.6018
    13.6300  13.6767  13.6846  13.7113  13.7856  13.7872  13.8786  13.9259
    13.9337  13.9517  13.9786  14.0951  14.1229  14.1255  14.1876  14.2310
    15.3637  15.4088  15.4387  15.6764  15.7567  15.7987  16.0520  16.1655
    16.4391  16.5207  16.6917  16.7956  16.8863  16.9096  17.0541  17.2589

          k = 0.2500 0.3750-0.4946 ( 14834 PWs)   bands (ev):

   -46.1455 -46.1455 -46.1450 -46.1450 -46.1446 -46.1446 -46.1442 -46.1442
   -22.4505 -22.4505 -22.4494 -22.4494 -22.4485 -22.4485 -22.4476 -22.4476
   -22.4107 -22.4106 -22.4096 -22.4096 -22.4026 -22.4026 -22.4007 -22.4006
   -22.3823 -22.3823 -22.3806 -22.3806 -22.3733 -22.3733 -22.3725 -22.3725
   -14.3525 -14.3525 -14.3156 -14.3155 -14.2873 -14.2872 -14.2577 -14.2576
    -6.4676  -6.4675  -6.4274  -6.4273  -6.3608  -6.3607  -6.2006  -6.2005
    -5.8793  -5.8792  -5.8554  -5.8553  -5.8063  -5.8062  -5.7679  -5.7678
    -5.7360  -5.7358  -5.7137  -5.7136  -5.6912  -5.6911  -5.6837  -5.6835
     0.0600   0.0601   0.1053   0.1054   0.2146   0.2146   0.2858   0.2858
     0.3161   0.3161   0.3424   0.3425   0.3644   0.3645   0.3836   0.3836
     0.5405   0.5405   0.7000   0.7000   0.7581   0.7581   0.7626   0.7627
     6.4135   6.4136   6.4723   6.4724   6.6621   6.6622   6.9364   6.9365
     6.9518   6.9519   7.0174   7.0174   7.1068   7.1069   7.1249   7.1249
     7.3159   7.3160   7.4177   7.4178   7.4224   7.4224   7.4476   7.4477
     7.6205   7.6206   7.6996   7.6996   7.7949   7.7950   7.8925   7.8926
     7.9413   7.9413   7.9634   7.9635   8.0425   8.0426   8.0526   8.0526
     8.1895   8.1896   8.2396   8.2396   8.5095   8.5096   8.7135   8.7136
     9.3084   9.3085   9.3611   9.3611   9.3914   9.3915   9.5131   9.5131
     9.5146   9.5146   9.5921   9.5922   9.6492   9.6494   9.6868   9.6868
     9.7006   9.7006   9.7363   9.7363   9.7673   9.7674  10.0406  10.0408
    13.0612  13.0612  13.3970  13.3971  13.4239  13.4240  13.4583  13.4583
    13.5761  13.5762  13.6242  13.6242  13.7920  13.7921  13.9170  13.9170
    13.9368  13.9368  14.0137  14.0137  14.0840  14.0840  14.1670  14.1670
    15.4007  15.4008  15.5990  15.5990  16.0312  16.0313  16.1685  16.1687
    16.5201  16.5203  16.7282  16.7284  16.9611  16.9612  16.9861  16.9862

          k = 0.2500-0.5000 0.0000 ( 14818 PWs)   bands (ev):

   -46.1457 -46.1457 -46.1449 -46.1449 -46.1448 -46.1448 -46.1440 -46.1440
   -22.4735 -22.4735 -22.4713 -22.4713 -22.4262 -22.4262 -22.4247 -22.4247
   -22.4114 -22.4114 -22.4088 -22.4088 -22.3937 -22.3937 -22.3917 -22.3917
   -22.3912 -22.3912 -22.3896 -22.3896 -22.3738 -22.3738 -22.3719 -22.3719
   -14.3774 -14.3773 -14.3068 -14.3068 -14.2899 -14.2899 -14.2377 -14.2377
    -6.5859  -6.5859  -6.5248  -6.5248  -6.3897  -6.3897  -5.9836  -5.9835
    -5.8503  -5.8503  -5.8226  -5.8226  -5.7977  -5.7977  -5.7921  -5.7921
    -5.7489  -5.7488  -5.7258  -5.7258  -5.6840  -5.6840  -5.6618  -5.6618
    -0.0401  -0.0401   0.1046   0.1047   0.2715   0.2715   0.2918   0.2918
     0.3656   0.3656   0.3963   0.3963   0.4788   0.4788   0.4951   0.4952
     0.5769   0.5769   0.6233   0.6233   0.6322   0.6322   0.6371   0.6371
     6.1858   6.1858   6.2715   6.2715   6.5093   6.5093   6.7126   6.7126
     6.8754   6.8755   7.1132   7.1132   7.1225   7.1225   7.1434   7.1434
     7.2807   7.2807   7.2971   7.2971   7.3573   7.3573   7.6255   7.6255
     7.7113   7.7114   7.7214   7.7214   7.8707   7.8707   7.8870   7.8870
     7.9284   7.9284   8.0123   8.0123   8.0612   8.0612   8.2527   8.2527
     8.4675   8.4676   8.6086   8.6086   8.7085   8.7085   8.8289   8.8289
     9.1256   9.1256   9.1388   9.1389   9.2474   9.2474   9.3420   9.3420
     9.3985   9.3985   9.6853   9.6853   9.7512   9.7512   9.7546   9.7546
     9.7662   9.7662   9.7930   9.7930   9.9287   9.9287  10.1022  10.1022
    12.7491  12.7491  13.2437  13.2437  13.2651  13.2652  13.2896  13.2896
    13.4014  13.4014  13.8077  13.8077  13.9372  13.9372  14.0490  14.0490
    14.1207  14.1207  14.1261  14.1261  14.2590  14.2591  14.4040  14.4041
    14.8686  14.8686  15.1191  15.1191  15.6036  15.6036  15.8619  15.8619
    16.6496  16.6497  16.6808  16.6808  16.7751  16.7751  17.0153  17.0153

          k = 0.2500-0.5000 0.1236 ( 14824 PWs)   bands (ev):

   -46.1457 -46.1457 -46.1449 -46.1449 -46.1448 -46.1448 -46.1440 -46.1440
   -22.4717 -22.4717 -22.4696 -22.4696 -22.4280 -22.4280 -22.4265 -22.4265
   -22.4113 -22.4113 -22.4089 -22.4089 -22.3936 -22.3936 -22.3916 -22.3916
   -22.3913 -22.3913 -22.3897 -22.3897 -22.3738 -22.3738 -22.3720 -22.3720
   -14.3741 -14.3741 -14.3042 -14.3042 -14.2933 -14.2933 -14.2404 -14.2403
    -6.5728  -6.5728  -6.5070  -6.5069  -6.3890  -6.3890  -6.0115  -6.0114
    -5.8521  -5.8521  -5.8140  -5.8140  -5.8099  -5.8099  -5.7890  -5.7890
    -5.7508  -5.7508  -5.7259  -5.7259  -5.6854  -5.6854  -5.6637  -5.6637
    -0.0245  -0.0244   0.0873   0.0873   0.2756   0.2756   0.3380   0.3380
     0.3448   0.3449   0.3930   0.3930   0.4464   0.4464   0.4652   0.4652
     0.4942   0.4942   0.6653   0.6653   0.6683   0.6683   0.6794   0.6794
     6.2314   6.2314   6.3233   6.3233   6.5026   6.5026   6.7222   6.7222
     6.8944   6.8944   7.1079   7.1080   7.1103   7.1103   7.1212   7.1212
     7.2877   7.2877   7.3153   7.3153   7.3751   7.3751   7.6492   7.6492
     7.6957   7.6957   7.7180   7.7180   7.8469   7.8470   7.8732   7.8732
     7.9387   7.9387   8.0061   8.0061   8.0290   8.0290   8.2588   8.2589
     8.3782   8.3782   8.5725   8.5725   8.6865   8.6865   8.8284   8.8284
     9.1609   9.1609   9.1899   9.1899   9.2494   9.2494   9.3314   9.3314
     9.4271   9.4271   9.6617   9.6617   9.6986   9.6986   9.7565   9.7566
     9.7664   9.7664   9.8007   9.8007   9.9200   9.9200  10.0809  10.0809
    12.8017  12.8017  13.2606  13.2606  13.2993  13.2993  13.3009  13.3010
    13.3980  13.3980  13.8214  13.8214  13.9442  13.9442  14.0018  14.0018
    14.0810  14.0810  14.1167  14.1167  14.2186  14.2186  14.3717  14.3717
    14.9640  14.9640  15.2351  15.2351  15.6044  15.6045  15.8772  15.8773
    16.6836  16.6836  16.6932  16.6933  16.8278  16.8278  17.0145  17.0146

          k = 0.2500-0.5000 0.2473 ( 14838 PWs)   bands (ev):

   -46.1456 -46.1456 -46.1449 -46.1449 -46.1448 -46.1448 -46.1441 -46.1441
   -22.4666 -22.4666 -22.4645 -22.4645 -22.4332 -22.4332 -22.4316 -22.4316
   -22.4110 -22.4110 -22.4092 -22.4092 -22.3933 -22.3933 -22.3916 -22.3916
   -22.3914 -22.3914 -22.3899 -22.3899 -22.3736 -22.3736 -22.3722 -22.3722
   -14.3648 -14.3648 -14.3030 -14.3029 -14.2968 -14.2968 -14.2479 -14.2479
    -6.5368  -6.5368  -6.4554  -6.4553  -6.3908  -6.3908  -6.0820  -6.0820
    -5.8586  -5.8586  -5.8374  -5.8374  -5.7972  -5.7972  -5.7813  -5.7812
    -5.7535  -5.7535  -5.7288  -5.7288  -5.6890  -5.6890  -5.6698  -5.6698
     0.0181   0.0181   0.0746   0.0746   0.2851   0.2851   0.2868   0.2868
     0.3821   0.3821   0.3871   0.3871   0.3948   0.3948   0.4165   0.4165
     0.4353   0.4353   0.7119   0.7119   0.7199   0.7199   0.7203   0.7203
     6.3356   6.3356   6.4630   6.4630   6.4867   6.4867   6.7767   6.7767
     6.9562   6.9562   7.0558   7.0558   7.0838   7.0839   7.1048   7.1048
     7.3082   7.3082   7.3671   7.3671   7.4121   7.4121   7.5993   7.5993
     7.7099   7.7099   7.7147   7.7148   7.7752   7.7752   7.8847   7.8847
     7.9681   7.9681   7.9707   7.9707   7.9917   7.9917   8.2032   8.2032
     8.2581   8.2581   8.4195   8.4195   8.6311   8.6311   8.7490   8.7490
     9.2611   9.2611   9.2728   9.2728   9.3032   9.3032   9.3623   9.3623
     9.4796   9.4796   9.6155   9.6155   9.6243   9.6243   9.7202   9.7202
     9.7650   9.7650   9.8138   9.8138   9.8992   9.8992  10.0173  10.0173
    12.9454  12.9454  13.2952  13.2952  13.3409  13.3410  13.3829  13.3829
    13.4070  13.4070  13.8658  13.8658  13.8664  13.8664  13.9590  13.9590
    13.9667  13.9667  14.0776  14.0777  14.1216  14.1216  14.2858  14.2858
    15.1985  15.1985  15.5479  15.5479  15.6013  15.6013  15.9445  15.9445
    16.6821  16.6821  16.8148  16.8149  16.9913  16.9914  17.0205  17.0205

          k = 0.2500-0.5000 0.3709 ( 14842 PWs)   bands (ev):

   -46.1454 -46.1454 -46.1451 -46.1451 -46.1446 -46.1446 -46.1443 -46.1443
   -22.4590 -22.4590 -22.4570 -22.4570 -22.4409 -22.4409 -22.4392 -22.4392
   -22.4106 -22.4106 -22.4096 -22.4096 -22.3929 -22.3929 -22.3920 -22.3920
   -22.3911 -22.3911 -22.3903 -22.3903 -22.3733 -22.3733 -22.3725 -22.3725
   -14.3508 -14.3507 -14.3173 -14.3173 -14.2857 -14.2857 -14.2593 -14.2592
    -6.4872  -6.4872  -6.4049  -6.4049  -6.3761  -6.3761  -6.1763  -6.1762
    -5.8685  -5.8685  -5.8630  -5.8630  -5.7817  -5.7817  -5.7735  -5.7734
    -5.7518  -5.7518  -5.7359  -5.7359  -5.6915  -5.6915  -5.6795  -5.6795
     0.0668   0.0668   0.1113   0.1113   0.2014   0.2014   0.2867   0.2867
     0.3025   0.3025   0.3479   0.3479   0.3751   0.3751   0.3813   0.3813
     0.5424   0.5425   0.6962   0.6962   0.7598   0.7598   0.7603   0.7603
     6.4165   6.4165   6.4687   6.4687   6.6447   6.6447   6.9111   6.9111
     6.9521   6.9522   7.0536   7.0536   7.0770   7.0770   7.1378   7.1378
     7.3262   7.3262   7.4395   7.4395   7.4437   7.4437   7.4533   7.4533
     7.6233   7.6234   7.6910   7.6910   7.8067   7.8068   7.9001   7.9001
     7.9207   7.9207   7.9918   7.9918   8.0316   8.0317   8.0427   8.0427
     8.2037   8.2037   8.2080   8.2081   8.5733   8.5733   8.6222   8.6222
     9.3243   9.3243   9.3523   9.3523   9.3840   9.3840   9.5136   9.5136
     9.5214   9.5214   9.5401   9.5401   9.5723   9.5723   9.7131   9.7131
     9.7639   9.7639   9.7945   9.7945   9.8766   9.8766   9.9229   9.9229
    13.1479  13.1479  13.3362  13.3363  13.3569  13.3569  13.4471  13.4471
    13.5647  13.5647  13.6656  13.6656  13.7882  13.7882  13.9302  13.9302
    13.9386  13.9386  14.0031  14.0031  14.0664  14.0664  14.1723  14.1723
    15.4258  15.4258  15.5848  15.5848  15.9684  15.9685  16.1274  16.1275
    16.6148  16.6148  16.7762  16.7762  16.9968  16.9968  17.0375  17.0375

          k = 0.2500-0.5000-0.4946 ( 14848 PWs)   bands (ev):

   -46.1452 -46.1452 -46.1452 -46.1452 -46.1444 -46.1444 -46.1444 -46.1444
   -22.4499 -22.4499 -22.4499 -22.4499 -22.4481 -22.4481 -22.4481 -22.4481
   -22.4101 -22.4101 -22.4101 -22.4101 -22.3925 -22.3925 -22.3925 -22.3925
   -22.3907 -22.3907 -22.3907 -22.3907 -22.3729 -22.3729 -22.3729 -22.3729
   -14.3341 -14.3341 -14.3341 -14.3340 -14.2726 -14.2726 -14.2725 -14.2725
    -6.4385  -6.4385  -6.4384  -6.4384  -6.2791  -6.2790  -6.2789  -6.2789
    -5.8735  -5.8735  -5.8734  -5.8734  -5.7727  -5.7727  -5.7726  -5.7726
    -5.7449  -5.7449  -5.7448  -5.7448  -5.6885  -5.6885  -5.6884  -5.6884
     0.1227   0.1227   0.1228   0.1228   0.1926   0.1926   0.1927   0.1927
     0.3211   0.3211   0.3212   0.3212   0.3691   0.3691   0.3691   0.3691
     0.6355   0.6355   0.6356   0.6356   0.7746   0.7746   0.7746   0.7746
     6.4499   6.4499   6.4500   6.4500   6.8147   6.8147   6.8147   6.8148
     7.0139   7.0139   7.0139   7.0139   7.2520   7.2520   7.2521   7.2521
     7.2684   7.2685   7.2685   7.2685   7.4876   7.4876   7.4876   7.4876
     7.5718   7.5718   7.5719   7.5719   7.9037   7.9037   7.9037   7.9037
     7.9114   7.9114   7.9114   7.9115   8.0554   8.0554   8.0554   8.0554
     8.1228   8.1228   8.1229   8.1229   8.5558   8.5558   8.5558   8.5558
     9.3797   9.3797   9.3798   9.3798   9.4458   9.4458   9.4458   9.4458
     9.5436   9.5436   9.5437   9.5437   9.6908   9.6908   9.6908   9.6908
     9.7432   9.7432   9.7432   9.7432   9.8697   9.8697   9.8699   9.8699
    13.3080  13.3080  13.3081  13.3081  13.4500  13.4500  13.4501  13.4501
    13.6046  13.6046  13.6047  13.6047  13.7469  13.7469  13.7469  13.7469
    14.0154  14.0154  14.0154  14.0154  14.0650  14.0650  14.0650  14.0650
    15.5420  15.5420  15.5420  15.5420  16.3705  16.3706  16.3706  16.3707
    16.4394  16.4394  16.4395  16.4395  17.0928  17.0928  17.0929  17.0929

          k = 0.3750 0.3750 0.0000 ( 14850 PWs)   bands (ev):

   -46.1458 -46.1453 -46.1453 -46.1449 -46.1448 -46.1444 -46.1444 -46.1440
   -22.4736 -22.4724 -22.4724 -22.4712 -22.4262 -22.4254 -22.4254 -22.4247
   -22.4034 -22.4034 -22.4026 -22.4020 -22.4009 -22.4009 -22.4001 -22.3997
   -22.3834 -22.3827 -22.3820 -22.3820 -22.3810 -22.3806 -22.3800 -22.3800
   -14.3820 -14.3406 -14.3406 -14.3056 -14.2925 -14.2635 -14.2635 -14.2360
    -6.5755  -6.5755  -6.5498  -6.4783  -6.4095  -6.1921  -6.1921  -5.9765
    -5.8373  -5.8246  -5.8246  -5.8193  -5.8193  -5.8079  -5.7966  -5.7805
    -5.7711  -5.7363  -5.7240  -5.7103  -5.7103  -5.6944  -5.6944  -5.6468
    -0.1017   0.0781   0.1124   0.1125   0.2337   0.2636   0.3062   0.3063
     0.3292   0.3591   0.3817   0.3817   0.4735   0.5003   0.5282   0.5282
     0.5412   0.5412   0.5674   0.6259   0.6280   0.6325   0.6595   0.6596
     6.2109   6.2459   6.2459   6.2802   6.5811   6.7887   6.7887   6.7901
     6.7901   6.8779   7.0063   7.0542   7.0664   7.0664   7.0697   7.1511
     7.2624   7.2690   7.4493   7.4493   7.5030   7.5100   7.5546   7.5546
     7.6795   7.7458   7.7458   7.7606   7.8079   7.8079   7.8776   7.8776
     7.8993   7.9259   7.9535   8.0025   8.0271   8.2232   8.2624   8.2625
     8.2753   8.2753   8.5104   8.5805   8.5827   8.5827   8.6228   8.7663
     9.1536   9.1536   9.2315   9.2398   9.2970   9.4000   9.4820   9.4858
     9.5057   9.5057   9.5138   9.5138   9.5547   9.5547   9.7426   9.7861
     9.7911   9.7911   9.8743   9.8760   9.9493   9.9493  10.0071  10.0261
    12.8598  12.9767  12.9767  13.0573  13.1781  13.3289  13.4545  13.5485
    13.5485  13.6341  13.6341  13.6425  13.7930  13.7930  13.9014  14.0564
    14.0970  14.1192  14.1321  14.1321  14.2557  14.2557  14.3254  14.3539
    14.9712  15.0246  15.0246  15.1537  15.7456  15.7880  16.1643  16.1643
    16.4356  16.4356  16.5765  16.6509  16.9631  17.1015  17.1182  17.2033

          k = 0.3750 0.3750 0.1236 ( 14846 PWs)   bands (ev):

   -46.1457 -46.1453 -46.1453 -46.1448 -46.1448 -46.1444 -46.1444 -46.1440
   -22.4718 -22.4706 -22.4706 -22.4695 -22.4281 -22.4272 -22.4272 -22.4264
   -22.4033 -22.4033 -22.4025 -22.4019 -22.4010 -22.4010 -22.4002 -22.3998
   -22.3833 -22.3826 -22.3819 -22.3819 -22.3811 -22.3807 -22.3801 -22.3801
   -14.3786 -14.3377 -14.3377 -14.3030 -14.2960 -14.2665 -14.2665 -14.2387
    -6.5594  -6.5594  -6.5378  -6.4607  -6.4066  -6.2016  -6.2016  -5.9986
    -5.8429  -5.8300  -5.8300  -5.8184  -5.8184  -5.8029  -5.7939  -5.7921
    -5.7666  -5.7381  -5.7268  -5.7131  -5.7131  -5.6955  -5.6955  -5.6517
    -0.0857   0.0594   0.1234   0.1234   0.2388   0.2842   0.2842   0.3124
     0.3136   0.3546   0.3700   0.3700   0.4363   0.4595   0.4745   0.4849
     0.4849   0.5641   0.5641   0.6662   0.6739   0.6878   0.7044   0.7044
     6.2605   6.2944   6.2944   6.3325   6.5731   6.7759   6.7759   6.7919
     6.7919   6.8695   7.0157   7.0540   7.0687   7.0867   7.0867   7.1540
     7.2359   7.2921   7.4245   7.4245   7.5152   7.5450   7.5728   7.5728
     7.6741   7.6867   7.6867   7.7670   7.8637   7.8637   7.8694   7.8830
     7.8830   7.9000   7.9623   7.9930   8.0049   8.1918   8.1918   8.2314
     8.2635   8.2635   8.4518   8.5269   8.5803   8.5803   8.5979   8.7381
     9.2053   9.2053   9.2295   9.2817   9.3327   9.4126   9.4625   9.4625
     9.4843   9.4843   9.4964   9.5071   9.6005   9.6005   9.7098   9.7768
     9.7768   9.7822   9.8553   9.8569   9.9385   9.9385  10.0017  10.0190
    12.9082  13.0229  13.0229  13.0837  13.1872  13.3246  13.4892  13.5655
    13.5655  13.6420  13.6420  13.6652  13.7852  13.7852  13.9116  14.0103
    14.0527  14.0851  14.0851  14.1087  14.2150  14.2150  14.2874  14.3151
    15.0864  15.1341  15.1341  15.2740  15.7472  15.7890  16.1643  16.1643
    16.4427  16.4427  16.6322  16.6877  16.9735  17.0607  17.1011  17.2449

          k = 0.3750 0.3750 0.2473 ( 14842 PWs)   bands (ev):

   -46.1456 -46.1452 -46.1452 -46.1449 -46.1447 -46.1445 -46.1445 -46.1441
   -22.4667 -22.4655 -22.4655 -22.4645 -22.4332 -22.4324 -22.4324 -22.4315
   -22.4031 -22.4031 -22.4022 -22.4016 -22.4012 -22.4012 -22.4004 -22.4001
   -22.3830 -22.3824 -22.3817 -22.3817 -22.3814 -22.3809 -22.3803 -22.3803
   -14.3691 -14.3295 -14.3295 -14.3059 -14.2956 -14.2750 -14.2749 -14.2463
    -6.5134  -6.5134  -6.5051  -6.4102  -6.4014  -6.2332  -6.2332  -6.0585
    -5.8567  -5.8388  -5.8388  -5.8213  -5.8177  -5.8177  -5.7914  -5.7862
    -5.7536  -5.7436  -5.7348  -5.7190  -5.7190  -5.6999  -5.6999  -5.6657
    -0.0398   0.0441   0.1547   0.1547   0.2500   0.2501   0.2530   0.2648
     0.3360   0.3360   0.3416   0.3452   0.3792   0.3970   0.3995   0.3995
     0.4185   0.6376   0.6376   0.7228   0.7312   0.7371   0.7572   0.7572
     6.3816   6.4158   6.4158   6.4736   6.5526   6.7349   6.7349   6.8290
     6.8290   6.8821   7.0551   7.0605   7.0654   7.1420   7.1427   7.1427
     7.1690   7.3495   7.3495   7.3631   7.5314   7.6225   7.6226   7.6272
     7.6272   7.6578   7.6583   7.7400   7.7643   7.8953   7.8953   7.9024
     7.9024   7.9031   7.9519   7.9691   7.9880   8.0690   8.0690   8.2220
     8.2317   8.2318   8.3273   8.3413   8.4881   8.4881   8.5375   8.6359
     9.2602   9.3398   9.3398   9.3811   9.4243   9.4243   9.4259   9.4442
     9.4493   9.4493   9.5336   9.5556   9.6468   9.6468   9.6573   9.7421
     9.7421   9.7683   9.7921   9.8074   9.9021   9.9021   9.9859  10.0000
    13.0356  13.1484  13.1484  13.1651  13.2196  13.3070  13.5843  13.6085
    13.6085  13.6655  13.6655  13.7206  13.7641  13.7641  13.8748  13.9226
    13.9382  13.9609  13.9609  14.0809  14.1131  14.1131  14.1922  14.2201
    15.3901  15.4215  15.4215  15.5969  15.7543  15.7854  16.1575  16.1575
    16.4678  16.4678  16.7965  16.7993  16.8869  17.0005  17.0936  17.3045

          k = 0.3750 0.3750 0.3709 ( 14842 PWs)   bands (ev):

   -46.1455 -46.1451 -46.1450 -46.1450 -46.1447 -46.1447 -46.1446 -46.1442
   -22.4591 -22.4580 -22.4580 -22.4569 -22.4409 -22.4400 -22.4400 -22.4391
   -22.4026 -22.4026 -22.4018 -22.4016 -22.4016 -22.4013 -22.4009 -22.4004
   -22.3826 -22.3820 -22.3817 -22.3814 -22.3814 -22.3813 -22.3806 -22.3806
   -14.3548 -14.3205 -14.3171 -14.3171 -14.2876 -14.2876 -14.2844 -14.2577
    -6.4621  -6.4448  -6.4448  -6.4040  -6.3332  -6.2900  -6.2900  -6.1437
    -5.8703  -5.8533  -5.8399  -5.8399  -5.8217  -5.8217  -5.7776  -5.7746
    -5.7524  -5.7468  -5.7339  -5.7218  -5.7217  -5.7081  -5.7081  -5.6864
     0.0293   0.0640   0.1940   0.2012   0.2013   0.2226   0.2360   0.2360
     0.2739   0.2875   0.2875   0.3219   0.3257   0.3258   0.3403   0.3501
     0.5347   0.7044   0.7102   0.7102   0.7782   0.7783   0.7800   0.7829
     6.4824   6.5332   6.5354   6.5354   6.6594   6.6784   6.6784   6.9482
     6.9482   6.9890   7.0039   7.0555   7.0616   7.1725   7.1861   7.2359
     7.2359   7.2433   7.2433   7.4469   7.5460   7.5460   7.5592   7.5658
     7.6296   7.6875   7.6875   7.7061   7.8203   7.8447   7.8447   7.9051
     7.9094   7.9407   7.9407   7.9435   7.9975   7.9975   8.0317   8.0799
     8.1579   8.1958   8.1958   8.2014   8.3246   8.3246   8.4720   8.4951
     9.3765   9.4081   9.4081   9.4129   9.4129   9.4611   9.4803   9.5465
     9.5484   9.5484   9.5885   9.6028   9.6362   9.6681   9.6681   9.6821
     9.7072   9.7072   9.7326   9.7365   9.8311   9.8311   9.9664   9.9767
    13.1772  13.2792  13.3010  13.3051  13.3332  13.3333  13.6702  13.6702
    13.6837  13.7127  13.7127  13.7213  13.7213  13.7230  13.7311  13.7976
    13.7976  13.8076  13.9742  13.9742  13.9747  14.0194  14.0596  14.0932
    15.7631  15.7712  15.7713  15.7780  15.7967  16.0444  16.1294  16.1294
    16.5437  16.5437  16.6002  16.9428  16.9716  17.0336  17.0357  17.0357

          k = 0.3750 0.3750-0.4946 ( 14880 PWs)   bands (ev):

   -46.1453 -46.1453 -46.1449 -46.1449 -46.1449 -46.1449 -46.1444 -46.1444
   -22.4500 -22.4500 -22.4490 -22.4490 -22.4490 -22.4490 -22.4481 -22.4481
   -22.4021 -22.4021 -22.4021 -22.4021 -22.4014 -22.4013 -22.4009 -22.4008
   -22.3822 -22.3822 -22.3817 -22.3816 -22.3810 -22.3810 -22.3810 -22.3810
   -14.3378 -14.3377 -14.3025 -14.3024 -14.3024 -14.3023 -14.2711 -14.2711
    -6.4243  -6.4242  -6.3654  -6.3654  -6.3653  -6.3653  -6.2401  -6.2400
    -5.8717  -5.8716  -5.8316  -5.8316  -5.8315  -5.8315  -5.7642  -5.7641
    -5.7608  -5.7607  -5.7172  -5.7172  -5.7170  -5.7170  -5.7104  -5.7103
     0.1112   0.1113   0.1249   0.1250   0.2453   0.2453   0.2453   0.2454
     0.2638   0.2638   0.2638   0.2638   0.2981   0.2982   0.3299   0.3299
     0.6368   0.6369   0.7611   0.7612   0.7612   0.7612   0.7985   0.7986
     6.5176   6.5177   6.6145   6.6145   6.6146   6.6146   6.8411   6.8412
     7.0573   7.0574   7.1116   7.1116   7.1116   7.1117   7.1407   7.1408
     7.3580   7.3581   7.3879   7.3879   7.3879   7.3879   7.5628   7.5628
     7.5939   7.5940   7.7580   7.7580   7.7580   7.7580   7.9218   7.9219
     7.9225   7.9226   7.9782   7.9782   7.9782   7.9782   8.0057   8.0058
     8.1005   8.1005   8.2090   8.2090   8.2090   8.2090   8.4400   8.4401
     9.4148   9.4148   9.4149   9.4149   9.4931   9.4932   9.5334   9.5334
     9.6284   9.6285   9.6571   9.6572   9.6585   9.6586   9.6645   9.6645
     9.6646   9.6646   9.7259   9.7259   9.7259   9.7259   9.9614   9.9615
    13.2411  13.2412  13.4796  13.4797  13.5051  13.5052  13.5412  13.5412
    13.5413  13.5413  13.7193  13.7193  13.7193  13.7193  13.8326  13.8327
    13.8327  13.8327  13.8792  13.8793  13.9236  13.9236  14.0200  14.0201
    15.7701  15.7701  16.0259  16.0259  16.0260  16.0260  16.2209  16.2210
    16.5176  16.5178  16.7368  16.7368  16.7369  16.7369  17.0600  17.0600

          k = 0.3750-0.5000 0.0000 ( 14850 PWs)   bands (ev):

   -46.1455 -46.1455 -46.1451 -46.1451 -46.1446 -46.1446 -46.1442 -46.1442
   -22.4730 -22.4730 -22.4718 -22.4718 -22.4258 -22.4258 -22.4251 -22.4251
   -22.4029 -22.4029 -22.4004 -22.4004 -22.3933 -22.3933 -22.3922 -22.3922
   -22.3909 -22.3909 -22.3900 -22.3900 -22.3825 -22.3825 -22.3804 -22.3804
   -14.3614 -14.3614 -14.3232 -14.3232 -14.2781 -14.2780 -14.2498 -14.2498
    -6.5554  -6.5554  -6.5220  -6.5220  -6.3044  -6.3044  -6.0873  -6.0873
    -5.8224  -5.8224  -5.8160  -5.8160  -5.8022  -5.8021  -5.7910  -5.7910
    -5.7681  -5.7681  -5.7335  -5.7335  -5.7067  -5.7067  -5.6692  -5.6691
    -0.0079  -0.0079   0.1600   0.1600   0.1907   0.1907   0.3465   0.3465
     0.3619   0.3619   0.4017   0.4017   0.4045   0.4045   0.5069   0.5069
     0.5715   0.5716   0.5923   0.5923   0.6345   0.6345   0.6523   0.6523
     6.2358   6.2358   6.2697   6.2697   6.7036   6.7036   6.8722   6.8722
     6.8962   6.8962   7.0426   7.0426   7.1247   7.1247   7.2397   7.2397
     7.3021   7.3021   7.3345   7.3346   7.4431   7.4431   7.5211   7.5211
     7.5495   7.5495   7.7898   7.7898   7.8742   7.8743   7.8940   7.8940
     7.9221   7.9221   7.9901   7.9901   8.1053   8.1053   8.1324   8.1324
     8.3749   8.3749   8.4242   8.4242   8.5360   8.5361   8.6204   8.6204
     9.2187   9.2187   9.2345   9.2345   9.3815   9.3815   9.4330   9.4330
     9.5053   9.5053   9.6190   9.6190   9.6399   9.6399   9.7347   9.7347
     9.7419   9.7419   9.8459   9.8459   9.9295   9.9295   9.9566   9.9566
    12.9402  12.9402  13.2306  13.2306  13.2774  13.2774  13.3951  13.3951
    13.5613  13.5613  13.5759  13.5759  13.7518  13.7518  13.9528  13.9528
    14.0999  14.0999  14.1599  14.1599  14.2224  14.2224  14.2997  14.2997
    15.0140  15.0140  15.1165  15.1165  16.0150  16.0151  16.1308  16.1309
    16.6137  16.6137  16.7742  16.7743  16.8786  16.8786  17.1006  17.1006

          k = 0.3750-0.5000 0.1236 ( 14854 PWs)   bands (ev):

   -46.1455 -46.1455 -46.1451 -46.1451 -46.1446 -46.1446 -46.1442 -46.1442
   -22.4712 -22.4712 -22.4700 -22.4700 -22.4276 -22.4276 -22.4269 -22.4269
   -22.4028 -22.4028 -22.4005 -22.4005 -22.3932 -22.3932 -22.3921 -22.3921
   -22.3909 -22.3909 -22.3900 -22.3900 -22.3824 -22.3824 -22.3805 -22.3805
   -14.3583 -14.3583 -14.3204 -14.3204 -14.2813 -14.2813 -14.2526 -14.2526
    -6.5412  -6.5412  -6.5051  -6.5051  -6.3061  -6.3061  -6.1010  -6.1010
    -5.8245  -5.8245  -5.8177  -5.8177  -5.8117  -5.8117  -5.7888  -5.7888
    -5.7685  -5.7685  -5.7353  -5.7353  -5.7093  -5.7093  -5.6728  -5.6728
     0.0057   0.0057   0.1680   0.1680   0.1692   0.1692   0.3321   0.3321
     0.3544   0.3544   0.3710   0.3710   0.4491   0.4491   0.4581   0.4581
     0.4843   0.4843   0.6307   0.6307   0.6965   0.6965   0.6999   0.6999
     6.2859   6.2859   6.3199   6.3199   6.6901   6.6901   6.8631   6.8631
     6.9022   6.9022   7.0172   7.0173   7.1377   7.1377   7.2307   7.2307
     7.3215   7.3216   7.3637   7.3637   7.4299   7.4299   7.5379   7.5379
     7.5451   7.5451   7.7995   7.7995   7.8032   7.8032   7.8963   7.8963
     7.9282   7.9282   8.0370   8.0371   8.0861   8.0861   8.1028   8.1028
     8.3158   8.3158   8.4017   8.4017   8.5001   8.5001   8.5989   8.5989
     9.2693   9.2693   9.2719   9.2719   9.3655   9.3655   9.4253   9.4253
     9.5365   9.5365   9.5888   9.5888   9.6280   9.6280   9.7426   9.7426
     9.7430   9.7430   9.8301   9.8301   9.9188   9.9188   9.9466   9.9466
    12.9857  12.9857  13.2682  13.2682  13.2976  13.2977  13.4041  13.4041
    13.5540  13.5540  13.5936  13.5936  13.7597  13.7598  13.9451  13.9451
    14.0520  14.0520  14.1159  14.1159  14.1845  14.1845  14.2637  14.2637
    15.1272  15.1272  15.2328  15.2329  16.0172  16.0172  16.1324  16.1325
    16.6192  16.6192  16.7741  16.7741  16.9269  16.9269  17.2391  17.2392

          k = 0.3750-0.5000 0.2473 ( 14860 PWs)   bands (ev):

   -46.1454 -46.1454 -46.1450 -46.1450 -46.1447 -46.1447 -46.1443 -46.1443
   -22.4661 -22.4661 -22.4650 -22.4650 -22.4328 -22.4328 -22.4320 -22.4320
   -22.4025 -22.4025 -22.4008 -22.4008 -22.3929 -22.3929 -22.3918 -22.3918
   -22.3912 -22.3912 -22.3903 -22.3903 -22.3822 -22.3822 -22.3807 -22.3807
   -14.3494 -14.3494 -14.3126 -14.3126 -14.2905 -14.2905 -14.2607 -14.2607
    -6.5016  -6.5016  -6.4569  -6.4569  -6.3151  -6.3150  -6.1434  -6.1434
    -5.8334  -5.8334  -5.8327  -5.8327  -5.8182  -5.8182  -5.7852  -5.7852
    -5.7662  -5.7662  -5.7376  -5.7376  -5.7171  -5.7171  -5.6833  -5.6833
     0.0443   0.0443   0.1427   0.1427   0.1905   0.1905   0.2910   0.2910
     0.3220   0.3220   0.3333   0.3333   0.3700   0.3701   0.3817   0.3817
     0.5417   0.5417   0.7013   0.7013   0.7518   0.7518   0.7589   0.7589
     6.4082   6.4082   6.4516   6.4516   6.6547   6.6547   6.8735   6.8735
     6.9433   6.9433   6.9471   6.9471   7.1613   7.1613   7.2056   7.2056
     7.3657   7.3657   7.4098   7.4098   7.4410   7.4410   7.4990   7.4990
     7.6225   7.6225   7.6867   7.6867   7.8120   7.8121   7.9038   7.9038
     7.9485   7.9485   8.0362   8.0362   8.0377   8.0377   8.0731   8.0731
     8.1929   8.1930   8.3451   8.3451   8.3559   8.3559   8.4932   8.4932
     9.3417   9.3417   9.3805   9.3806   9.4038   9.4038   9.4324   9.4324
     9.5527   9.5527   9.5900   9.5900   9.6044   9.6044   9.7397   9.7397
     9.7484   9.7484   9.7871   9.7871   9.8911   9.8911   9.9136   9.9136
    13.1106  13.1106  13.3605  13.3606  13.3762  13.3763  13.4303  13.4303
    13.5353  13.5353  13.6483  13.6483  13.7856  13.7856  13.9153  13.9153
    13.9231  13.9231  13.9986  13.9987  14.0692  14.0692  14.1596  14.1596
    15.4214  15.4214  15.5495  15.5495  16.0204  16.0204  16.1420  16.1420
    16.6244  16.6245  16.7736  16.7736  17.0644  17.0644  17.0665  17.0666

          k = 0.3750-0.5000 0.3709 ( 14844 PWs)   bands (ev):

   -46.1453 -46.1453 -46.1449 -46.1449 -46.1448 -46.1448 -46.1445 -46.1445
   -22.4585 -22.4585 -22.4574 -22.4574 -22.4405 -22.4405 -22.4396 -22.4396
   -22.4021 -22.4021 -22.4011 -22.4011 -22.3925 -22.3925 -22.3916 -22.3916
   -22.3915 -22.3915 -22.3906 -22.3906 -22.3819 -22.3819 -22.3811 -22.3811
   -14.3360 -14.3360 -14.3041 -14.3041 -14.3008 -14.3008 -14.2727 -14.2727
    -6.4453  -6.4453  -6.3842  -6.3842  -6.3403  -6.3403  -6.2127  -6.2127
    -5.8522  -5.8522  -5.8462  -5.8462  -5.8119  -5.8119  -5.7885  -5.7884
    -5.7574  -5.7574  -5.7322  -5.7322  -5.7295  -5.7295  -5.6992  -5.6992
     0.1011   0.1011   0.1456   0.1456   0.2241   0.2241   0.2293   0.2293
     0.2698   0.2698   0.2907   0.2907   0.3020   0.3020   0.3206   0.3206
     0.6391   0.6391   0.7576   0.7576   0.7630   0.7630   0.7962   0.7962
     6.5179   6.5179   6.6052   6.6052   6.6117   6.6118   6.8469   6.8469
     6.9760   6.9760   7.0634   7.0634   7.1708   7.1709   7.1965   7.1966
     7.3755   7.3755   7.4157   7.4157   7.4179   7.4179   7.5470   7.5470
     7.5725   7.5725   7.7480   7.7480   7.7740   7.7740   7.9196   7.9196
     7.9667   7.9667   7.9851   7.9851   7.9873   7.9873   8.0541   8.0541
     8.0807   8.0807   8.1393   8.1393   8.2777   8.2777   8.3253   8.3253
     9.4174   9.4174   9.4607   9.4607   9.4684   9.4684   9.5334   9.5334
     9.5716   9.5716   9.5801   9.5801   9.6333   9.6333   9.7214   9.7214
     9.7280   9.7280   9.7342   9.7343   9.8584   9.8584   9.8662   9.8662
    13.2897  13.2898  13.4467  13.4467  13.4972  13.4972  13.5031  13.5032
    13.5311  13.5311  13.7365  13.7365  13.7395  13.7395  13.8247  13.8247
    13.8288  13.8288  13.8613  13.8614  13.9251  13.9252  14.0223  14.0223
    15.7831  15.7831  15.9770  15.9770  16.0177  16.0177  16.1948  16.1948
    16.6013  16.6013  16.7764  16.7764  16.7789  16.7789  17.0063  17.0063

          k = 0.3750-0.5000-0.4946 ( 14852 PWs)   bands (ev):

   -46.1451 -46.1451 -46.1451 -46.1451 -46.1446 -46.1446 -46.1446 -46.1446
   -22.4495 -22.4495 -22.4495 -22.4495 -22.4485 -22.4485 -22.4485 -22.4485
   -22.4016 -22.4016 -22.4016 -22.4016 -22.3921 -22.3921 -22.3921 -22.3921
   -22.3911 -22.3911 -22.3911 -22.3911 -22.3815 -22.3815 -22.3815 -22.3815
   -14.3202 -14.3202 -14.3201 -14.3201 -14.2869 -14.2868 -14.2868 -14.2868
    -6.3864  -6.3864  -6.3863  -6.3863  -6.2981  -6.2981  -6.2980  -6.2980
    -5.8561  -5.8561  -5.8560  -5.8560  -5.7999  -5.7999  -5.7998  -5.7998
    -5.7441  -5.7440  -5.7439  -5.7439  -5.7174  -5.7174  -5.7173  -5.7172
     0.1633   0.1633   0.1634   0.1634   0.1913   0.1913   0.1913   0.1913
     0.2636   0.2636   0.2636   0.2636   0.2889   0.2889   0.2890   0.2890
     0.7168   0.7168   0.7169   0.7169   0.7975   0.7975   0.7976   0.7976
     6.5719   6.5719   6.5720   6.5720   6.7342   6.7342   6.7343   6.7343
     7.1119   7.1119   7.1119   7.1119   7.2561   7.2561   7.2561   7.2562
     7.2800   7.2800   7.2800   7.2801   7.4785   7.4785   7.4786   7.4786
     7.6680   7.6680   7.6680   7.6681   7.9025   7.9025   7.9025   7.9025
     7.9258   7.9259   7.9259   7.9259   8.0045   8.0045   8.0045   8.0045
     8.0456   8.0456   8.0457   8.0457   8.2422   8.2422   8.2422   8.2422
     9.4849   9.4849   9.4850   9.4850   9.5073   9.5074   9.5074   9.5074
     9.6414   9.6414   9.6415   9.6415   9.6565   9.6565   9.6566   9.6566
     9.6989   9.6989   9.6989   9.6990   9.8413   9.8413   9.8415   9.8415
    13.4460  13.4460  13.4460  13.4460  13.5487  13.5487  13.5487  13.5487
    13.6461  13.6461  13.6462  13.6462  13.7087  13.7087  13.7087  13.7088
    13.8390  13.8390  13.8390  13.8390  13.8921  13.8921  13.8921  13.8921
    15.9817  15.9817  15.9817  15.9817  16.3925  16.3925  16.3926  16.3927
    16.4298  16.4298  16.4299  16.4299  16.8126  16.8126  16.8126  16.8126

          k =-0.5000-0.5000 0.0000 ( 14852 PWs)   bands (ev):

   -46.1453 -46.1453 -46.1453 -46.1453 -46.1444 -46.1444 -46.1444 -46.1444
   -22.4724 -22.4724 -22.4724 -22.4724 -22.4255 -22.4255 -22.4255 -22.4255
   -22.3931 -22.3931 -22.3931 -22.3931 -22.3923 -22.3923 -22.3923 -22.3923
   -22.3906 -22.3906 -22.3906 -22.3906 -22.3902 -22.3902 -22.3902 -22.3902
   -14.3424 -14.3424 -14.3423 -14.3423 -14.2640 -14.2640 -14.2639 -14.2639
    -6.5316  -6.5316  -6.5316  -6.5316  -6.1993  -6.1993  -6.1993  -6.1993
    -5.8086  -5.8086  -5.8086  -5.8086  -5.7842  -5.7842  -5.7842  -5.7842
    -5.7819  -5.7819  -5.7819  -5.7819  -5.6859  -5.6859  -5.6859  -5.6859
     0.0615   0.0615   0.0615   0.0615   0.2945   0.2946   0.2946   0.2946
     0.3445   0.3445   0.3445   0.3445   0.5106   0.5106   0.5107   0.5107
     0.5402   0.5402   0.5403   0.5403   0.6521   0.6521   0.6521   0.6522
     6.2603   6.2603   6.2603   6.2603   6.8952   6.8952   6.8952   6.8952
     6.9156   6.9156   6.9156   6.9156   7.3101   7.3101   7.3101   7.3101
     7.3197   7.3197   7.3197   7.3198   7.3750   7.3750   7.3750   7.3750
     7.7001   7.7001   7.7001   7.7002   7.8508   7.8508   7.8508   7.8508
     7.9121   7.9121   7.9121   7.9121   8.2263   8.2263   8.2263   8.2263
     8.2461   8.2462   8.2462   8.2462   8.5252   8.5253   8.5253   8.5253
     9.2609   9.2609   9.2609   9.2609   9.4873   9.4873   9.4873   9.4873
     9.5241   9.5241   9.5241   9.5241   9.6957   9.6957   9.6957   9.6957
     9.7818   9.7818   9.7818   9.7818   9.9041   9.9041   9.9041   9.9041
    13.1422  13.1422  13.1422  13.1422  13.3626  13.3626  13.3626  13.3626
    13.5569  13.5569  13.5569  13.5569  13.7547  13.7547  13.7547  13.7548
    14.1714  14.1714  14.1714  14.1714  14.2115  14.2115  14.2115  14.2115
    15.0887  15.0887  15.0887  15.0887  16.3889  16.3889  16.3889  16.3889
    16.4634  16.4634  16.4634  16.4634  17.1412  17.1412  17.1413  17.1413

          k =-0.5000-0.5000 0.1236 ( 14856 PWs)   bands (ev):

   -46.1453 -46.1453 -46.1453 -46.1453 -46.1444 -46.1444 -46.1444 -46.1444
   -22.4706 -22.4706 -22.4706 -22.4706 -22.4273 -22.4273 -22.4273 -22.4273
   -22.3930 -22.3930 -22.3930 -22.3930 -22.3922 -22.3922 -22.3922 -22.3922
   -22.3907 -22.3907 -22.3907 -22.3907 -22.3903 -22.3903 -22.3903 -22.3903
   -14.3395 -14.3394 -14.3394 -14.3394 -14.2670 -14.2670 -14.2670 -14.2670
    -6.5161  -6.5160  -6.5160  -6.5160  -6.2053  -6.2053  -6.2053  -6.2052
    -5.8151  -5.8151  -5.8151  -5.8151  -5.7865  -5.7865  -5.7865  -5.7865
    -5.7806  -5.7805  -5.7805  -5.7805  -5.6898  -5.6898  -5.6898  -5.6897
     0.0723   0.0723   0.0724   0.0724   0.2681   0.2681   0.2681   0.2681
     0.3338   0.3338   0.3338   0.3338   0.4715   0.4715   0.4715   0.4715
     0.5530   0.5530   0.5530   0.5531   0.7078   0.7078   0.7078   0.7078
     6.3108   6.3108   6.3108   6.3108   6.8725   6.8725   6.8725   6.8725
     6.9088   6.9088   6.9088   6.9088   7.3111   7.3111   7.3111   7.3111
     7.3661   7.3661   7.3661   7.3661   7.3722   7.3722   7.3722   7.3722
     7.6424   7.6424   7.6424   7.6424   7.8897   7.8897   7.8897   7.8897
     7.9156   7.9156   7.9156   7.9156   8.2017   8.2017   8.2017   8.2017
     8.2135   8.2135   8.2135   8.2135   8.4881   8.4881   8.4881   8.4881
     9.3065   9.3065   9.3065   9.3065   9.4623   9.4623   9.4623   9.4623
     9.5325   9.5325   9.5325   9.5325   9.6941   9.6941   9.6941   9.6941
     9.7849   9.7849   9.7849   9.7849   9.8909   9.8909   9.8909   9.8909
    13.1821  13.1821  13.1821  13.1821  13.3842  13.3842  13.3842  13.3842
    13.5671  13.5671  13.5671  13.5671  13.7446  13.7447  13.7447  13.7447
    14.1294  14.1294  14.1294  14.1294  14.1691  14.1691  14.1691  14.1691
    15.2064  15.2064  15.2064  15.2065  16.3940  16.3941  16.3941  16.3941
    16.4613  16.4613  16.4613  16.4613  17.1859  17.1860  17.2996  17.3006

          k =-0.5000-0.5000 0.2473 ( 14844 PWs)   bands (ev):

   -46.1452 -46.1452 -46.1452 -46.1452 -46.1445 -46.1445 -46.1445 -46.1445
   -22.4656 -22.4656 -22.4656 -22.4656 -22.4324 -22.4324 -22.4324 -22.4324
   -22.3928 -22.3928 -22.3928 -22.3928 -22.3920 -22.3920 -22.3920 -22.3920
   -22.3910 -22.3910 -22.3910 -22.3910 -22.3905 -22.3905 -22.3905 -22.3905
   -14.3311 -14.3311 -14.3310 -14.3310 -14.2757 -14.2756 -14.2756 -14.2756
    -6.4721  -6.4720  -6.4720  -6.4720  -6.2269  -6.2269  -6.2269  -6.2269
    -5.8286  -5.8286  -5.8286  -5.8286  -5.7991  -5.7991  -5.7991  -5.7991
    -5.7702  -5.7702  -5.7702  -5.7702  -5.7007  -5.7007  -5.7007  -5.7007
     0.1032   0.1032   0.1032   0.1032   0.2290   0.2290   0.2290   0.2290
     0.3033   0.3033   0.3033   0.3033   0.3715   0.3715   0.3715   0.3715
     0.6371   0.6371   0.6371   0.6371   0.7697   0.7697   0.7697   0.7697
     6.4379   6.4379   6.4379   6.4379   6.8118   6.8118   6.8118   6.8118
     6.9262   6.9262   6.9262   6.9262   7.3158   7.3158   7.3158   7.3158
     7.3629   7.3630   7.3630   7.3630   7.4840   7.4840   7.4840   7.4840
     7.5504   7.5504   7.5504   7.5504   7.9259   7.9259   7.9259   7.9259
     7.9280   7.9280   7.9280   7.9280   8.1384   8.1384   8.1384   8.1384
     8.1386   8.1386   8.1386   8.1386   8.3468   8.3469   8.3469   8.3469
     9.4124   9.4124   9.4124   9.4124   9.4478   9.4478   9.4478   9.4478
     9.5566   9.5566   9.5566   9.5566   9.6839   9.6839   9.6839   9.6839
     9.7860   9.7860   9.7860   9.7860   9.8551   9.8551   9.8551   9.8551
    13.2966  13.2966  13.2966  13.2966  13.4468  13.4468  13.4468  13.4468
    13.5932  13.5932  13.5932  13.5932  13.7234  13.7234  13.7234  13.7235
    14.0117  14.0117  14.0117  14.0117  14.0520  14.0520  14.0520  14.0520
    15.5215  15.5215  15.5215  15.5215  16.4056  16.4056  16.4056  16.4056
    16.4551  16.4551  16.4551  16.4551  17.1195  17.1195  17.1195  17.1196

          k =-0.5000-0.5000 0.3709 ( 14832 PWs)   bands (ev):

   -46.1450 -46.1450 -46.1450 -46.1450 -46.1447 -46.1447 -46.1447 -46.1447
   -22.4580 -22.4580 -22.4580 -22.4580 -22.4400 -22.4400 -22.4400 -22.4400
   -22.3923 -22.3923 -22.3923 -22.3923 -22.3916 -22.3916 -22.3916 -22.3916
   -22.3914 -22.3914 -22.3914 -22.3914 -22.3908 -22.3908 -22.3908 -22.3908
   -14.3185 -14.3185 -14.3185 -14.3185 -14.2885 -14.2885 -14.2885 -14.2885
    -6.4075  -6.4075  -6.4075  -6.4075  -6.2707  -6.2707  -6.2707  -6.2707
    -5.8362  -5.8362  -5.8362  -5.8361  -5.8160  -5.8160  -5.8160  -5.8159
    -5.7546  -5.7546  -5.7546  -5.7546  -5.7170  -5.7170  -5.7170  -5.7169
     0.1493   0.1493   0.1493   0.1493   0.2134   0.2134   0.2134   0.2134
     0.2576   0.2576   0.2576   0.2576   0.2871   0.2871   0.2871   0.2871
     0.7190   0.7190   0.7190   0.7190   0.7946   0.7946   0.7946   0.7946
     6.5682   6.5682   6.5682   6.5682   6.7341   6.7341   6.7341   6.7341
     7.0392   7.0392   7.0392   7.0392   7.3248   7.3248   7.3248   7.3248
     7.3506   7.3506   7.3506   7.3506   7.4302   7.4302   7.4303   7.4303
     7.6461   7.6461   7.6461   7.6461   7.9453   7.9453   7.9453   7.9453
     7.9528   7.9528   7.9528   7.9528   8.0583   8.0583   8.0583   8.0584
     8.0595   8.0595   8.0595   8.0595   8.1064   8.1064   8.1064   8.1064
     9.4990   9.4990   9.4990   9.4990   9.5233   9.5233   9.5233   9.5233
     9.5857   9.5857   9.5857   9.5857   9.6491   9.6491   9.6491   9.6491
     9.7797   9.7797   9.7797   9.7797   9.8099   9.8099   9.8099   9.8099
    13.4587  13.4587  13.4587  13.4587  13.5493  13.5493  13.5493  13.5493
    13.6364  13.6364  13.6364  13.6364  13.6851  13.6851  13.6851  13.6851
    13.8499  13.8499  13.8499  13.8499  13.8863  13.8863  13.8863  13.8863
    15.9518  15.9518  15.9518  15.9518  16.4215  16.4215  16.4215  16.4215
    16.4476  16.4476  16.4476  16.4476  16.8148  16.8148  16.8148  16.8148

          k =-0.5000-0.5000-0.4946 ( 14872 PWs)   bands (ev):

   -46.1449 -46.1449 -46.1449 -46.1449 -46.1449 -46.1449 -46.1449 -46.1449
   -22.4490 -22.4490 -22.4490 -22.4490 -22.4490 -22.4490 -22.4490 -22.4490
   -22.3919 -22.3919 -22.3919 -22.3919 -22.3918 -22.3918 -22.3918 -22.3918
   -22.3913 -22.3913 -22.3913 -22.3913 -22.3913 -22.3913 -22.3913 -22.3913
   -14.3036 -14.3036 -14.3036 -14.3036 -14.3035 -14.3035 -14.3035 -14.3035
    -6.3352  -6.3352  -6.3352  -6.3352  -6.3351  -6.3351  -6.3351  -6.3350
    -5.8308  -5.8308  -5.8308  -5.8308  -5.8308  -5.8308  -5.8308  -5.8307
    -5.7360  -5.7360  -5.7360  -5.7359  -5.7358  -5.7358  -5.7358  -5.7358
     0.2035   0.2035   0.2035   0.2035   0.2035   0.2035   0.2036   0.2036
     0.2323   0.2323   0.2324   0.2324   0.2324   0.2324   0.2324   0.2325
     0.7761   0.7761   0.7761   0.7761   0.7761   0.7761   0.7761   0.7761
     6.6565   6.6565   6.6565   6.6565   6.6565   6.6566   6.6566   6.6566
     7.2443   7.2443   7.2443   7.2443   7.2444   7.2444   7.2444   7.2444
     7.3367   7.3367   7.3367   7.3367   7.3367   7.3368   7.3368   7.3368
     7.8495   7.8495   7.8495   7.8495   7.8495   7.8495   7.8495   7.8495
     7.9906   7.9906   7.9906   7.9906   7.9906   7.9907   7.9907   7.9907
     7.9951   7.9951   7.9951   7.9951   7.9952   7.9952   7.9952   7.9952
     9.5813   9.5813   9.5813   9.5813   9.5813   9.5813   9.5813   9.5813
     9.5873   9.5873   9.5873   9.5873   9.5873   9.5873   9.5873   9.5874
     9.7786   9.7786   9.7786   9.7786   9.7787   9.7787   9.7787   9.7787
    13.6143  13.6143  13.6143  13.6143  13.6143  13.6144  13.6144  13.6144
    13.6845  13.6845  13.6845  13.6845  13.6846  13.6846  13.6846  13.6846
    13.7172  13.7172  13.7172  13.7172  13.7173  13.7173  13.7173  13.7173
    16.4076  16.4076  16.4076  16.4076  16.4077  16.4077  16.4077  16.4078
    16.4344  16.4344  16.4344  16.4344  16.4344  16.4345  16.4345  16.4345

     highest occupied, lowest unoccupied level (ev):    10.4129   12.2493

!    total energy              =   -5964.46993235 Ry
     total all-electron energy =   -147448.923505 Ry
     estimated scf accuracy    <          3.6E-11 Ry

     The total energy is the sum of the following terms:
     one-electron contribution =    -550.15630020 Ry
     hartree contribution      =     483.64593788 Ry
     xc contribution           =    -491.48574378 Ry
     ewald contribution        =   -1653.96634398 Ry
     one-center paw contrib.   =   -3752.50748226 Ry

     convergence has been achieved in   5 iterations

     Forces acting on atoms (cartesian axes, Ry/au):

     atom    1 type  1   force =     0.00000000    0.00000000   -0.00098594
     atom    2 type  1   force =     0.00000000    0.00000000   -0.00095452
     atom    3 type  1   force =     0.00000000    0.00000000   -0.00097450
     atom    4 type  1   force =     0.00000000    0.00000000   -0.00096098
     atom    5 type  1   force =     0.00000000    0.00000000   -0.00097450
     atom    6 type  1   force =     0.00000000    0.00000000   -0.00096098
     atom    7 type  1   force =     0.00000000    0.00000000   -0.00099040
     atom    8 type  1   force =     0.00000000    0.00000000   -0.00095264
     atom    9 type  2   force =    -0.00000074   -0.00000074   -0.00061188
     atom   10 type  2   force =    -0.00000123   -0.00000123   -0.00060329
     atom   11 type  2   force =    -0.00000074    0.00000074   -0.00061188
     atom   12 type  2   force =    -0.00000123    0.00000123   -0.00060329
     atom   13 type  2   force =     0.00000074   -0.00000074   -0.00061188
     atom   14 type  2   force =     0.00000123   -0.00000123   -0.00060329
     atom   15 type  2   force =     0.00000074    0.00000074   -0.00061188
     atom   16 type  2   force =     0.00000123    0.00000123   -0.00060329
     atom   17 type  3   force =    -0.00000145   -0.00000145    0.00078645
     atom   18 type  3   force =    -0.00000239   -0.00000239    0.00079574
     atom   19 type  3   force =    -0.00000145    0.00000145    0.00078645
     atom   20 type  3   force =    -0.00000239    0.00000239    0.00079574
     atom   21 type  3   force =     0.00000145   -0.00000145    0.00078645
     atom   22 type  3   force =     0.00000239   -0.00000239    0.00079574
     atom   23 type  3   force =     0.00000145    0.00000145    0.00078645
     atom   24 type  3   force =     0.00000239    0.00000239    0.00079574
     atom   25 type  3   force =    -0.00000191    0.00000000    0.00038716
     atom   26 type  3   force =    -0.00000562    0.00000000    0.00039164
     atom   27 type  3   force =     0.00000076    0.00000000    0.00039178
     atom   28 type  3   force =     0.00000310    0.00000000    0.00040104
     atom   29 type  3   force =     0.00000191    0.00000000    0.00038716
     atom   30 type  3   force =     0.00000562    0.00000000    0.00039164
     atom   31 type  3   force =    -0.00000076    0.00000000    0.00039178
     atom   32 type  3   force =    -0.00000310    0.00000000    0.00040104
     atom   33 type  3   force =     0.00000000   -0.00000191    0.00038716
     atom   34 type  3   force =     0.00000000   -0.00000562    0.00039164
     atom   35 type  3   force =     0.00000000    0.00000191    0.00038716
     atom   36 type  3   force =     0.00000000    0.00000562    0.00039164
     atom   37 type  3   force =     0.00000000    0.00000076    0.00039178
     atom   38 type  3   force =     0.00000000    0.00000310    0.00040104
     atom   39 type  3   force =     0.00000000   -0.00000076    0.00039178
     atom   40 type  3   force =     0.00000000   -0.00000310    0.00040104

     Total force =     0.004237     Total SCF correction =     0.000003


     Computing stress (Cartesian axis) and pressure

          total   stress  (Ry/bohr**3)                   (kbar)     P=       -2.96
  -0.00005903   0.00000000   0.00000000           -8.68        0.00        0.00
   0.00000000  -0.00005903   0.00000000            0.00       -8.68        0.00
   0.00000000   0.00000000   0.00005762            0.00        0.00        8.48


     Writing all to output data dir ./tmp/40_ecut_8_kmesh_PBE.save/ :
     XML data file, charge density, pseudopotentials, collected wavefunctions

     init_run     :      1.73s CPU      3.42s WALL (       1 calls)
     electrons    :     18.64s CPU     19.43s WALL (       1 calls)
     forces       :      0.61s CPU      0.65s WALL (       1 calls)
     stress       :      1.59s CPU      1.67s WALL (       1 calls)

     Called by init_run:
     wfcinit      :      0.79s CPU      2.34s WALL (       1 calls)
     potinit      :      0.27s CPU      0.30s WALL (       1 calls)
     hinit0       :      0.54s CPU      0.62s WALL (       1 calls)

     Called by electrons:
     c_bands      :     16.27s CPU     16.91s WALL (       6 calls)
     sum_band     :      1.76s CPU      1.84s WALL (       6 calls)
     v_of_rho     :      0.07s CPU      0.07s WALL (       6 calls)
     newd         :      0.05s CPU      0.06s WALL (       6 calls)
     PAW_pot      :      0.27s CPU      0.28s WALL (       6 calls)
     mix_rho      :      0.01s CPU      0.01s WALL (       6 calls)

     Called by c_bands:
     init_us_2    :      0.27s CPU      0.28s WALL (     140 calls)
     cegterg      :     15.32s CPU     15.95s WALL (      60 calls)

     Called by *egterg:
     cdiaghg      :      3.47s CPU      3.75s WALL (     208 calls)
     h_psi        :      7.25s CPU      7.49s WALL (     228 calls)
     s_psi        :      1.07s CPU      1.08s WALL (     228 calls)
     g_psi        :      0.01s CPU      0.01s WALL (     168 calls)

     Called by h_psi:
     h_psi:calbec :      1.58s CPU      1.71s WALL (     228 calls)
     vloc_psi     :      4.53s CPU      4.63s WALL (     228 calls)
                                        0.00s GPU  (     228 calls)
     add_vuspsi   :      1.09s CPU      1.11s WALL (     228 calls)

     General routines
     calbec       :      3.85s CPU      4.13s WALL (     458 calls)
     fft          :      0.35s CPU      0.38s WALL (     102 calls)
     ffts         :      0.21s CPU      0.21s WALL (      12 calls)
     fftw         :      5.14s CPU      5.23s WALL (   68080 calls)
     interpolate  :      0.21s CPU      0.22s WALL (       6 calls)

     Parallel routines

     PWSCF        :     24.04s CPU     28.28s WALL


   This run was terminated on:   0:13:44  21May2026            

=------------------------------------------------------------------------------=
   JOB DONE.
=------------------------------------------------------------------------------=
