
     Program PWSCF v.7.5 starts on 21May2026 at  0:14:18 

     This program is part of the open-source Quantum ESPRESSO suite
     for quantum simulation of materials; please cite
         "P. Giannozzi et al., J. Phys.:Condens. Matter 21 395502 (2009);
         "P. Giannozzi et al., J. Phys.:Condens. Matter 29 465901 (2017);
         "P. Giannozzi et al., J. Chem. Phys. 152 154105 (2020);
          URL http://www.quantum-espresso.org", 
     in publications or presentations arising from this work. More details at
     http://www.quantum-espresso.org/quote

     Parallel version (MPI & OpenMP), running on     192 processor cores
     Number of MPI processes:               192
     Threads/MPI process:                     1

     MPI processes distributed on     1 nodes
     306336 MiB available memory on the printing compute node when the environment starts

     Waiting for input...
     Reading input from standard input

     Current dimensions of program PWSCF are:
     Max number of different atomic species (ntypx) = 10
     Max number of k-points (npk) =  40000
     Max angular momentum in pseudopotentials (lmaxx) =  4
     file Ba.pbe-spn-kjpaw_psl.1.0.0.UPF: wavefunction(s)  5S 6S renormalized
     file Ti.pbe-spn-kjpaw_psl.1.0.0.UPF: wavefunction(s)  3S 3P 3D renormalized
     file O.pbe-n-kjpaw_psl.1.0.0.UPF: wavefunction(s)  2S 2P renormalized

     IMPORTANT: XC functional enforced from input :
     Exchange-correlation= PBE
                           (   1   4   3   4   0   0   0)
     Any further DFT definition will be discarded
     Please, verify this is what you really want

     Found identity + ( -0.5000 -0.5000  0.0000) symmetry
     This is a supercell, fractional translations are disabled

     K-points division:     npool     =       8
     R & G space division:  proc/nbgrp/npool/nimage =      24
     Subspace diagonalization in iterative solution of the eigenvalue problem:
     one sub-group per band group will be used
     ELPA distributed-memory algorithm (size of sub-group:  2*  2 procs)


     Parallelization info
     --------------------
     sticks:   dense  smooth     PW     G-vecs:    dense   smooth      PW
     Min         362     181     50                25696     9081    1304
     Max         363     182     51                25701     9084    1307
     Sum        8693    4349   1201               616735   217983   31311

     Using Slab Decomposition



     bravais-lattice index     =            6
     lattice parameter (alat)  =      15.0876  a.u.
     unit-cell volume          =    3472.3239 (a.u.)^3
     number of atoms/cell      =           40
     number of atomic types    =            3
     number of electrons       =       320.00
     number of Kohn-Sham states=          200
     kinetic-energy cutoff     =      60.0000  Ry
     charge density cutoff     =     480.0000  Ry
     scf convergence threshold =      1.0E-10
     mixing beta               =       0.3000
     number of iterations used =           16  plain     mixing
     Exchange-correlation= PBE
                           (   1   4   3   4   0   0   0)

     celldm(1)=  15.087600  celldm(2)=   0.000000  celldm(3)=   1.011020
     celldm(4)=   0.000000  celldm(5)=   0.000000  celldm(6)=   0.000000

     crystal axes: (cart. coord. in units of alat)
               a(1) = (   1.000000   0.000000   0.000000 )  
               a(2) = (   0.000000   1.000000   0.000000 )  
               a(3) = (   0.000000   0.000000   1.011020 )  

     reciprocal axes: (cart. coord. in units 2 pi/alat)
               b(1) = (  1.000000  0.000000  0.000000 )  
               b(2) = (  0.000000  1.000000  0.000000 )  
               b(3) = (  0.000000  0.000000  0.989100 )  


     PseudoPot. # 1 for Ba read from file:
     /home/kylay/scratch/BTO/pseuds/Ba.pbe-spn-kjpaw_psl.1.0.0.UPF
     MD5 check sum: 7cfe25f1fe7574a4710541d5a11d6531
     Pseudo is Projector augmented-wave + core cor, Zval = 10.0
     Generated using &quot;atomic&quot; code by A. Dal Corso  v.6.2.2
     Shape of augmentation charge: PSQ
     Using radial grid of 1251 points,  7 beta functions with: 
                l(1) =   0
                l(2) =   0
                l(3) =   0
                l(4) =   1
                l(5) =   1
                l(6) =   2
                l(7) =   2
     Q(r) pseudized with 0 coefficients 


     PseudoPot. # 2 for Ti read from file:
     /home/kylay/scratch/BTO/pseuds/Ti.pbe-spn-kjpaw_psl.1.0.0.UPF
     MD5 check sum: 01f69b0d8ba4438b2e03ac6ea4af1c0b
     Pseudo is Projector augmented-wave + core cor, Zval = 12.0
     Generated using &quot;atomic&quot; code by A. Dal Corso  v.6.2.2
     Shape of augmentation charge: PSQ
     Using radial grid of 1177 points,  6 beta functions with: 
                l(1) =   0
                l(2) =   0
                l(3) =   1
                l(4) =   1
                l(5) =   2
                l(6) =   2
     Q(r) pseudized with 0 coefficients 


     PseudoPot. # 3 for O  read from file:
     /home/kylay/scratch/BTO/pseuds/O.pbe-n-kjpaw_psl.1.0.0.UPF
     MD5 check sum: e99d9cef9b487d1ca56f5b95ecd0fd7a
     Pseudo is Projector augmented-wave + core cor, Zval =  6.0
     Generated using &quot;atomic&quot; code by A. Dal Corso  v.6.3
     Shape of augmentation charge: PSQ
     Using radial grid of 1095 points,  4 beta functions with: 
                l(1) =   0
                l(2) =   0
                l(3) =   1
                l(4) =   1
     Q(r) pseudized with 0 coefficients 


     atomic species   valence    mass     pseudopotential
     Ba               10.00   137.32700     Ba( 1.00)
     Ti               12.00    47.86700     Ti( 1.00)
     O                 6.00    15.99900     O ( 1.00)

      8 Sym. Ops. (no inversion) found



   Cartesian axes

     site n.     atom                  positions (alat units)
         1        Ba     tau(   1) = (   0.0000000   0.0000000  -0.0010787  )
         2        Ba     tau(   2) = (   0.0000000   0.0000000   0.5044220  )
         3        Ba     tau(   3) = (   0.0000000   0.5000000  -0.0010832  )
         4        Ba     tau(   4) = (   0.0000000   0.5000000   0.5044235  )
         5        Ba     tau(   5) = (   0.5000000   0.0000000  -0.0010832  )
         6        Ba     tau(   6) = (   0.5000000   0.0000000   0.5044235  )
         7        Ba     tau(   7) = (   0.5000000   0.5000000  -0.0010766  )
         8        Ba     tau(   8) = (   0.5000000   0.5000000   0.5044202  )
         9        Ti     tau(   9) = (   0.2500002   0.2500002   0.2436990  )
        10        Ti     tau(  10) = (   0.2500007   0.2500007   0.7492042  )
        11        Ti     tau(  11) = (   0.2500002   0.7499998   0.2436990  )
        12        Ti     tau(  12) = (   0.2500007   0.7499993   0.7492042  )
        13        Ti     tau(  13) = (   0.7499998   0.2500002   0.2436990  )
        14        Ti     tau(  14) = (   0.7499993   0.2500007   0.7492042  )
        15        Ti     tau(  15) = (   0.7499998   0.7499998   0.2436990  )
        16        Ti     tau(  16) = (   0.7499993   0.7499993   0.7492042  )
        17        O      tau(  17) = (   0.2500011   0.2500011   0.0113903  )
        18        O      tau(  18) = (   0.2500007   0.2500007   0.5168954  )
        19        O      tau(  19) = (   0.2500011   0.7499989   0.0113903  )
        20        O      tau(  20) = (   0.2500007   0.7499993   0.5168954  )
        21        O      tau(  21) = (   0.7499989   0.2500011   0.0113903  )
        22        O      tau(  22) = (   0.7499993   0.2500007   0.5168954  )
        23        O      tau(  23) = (   0.7499989   0.7499989   0.0113903  )
        24        O      tau(  24) = (   0.7499993   0.7499993   0.5168954  )
        25        O      tau(  25) = (   0.2500005   0.0000000   0.2592128  )
        26        O      tau(  26) = (   0.2500020   0.0000000   0.7647195  )
        27        O      tau(  27) = (   0.2499999   0.5000000   0.2592107  )
        28        O      tau(  28) = (   0.2499998   0.5000000   0.7647148  )
        29        O      tau(  29) = (   0.7499995   0.0000000   0.2592128  )
        30        O      tau(  30) = (   0.7499980   0.0000000   0.7647195  )
        31        O      tau(  31) = (   0.7500001   0.5000000   0.2592107  )
        32        O      tau(  32) = (   0.7500002   0.5000000   0.7647148  )
        33        O      tau(  33) = (   0.0000000   0.2500005   0.2592128  )
        34        O      tau(  34) = (   0.0000000   0.2500020   0.7647195  )
        35        O      tau(  35) = (   0.0000000   0.7499995   0.2592128  )
        36        O      tau(  36) = (   0.0000000   0.7499980   0.7647195  )
        37        O      tau(  37) = (   0.5000000   0.2499999   0.2592107  )
        38        O      tau(  38) = (   0.5000000   0.2499998   0.7647148  )
        39        O      tau(  39) = (   0.5000000   0.7500001   0.2592107  )
        40        O      tau(  40) = (   0.5000000   0.7500002   0.7647148  )

     number of k points=    40
                       cart. coord. in units 2pi/alat
        k(    1) = (   0.0000000   0.0000000   0.0000000), wk =   0.0092593
        k(    2) = (   0.0000000   0.0000000   0.1648500), wk =   0.0185185
        k(    3) = (   0.0000000   0.0000000   0.3297000), wk =   0.0185185
        k(    4) = (   0.0000000   0.0000000  -0.4945501), wk =   0.0092593
        k(    5) = (   0.0000000   0.1666667   0.0000000), wk =   0.0370370
        k(    6) = (   0.0000000   0.1666667   0.1648500), wk =   0.0740741
        k(    7) = (   0.0000000   0.1666667   0.3297000), wk =   0.0740741
        k(    8) = (   0.0000000   0.1666667  -0.4945501), wk =   0.0370370
        k(    9) = (   0.0000000   0.3333333   0.0000000), wk =   0.0370370
        k(   10) = (   0.0000000   0.3333333   0.1648500), wk =   0.0740741
        k(   11) = (   0.0000000   0.3333333   0.3297000), wk =   0.0740741
        k(   12) = (   0.0000000   0.3333333  -0.4945501), wk =   0.0370370
        k(   13) = (   0.0000000  -0.5000000   0.0000000), wk =   0.0185185
        k(   14) = (   0.0000000  -0.5000000   0.1648500), wk =   0.0370370
        k(   15) = (   0.0000000  -0.5000000   0.3297000), wk =   0.0370370
        k(   16) = (   0.0000000  -0.5000000  -0.4945501), wk =   0.0185185
        k(   17) = (   0.1666667   0.1666667   0.0000000), wk =   0.0370370
        k(   18) = (   0.1666667   0.1666667   0.1648500), wk =   0.0740741
        k(   19) = (   0.1666667   0.1666667   0.3297000), wk =   0.0740741
        k(   20) = (   0.1666667   0.1666667  -0.4945501), wk =   0.0370370
        k(   21) = (   0.1666667   0.3333333   0.0000000), wk =   0.0740741
        k(   22) = (   0.1666667   0.3333333   0.1648500), wk =   0.1481481
        k(   23) = (   0.1666667   0.3333333   0.3297000), wk =   0.1481481
        k(   24) = (   0.1666667   0.3333333  -0.4945501), wk =   0.0740741
        k(   25) = (   0.1666667  -0.5000000   0.0000000), wk =   0.0370370
        k(   26) = (   0.1666667  -0.5000000   0.1648500), wk =   0.0740741
        k(   27) = (   0.1666667  -0.5000000   0.3297000), wk =   0.0740741
        k(   28) = (   0.1666667  -0.5000000  -0.4945501), wk =   0.0370370
        k(   29) = (   0.3333333   0.3333333   0.0000000), wk =   0.0370370
        k(   30) = (   0.3333333   0.3333333   0.1648500), wk =   0.0740741
        k(   31) = (   0.3333333   0.3333333   0.3297000), wk =   0.0740741
        k(   32) = (   0.3333333   0.3333333  -0.4945501), wk =   0.0370370
        k(   33) = (   0.3333333  -0.5000000   0.0000000), wk =   0.0370370
        k(   34) = (   0.3333333  -0.5000000   0.1648500), wk =   0.0740741
        k(   35) = (   0.3333333  -0.5000000   0.3297000), wk =   0.0740741
        k(   36) = (   0.3333333  -0.5000000  -0.4945501), wk =   0.0370370
        k(   37) = (  -0.5000000  -0.5000000   0.0000000), wk =   0.0092593
        k(   38) = (  -0.5000000  -0.5000000   0.1648500), wk =   0.0185185
        k(   39) = (  -0.5000000  -0.5000000   0.3297000), wk =   0.0185185
        k(   40) = (  -0.5000000  -0.5000000  -0.4945501), wk =   0.0092593

     Dense  grid:   616735 G-vectors     FFT dimensions: ( 108, 108, 108)

     Smooth grid:   217983 G-vectors     FFT dimensions: (  75,  75,  75)

     Estimated max dynamical RAM per process >      82.77 MB

     Estimated total dynamical RAM >      13.46 GB

     Check: negative core charge=   -0.000002

     The initial density is read from file :
     ./tmp/60_ecut_6_kmesh_PBE.save/charge-density

     Starting wfcs from file
     Checking if some PAW data can be deallocated... 

     total cpu time spent up to now is        4.5 secs

     per-process dynamical memory:   130.6 Mb

     Self-consistent Calculation

     iteration #  1     ecut=    60.00 Ry     beta= 0.30
     Davidson diagonalization with overlap
     ethr =  1.00E-05,  avg # of iterations =  1.0

     Threshold (ethr) on eigenvalues was too large:
     Diagonalizing with lowered threshold

     Davidson diagonalization with overlap
     ethr =  1.11E-11,  avg # of iterations =  2.1

     total cpu time spent up to now is        9.6 secs

     total energy              =   -5964.60370813 Ry
     estimated scf accuracy    <       0.00000004 Ry

     iteration #  2     ecut=    60.00 Ry     beta= 0.30
     Davidson diagonalization with overlap
     ethr =  1.32E-11,  avg # of iterations =  2.0

     total cpu time spent up to now is       12.1 secs

     total energy              =   -5964.60370814 Ry
     estimated scf accuracy    <          8.4E-09 Ry

     iteration #  3     ecut=    60.00 Ry     beta= 0.30
     Davidson diagonalization with overlap
     ethr =  2.63E-12,  avg # of iterations =  2.5

     total cpu time spent up to now is       15.0 secs

     total energy              =   -5964.60370814 Ry
     estimated scf accuracy    <          9.0E-10 Ry

     iteration #  4     ecut=    60.00 Ry     beta= 0.30
     Davidson diagonalization with overlap
     ethr =  2.83E-13,  avg # of iterations =  5.1

     total cpu time spent up to now is       18.8 secs

     total energy              =   -5964.60370814 Ry
     estimated scf accuracy    <          5.7E-10 Ry

     iteration #  5     ecut=    60.00 Ry     beta= 0.30
     Davidson diagonalization with overlap
     ethr =  1.80E-13,  avg # of iterations =  1.2

     total cpu time spent up to now is       21.2 secs

     total energy              =   -5964.60370814 Ry
     estimated scf accuracy    <          5.2E-10 Ry

     iteration #  6     ecut=    60.00 Ry     beta= 0.30
     Davidson diagonalization with overlap
     ethr =  1.63E-13,  avg # of iterations =  1.0

     total cpu time spent up to now is       23.4 secs

     total energy              =   -5964.60370814 Ry
     estimated scf accuracy    <          6.5E-10 Ry

     iteration #  7     ecut=    60.00 Ry     beta= 0.30
     Davidson diagonalization with overlap
     ethr =  1.63E-13,  avg # of iterations =  1.1

     total cpu time spent up to now is       25.7 secs

     total energy              =   -5964.60370814 Ry
     estimated scf accuracy    <          1.3E-10 Ry

     iteration #  8     ecut=    60.00 Ry     beta= 0.30
     Davidson diagonalization with overlap
     ethr =  1.00E-13,  avg # of iterations =  2.0

     total cpu time spent up to now is       28.3 secs

     End of self-consistent calculation

          k = 0.0000 0.0000 0.0000 ( 27305 PWs)   bands (ev):

   -46.1123 -46.1114 -46.1113 -46.1113 -46.1104 -46.1104 -46.1102 -46.1094
   -22.4475 -22.4439 -22.4439 -22.4413 -22.3992 -22.3971 -22.3971 -22.3950
   -22.3934 -22.3934 -22.3901 -22.3901 -22.3899 -22.3899 -22.3875 -22.3875
   -22.3392 -22.3392 -22.3373 -22.3373 -22.3371 -22.3371 -22.3354 -22.3354
   -14.4575 -14.3459 -14.3365 -14.3365 -14.2671 -14.2670 -14.2591 -14.1986
    -6.7748  -6.7748  -6.7224  -6.5321  -6.2538  -6.1408  -6.1408  -5.9064
    -5.9064  -5.9055  -5.8449  -5.8449  -5.8110  -5.7788  -5.7471  -5.7471
    -5.7441  -5.7441  -5.7357  -5.6698  -5.5764  -5.5764  -5.5148  -5.5148
    -0.3536  -0.3536  -0.2915   0.2992   0.2992   0.3153   0.3153   0.3654
     0.3709   0.3709   0.3749   0.3749   0.5281   0.5281   0.5329   0.5330
     0.5498   0.5498   0.7386   0.7428   0.7428   0.7629   0.7629   0.8067
     5.9196   6.0778   6.1027   6.1027   6.2954   6.2954   6.3342   6.3500
     6.4070   6.4070   6.5594   6.5594   6.5598   6.5816   6.5974   7.5261
     7.5261   7.5772   7.5772   7.6245   7.6245   7.6256   7.6256   7.6393
     7.6393   7.7384   7.7384   7.9239   7.9239   7.9535   8.0512   8.0859
     8.0859   8.0913   8.0913   8.3856   8.3856   8.4545   8.4581   8.4703
     8.4703   8.5510   8.5510   8.6151   8.6908   8.6909   8.7154   8.7154
     9.0501   9.0501   9.2288   9.3435   9.3435   9.3766   9.3766   9.4733
     9.4733   9.4819   9.4819   9.5004   9.5004   9.7146   9.7146   9.9949
    10.0596  10.0596  10.1764  10.1764  10.2466  10.2466  10.3379  10.4085
    12.2307  12.3769  12.5489  12.5489  12.6652  12.6652  13.9460  13.9460
    13.9745  13.9745  14.0021  14.0021  14.0082  14.0082  14.0228  14.0228
    14.0248  14.0248  14.3660  14.3660  14.3951  14.4643  14.4646  14.5513
    14.5513  14.6116  14.6116  14.6167  14.6198  15.1000  15.3002  15.3002
    15.3439  15.4903  16.2958  16.2958  16.4926  16.8978  17.1086  17.1086

          k = 0.0000 0.0000 0.1649 ( 27269 PWs)   bands (ev):

   -46.1123 -46.1115 -46.1112 -46.1112 -46.1105 -46.1105 -46.1102 -46.1094
   -22.4443 -22.4408 -22.4408 -22.4382 -22.4025 -22.4003 -22.4003 -22.3982
   -22.3931 -22.3931 -22.3904 -22.3903 -22.3897 -22.3897 -22.3877 -22.3877
   -22.3391 -22.3391 -22.3375 -22.3375 -22.3370 -22.3370 -22.3355 -22.3355
   -14.4502 -14.3536 -14.3320 -14.3319 -14.2718 -14.2718 -14.2551 -14.2027
    -6.7416  -6.7416  -6.7005  -6.5300  -6.2213  -6.2091  -6.2091  -5.9077
    -5.8779  -5.8779  -5.8412  -5.8412  -5.8089  -5.7810  -5.7728  -5.7335
    -5.7335  -5.7314  -5.7314  -5.6979  -5.5884  -5.5884  -5.5301  -5.5301
    -0.3121  -0.3121  -0.2338   0.2527   0.2527   0.3426   0.3426   0.3792
     0.3792   0.3847   0.3847   0.3954   0.5173   0.5173   0.5192   0.5193
     0.5620   0.5620   0.6540   0.7291   0.7291   0.7301   0.7301   0.7774
     5.9640   6.0791   6.1588   6.1588   6.3666   6.3666   6.3947   6.3947
     6.4415   6.4724   6.5826   6.5964   6.6161   6.6161   6.6379   7.5309
     7.5309   7.5749   7.5749   7.6034   7.6034   7.6658   7.6658   7.6745
     7.6745   7.7877   7.7877   7.7897   7.7897   7.8570   7.9177   7.9177
     7.9284   8.0663   8.0663   8.4093   8.4093   8.4226   8.4927   8.4927
     8.4988   8.5345   8.5351   8.5352   8.7236   8.7237   8.9751   8.9751
     9.0117   9.0117   9.1670   9.2846   9.2846   9.3773   9.3773   9.4128
     9.4128   9.4250   9.4250   9.4322   9.4323   9.7353   9.7353   9.8427
    10.0353  10.0353  10.1377  10.1377  10.1666  10.1666  10.3426  10.4037
    12.2401  12.3668  12.6612  12.6612  12.7668  12.7668  13.9187  13.9187
    13.9374  13.9374  13.9482  13.9482  13.9728  13.9728  14.0069  14.0069
    14.0598  14.0598  14.3216  14.3216  14.4095  14.4639  14.4642  14.5646
    14.5646  14.6040  14.6837  14.6837  14.7970  15.2910  15.2910  15.3132
    15.4748  15.6206  16.3770  16.3770  16.3990  16.8911  17.1952  17.2780

          k = 0.0000 0.0000 0.3297 ( 27266 PWs)   bands (ev):

   -46.1121 -46.1117 -46.1111 -46.1111 -46.1106 -46.1106 -46.1100 -46.1096
   -22.4355 -22.4323 -22.4323 -22.4298 -22.4114 -22.4088 -22.4088 -22.4067
   -22.3925 -22.3925 -22.3909 -22.3909 -22.3893 -22.3893 -22.3881 -22.3881
   -22.3388 -22.3388 -22.3378 -22.3378 -22.3367 -22.3367 -22.3358 -22.3358
   -14.4302 -14.3744 -14.3194 -14.3194 -14.2847 -14.2846 -14.2441 -14.2139
    -6.6477  -6.6477  -6.6441  -6.5383  -6.3518  -6.3518  -6.1309  -5.8973
    -5.8723  -5.8431  -5.8431  -5.8334  -5.8334  -5.8030  -5.7869  -5.7690
    -5.7042  -5.7042  -5.6885  -5.6885  -5.6205  -5.6205  -5.5723  -5.5723
    -0.1974  -0.1974  -0.0698   0.1281   0.1281   0.4036   0.4036   0.4119
     0.4119   0.4190   0.4190   0.4380   0.4771   0.4841   0.4842   0.4884
     0.4884   0.5960   0.5960   0.6428   0.6428   0.6924   0.6924   0.6974
     6.0363   6.0804   6.2565   6.2565   6.3637   6.3637   6.5747   6.5747
     6.5855   6.5934   6.7401   6.7923   6.8269   6.8269   6.9119   7.3240
     7.3240   7.4734   7.4734   7.5426   7.5426   7.5678   7.5678   7.5872
     7.5983   7.7573   7.7573   7.7710   7.7710   7.8935   7.8935   7.9315
     7.9315   7.9469   8.0048   8.0048   8.3365   8.3365   8.4836   8.4836
     8.6242   8.7275   8.7276   8.7542   8.7997   8.7997   8.8195   8.8195
     9.0075   9.1386   9.1387   9.2126   9.2126   9.2456   9.2457   9.3061
     9.3061   9.4322   9.4322   9.4860   9.5282   9.5282   9.7937   9.7937
     9.9640   9.9640   9.9682   9.9682  10.0111  10.0111  10.3553  10.3906
    12.2660  12.3392  12.9519  12.9519  13.0319  13.0319  13.6709  13.6709
    13.7021  13.7021  13.9538  13.9538  13.9680  13.9680  14.0343  14.0343
    14.1576  14.1576  14.2153  14.2153  14.4451  14.4451  14.4494  14.4632
    14.4635  14.5617  14.9490  14.9490  15.2272  15.2524  15.2524  15.8300
    15.8372  15.9905  16.1286  16.6423  16.6423  16.7926  16.8154  17.1620

          k = 0.0000 0.0000-0.4946 ( 27198 PWs)   bands (ev):

   -46.1119 -46.1119 -46.1108 -46.1108 -46.1108 -46.1108 -46.1098 -46.1098
   -22.4235 -22.4235 -22.4206 -22.4206 -22.4206 -22.4206 -22.4182 -22.4182
   -22.3918 -22.3917 -22.3917 -22.3917 -22.3887 -22.3887 -22.3887 -22.3887
   -22.3383 -22.3383 -22.3383 -22.3383 -22.3362 -22.3362 -22.3362 -22.3362
   -14.4025 -14.4024 -14.3022 -14.3021 -14.3021 -14.3020 -14.2291 -14.2290
    -6.5794  -6.5792  -6.5094  -6.5094  -6.5093  -6.5093  -6.0039  -6.0038
    -5.8482  -5.8481  -5.8302  -5.8302  -5.8301  -5.8301  -5.7950  -5.7949
    -5.6631  -5.6631  -5.6630  -5.6630  -5.6303  -5.6303  -5.6302  -5.6301
    -0.0371  -0.0371  -0.0370  -0.0370   0.1714   0.1715   0.4411   0.4412
     0.4412   0.4413   0.4497   0.4497   0.4497   0.4497   0.5281   0.5281
     0.5282   0.5282   0.5876   0.5877   0.6434   0.6434   0.6435   0.6435
     6.0722   6.0724   6.3208   6.3208   6.3209   6.3209   6.5894   6.5895
     6.9030   6.9030   6.9032   6.9032   7.1612   7.1614   7.1710   7.1710
     7.1712   7.1712   7.2019   7.2020   7.3855   7.3857   7.5563   7.5563
     7.5564   7.5564   7.8402   7.8402   7.8402   7.8402   7.8997   7.8997
     7.8998   7.8998   8.1303   8.1303   8.1305   8.1305   8.6166   8.6166
     8.6167   8.6167   8.8075   8.8077   8.9670   8.9670   8.9670   8.9670
     8.9883   8.9884   8.9884   8.9885   9.0890   9.0890   9.1960   9.1960
     9.1960   9.1960   9.7243   9.7243   9.7244   9.7244   9.7772   9.7772
     9.7772   9.7772   9.8785   9.8785   9.8786   9.8786  10.3728  10.3730
    12.3022  12.3023  13.3216  13.3216  13.3216  13.3216  13.3739  13.3739
    13.3740  13.3740  13.9611  13.9611  13.9612  13.9612  14.1051  14.1051
    14.1051  14.1051  14.2965  14.2965  14.2965  14.2965  14.4632  14.4632
    14.5049  14.5049  15.1517  15.1517  15.1518  15.1518  15.7148  15.7150
    16.3165  16.3167  16.4206  16.4208  16.5396  16.5398  17.0769  17.0769

          k = 0.0000 0.1667 0.0000 ( 27283 PWs)   bands (ev):

   -46.1123 -46.1114 -46.1114 -46.1112 -46.1105 -46.1103 -46.1103 -46.1095
   -22.4472 -22.4441 -22.4437 -22.4414 -22.3991 -22.3973 -22.3970 -22.3952
   -22.3931 -22.3901 -22.3900 -22.3897 -22.3877 -22.3866 -22.3863 -22.3841
   -22.3428 -22.3409 -22.3407 -22.3391 -22.3389 -22.3373 -22.3372 -22.3355
   -14.4496 -14.3448 -14.3408 -14.3314 -14.2724 -14.2644 -14.2625 -14.2033
    -6.7514  -6.7434  -6.6891  -6.5360  -6.2941  -6.1903  -6.1056  -5.9004
    -5.8955  -5.8914  -5.8475  -5.8364  -5.8078  -5.7727  -5.7482  -5.7473
    -5.7393  -5.7364  -5.7284  -5.6854  -5.6166  -5.5886  -5.5467  -5.5298
    -0.3113  -0.2983  -0.2436   0.2675   0.3121   0.3227   0.3266   0.3271
     0.3759   0.3861   0.3972   0.4016   0.5104   0.5207   0.5211   0.5375
     0.5416   0.5545   0.6531   0.7245   0.7275   0.7287   0.7374   0.7746
     5.9675   6.1028   6.1358   6.1541   6.3241   6.3420   6.3923   6.4217
     6.4232   6.5133   6.5598   6.5664   6.6389   6.6500   6.6655   7.5623
     7.5640   7.5742   7.5765   7.6230   7.6298   7.6355   7.6363   7.6632
     7.6901   7.7343   7.7673   7.8250   7.9163   7.9205   7.9210   7.9523
     7.9623   8.0403   8.0678   8.1442   8.1685   8.3257   8.5003   8.5264
     8.5285   8.5621   8.6529   8.6828   8.7457   8.7515   8.9405   8.9418
     8.9877   9.0570   9.1131   9.1928   9.3137   9.3389   9.3800   9.4029
     9.4646   9.5110   9.5163   9.5420   9.5472   9.5899   9.6190   9.8274
     9.9854  10.0593  10.1364  10.1747  10.1811  10.2404  10.2953  10.3305
    12.3765  12.5092  12.5592  12.6075  12.6558  12.7183  13.8487  13.8800
    13.8912  13.9137  13.9546  13.9873  14.0044  14.0089  14.0119  14.0217
    14.0228  14.0402  14.3133  14.3435  14.3825  14.5553  14.5575  14.5581
    14.5636  14.5971  14.6200  14.6884  14.7357  15.1150  15.2887  15.4808
    15.5228  15.6248  16.2253  16.3948  16.5757  16.9573  17.2107  17.2852

          k = 0.0000 0.1667 0.1649 ( 27282 PWs)   bands (ev):

   -46.1122 -46.1114 -46.1113 -46.1112 -46.1105 -46.1104 -46.1103 -46.1095
   -22.4440 -22.4410 -22.4406 -22.4384 -22.4024 -22.4004 -22.4001 -22.3983
   -22.3929 -22.3902 -22.3899 -22.3895 -22.3879 -22.3868 -22.3862 -22.3842
   -22.3427 -22.3410 -22.3406 -22.3390 -22.3390 -22.3373 -22.3371 -22.3356
   -14.4425 -14.3482 -14.3401 -14.3269 -14.2774 -14.2672 -14.2603 -14.2074
    -6.7196  -6.7101  -6.6688  -6.5311  -6.2613  -6.2392  -6.1761  -5.9041
    -5.8794  -5.8654  -5.8445  -5.8324  -5.8056  -5.7931  -5.7753  -5.7374
    -5.7257  -5.7222  -5.7194  -5.7126  -5.6200  -5.5983  -5.5612  -5.5432
    -0.2824  -0.2708  -0.1656   0.2612   0.2816   0.2956   0.3250   0.3364
     0.3692   0.3960   0.4190   0.4430   0.4733   0.4974   0.5039   0.5307
     0.5495   0.5929   0.6542   0.6554   0.6950   0.7141   0.7146   0.7542
     6.0162   6.1371   6.1588   6.2176   6.3810   6.4139   6.4297   6.4790
     6.4993   6.5308   6.6163   6.6226   6.6399   6.6799   6.6982   7.5504
     7.5637   7.5787   7.6048   7.6188   7.6207   7.6331   7.6639   7.6698
     7.7151   7.7195   7.7557   7.7858   7.8106   7.8654   7.8682   7.9150
     7.9286   7.9801   7.9914   8.0505   8.1118   8.3485   8.4661   8.5017
     8.5323   8.5787   8.5914   8.7781   8.8263   8.9134   8.9333   8.9631
     9.0152   9.0365   9.0818   9.1958   9.3026   9.3234   9.3594   9.3720
     9.4295   9.4579   9.4631   9.4642   9.4850   9.6187   9.6405   9.7241
     9.9587   9.9982  10.0968  10.1042  10.1395  10.1585  10.2980  10.3348
    12.3849  12.4999  12.6705  12.7054  12.7580  12.8169  13.8512  13.8751
    13.8982  13.8989  13.9197  13.9388  13.9542  13.9555  13.9592  14.0084
    14.0114  14.0563  14.2630  14.3377  14.3577  14.5067  14.5411  14.5569
    14.5937  14.6195  14.6887  14.8350  14.8793  15.2796  15.3273  15.5160
    15.6058  15.7533  16.3060  16.4600  16.4813  16.9804  17.2688  17.3782

          k = 0.0000 0.1667 0.3297 ( 27264 PWs)   bands (ev):

   -46.1120 -46.1116 -46.1111 -46.1110 -46.1107 -46.1106 -46.1101 -46.1097
   -22.4353 -22.4325 -22.4321 -22.4299 -22.4112 -22.4090 -22.4087 -22.4068
   -22.3923 -22.3908 -22.3895 -22.3890 -22.3883 -22.3874 -22.3858 -22.3846
   -22.3424 -22.3414 -22.3402 -22.3393 -22.3386 -22.3377 -22.3368 -22.3359
   -14.4229 -14.3685 -14.3270 -14.3144 -14.2908 -14.2800 -14.2492 -14.2187
    -6.6300  -6.6174  -6.6161  -6.5311  -6.3577  -6.3199  -6.1702  -5.9032
    -5.8987  -5.8557  -5.8390  -5.8307  -5.8236  -5.7991  -5.7877  -5.7755
    -5.7103  -5.6946  -5.6932  -5.6837  -5.6395  -5.6247  -5.5997  -5.5804
    -0.1941  -0.1589   0.0095   0.1271   0.1595   0.3365   0.3649   0.3745
     0.3846   0.4135   0.4236   0.4607   0.4633   0.4714   0.4800   0.5013
     0.5217   0.5830   0.6051   0.6299   0.6516   0.6578   0.6779   0.6965
     6.0945   6.1386   6.2542   6.3334   6.3529   6.4634   6.6261   6.6428
     6.6491   6.6507   6.7228   6.8139   6.8292   6.8855   6.9114   7.3058
     7.3491   7.4643   7.5236   7.5381   7.5570   7.5677   7.5899   7.5948
     7.6140   7.6865   7.6922   7.7738   7.7869   7.8967   7.9060   7.9118
     7.9223   7.9288   7.9954   8.0401   8.1126   8.1403   8.3409   8.4212
     8.6007   8.6201   8.7286   8.7382   8.7541   8.8723   8.8740   9.0342
     9.0387   9.1212   9.1240   9.1827   9.1922   9.3077   9.3359   9.3497
     9.3799   9.4151   9.4418   9.4797   9.4974   9.4987   9.6963   9.7017
     9.8862   9.8997   9.9036   9.9597   9.9960  10.0057  10.3059  10.3296
    12.4084  12.4748  12.9587  12.9672  13.0245  13.0734  13.6536  13.6731
    13.6963  13.7245  13.8577  13.8757  13.9337  13.9707  13.9987  14.0436
    14.0639  14.1426  14.1497  14.2307  14.3780  14.3970  14.4289  14.5085
    14.6113  14.6181  14.9488  15.1368  15.2418  15.2982  15.4797  15.8537
    15.9444  16.1199  16.2083  16.5706  16.6855  16.8697  16.8941  17.2882

          k = 0.0000 0.1667-0.4946 ( 27244 PWs)   bands (ev):

   -46.1118 -46.1118 -46.1109 -46.1109 -46.1108 -46.1108 -46.1099 -46.1099
   -22.4233 -22.4233 -22.4208 -22.4208 -22.4204 -22.4204 -22.4184 -22.4184
   -22.3915 -22.3915 -22.3889 -22.3889 -22.3882 -22.3882 -22.3852 -22.3852
   -22.3419 -22.3419 -22.3398 -22.3398 -22.3382 -22.3381 -22.3364 -22.3364
   -14.3959 -14.3959 -14.3090 -14.3089 -14.2973 -14.2972 -14.2341 -14.2340
    -6.5613  -6.5612  -6.5002  -6.5001  -6.4777  -6.4776  -6.0408  -6.0407
    -5.8566  -5.8565  -5.8401  -5.8400  -5.8191  -5.8190  -5.7900  -5.7899
    -5.6738  -5.6737  -5.6602  -5.6600  -5.6489  -5.6488  -5.6318  -5.6316
    -0.0431  -0.0430  -0.0023  -0.0022   0.2369   0.2370   0.3654   0.3655
     0.4091   0.4092   0.4206   0.4206   0.4620   0.4620   0.4870   0.4871
     0.5653   0.5653   0.6130   0.6131   0.6297   0.6298   0.6512   0.6512
     6.1311   6.1312   6.3141   6.3142   6.4122   6.4123   6.6466   6.6467
     6.9323   6.9324   6.9517   6.9518   7.1339   7.1340   7.1761   7.1762
     7.1791   7.1792   7.2173   7.2175   7.3586   7.3588   7.5748   7.5749
     7.6030   7.6031   7.8015   7.8016   7.8526   7.8526   7.8865   7.8865
     7.8978   7.8979   8.0476   8.0477   8.1303   8.1305   8.3598   8.3599
     8.5538   8.5539   8.7381   8.7381   8.9333   8.9333   8.9448   8.9450
     9.0163   9.0163   9.1581   9.1582   9.1789   9.1789   9.2454   9.2454
     9.2621   9.2622   9.6673   9.6673   9.7142   9.7142   9.7630   9.7630
     9.7905   9.7905   9.7909   9.7910   9.8000   9.8001  10.3175  10.3177
    12.4412  12.4412  13.3146  13.3147  13.3257  13.3257  13.3679  13.3680
    13.4048  13.4049  13.8664  13.8665  13.9851  13.9852  14.0167  14.0168
    14.1186  14.1186  14.2164  14.2165  14.2837  14.2837  14.4518  14.4518
    14.6159  14.6159  15.1451  15.1451  15.3702  15.3702  15.7899  15.7900
    16.4104  16.4106  16.4548  16.4550  16.6665  16.6667  17.0030  17.0031

          k = 0.0000 0.3333 0.0000 ( 27251 PWs)   bands (ev):

   -46.1121 -46.1116 -46.1112 -46.1110 -46.1107 -46.1105 -46.1101 -46.1096
   -22.4466 -22.4448 -22.4432 -22.4419 -22.3987 -22.3977 -22.3966 -22.3956
   -22.3925 -22.3907 -22.3895 -22.3882 -22.3799 -22.3770 -22.3768 -22.3746
   -22.3528 -22.3506 -22.3504 -22.3485 -22.3387 -22.3376 -22.3368 -22.3358
   -14.4279 -14.3674 -14.3265 -14.3175 -14.2871 -14.2787 -14.2501 -14.2159
    -6.6902  -6.6557  -6.5955  -6.5596  -6.3982  -6.3122  -6.0082  -5.8846
    -5.8649  -5.8549  -5.8486  -5.8138  -5.7858  -5.7830  -5.7605  -5.7580
    -5.7321  -5.7275  -5.7232  -5.7065  -5.6857  -5.6281  -5.6212  -5.5710
    -0.1941  -0.1563  -0.0954   0.1395   0.1930   0.3496   0.3592   0.4055
     0.4058   0.4169   0.4254   0.4650   0.4703   0.4711   0.4738   0.4892
     0.5043   0.5792   0.5878   0.6377   0.6675   0.6864   0.6867   0.6891
     6.0474   6.1013   6.2284   6.2392   6.2995   6.3566   6.5242   6.5610
     6.5662   6.6378   6.7498   6.8077   6.8514   6.9209   6.9300   7.2704
     7.4220   7.4823   7.5545   7.6080   7.6227   7.6253   7.6269   7.6420
     7.6442   7.6605   7.7435   7.7653   7.7733   7.8283   7.8336   7.8894
     7.9366   7.9859   8.0061   8.0613   8.1463   8.1657   8.2836   8.6033
     8.6849   8.7124   8.7175   8.7269   8.7353   8.8402   8.8586   8.8831
     8.9002   9.0629   9.1419   9.2215   9.2733   9.3693   9.3716   9.3907
     9.4036   9.4627   9.4838   9.5135   9.5311   9.6148   9.6148   9.6702
     9.8193   9.9325   9.9940  10.0060  10.1231  10.1576  10.1938  10.2314
    12.5639  12.6310  12.7547  12.8393  12.8403  12.9238  13.5764  13.5993
    13.6176  13.6279  13.9875  13.9918  14.0112  14.0156  14.0174  14.0187
    14.1162  14.1179  14.1884  14.2196  14.4217  14.4276  14.4298  14.5514
    14.5684  14.5740  14.9085  14.9319  15.1278  15.1762  15.2425  15.8632
    15.9966  16.0084  16.0524  16.7065  16.8341  16.9272  16.9571  17.1848

          k = 0.0000 0.3333 0.1649 ( 27222 PWs)   bands (ev):

   -46.1120 -46.1115 -46.1112 -46.1110 -46.1107 -46.1105 -46.1102 -46.1097
   -22.4434 -22.4417 -22.4401 -22.4388 -22.4020 -22.4008 -22.3997 -22.3987
   -22.3923 -22.3906 -22.3897 -22.3884 -22.3797 -22.3772 -22.3766 -22.3747
   -22.3527 -22.3508 -22.3503 -22.3486 -22.3386 -22.3375 -22.3370 -22.3360
   -14.4213 -14.3621 -14.3335 -14.3130 -14.2926 -14.2746 -14.2547 -14.2202
    -6.6624  -6.6224  -6.5806  -6.5472  -6.3652  -6.3295  -6.0859  -5.8902
    -5.8609  -5.8573  -5.8541  -5.8290  -5.8088  -5.7853  -5.7706  -5.7522
    -5.7425  -5.7230  -5.6968  -5.6951  -5.6812  -5.6397  -5.6253  -5.5795
    -0.1763  -0.1564   0.0031   0.1701   0.1805   0.2888   0.3514   0.3627
     0.3814   0.4035   0.4273   0.4483   0.4648   0.4665   0.4993   0.5159
     0.5178   0.5678   0.6015   0.6241   0.6524   0.6689   0.6736   0.6889
     6.1027   6.1573   6.2385   6.3118   6.3480   6.4008   6.5863   6.6176
     6.6239   6.7062   6.7727   6.7876   6.8543   6.9295   6.9575   7.3098
     7.3714   7.4770   7.5029   7.5933   7.6049   7.6294   7.6411   7.6519
     7.6775   7.6812   7.6841   7.7410   7.8127   7.8339   7.8577   7.8951
     7.9024   7.9247   7.9950   8.0203   8.0558   8.1070   8.1869   8.5378
     8.5653   8.5670   8.7457   8.7509   8.7622   8.7673   8.9310   8.9670
     9.0547   9.1230   9.1409   9.2199   9.2908   9.2984   9.3916   9.4070
     9.4150   9.4330   9.4466   9.5131   9.5175   9.5586   9.5612   9.6389
     9.7856   9.8812   9.9221   9.9924  10.0931  10.1459  10.1548  10.1960
    12.6560  12.7345  12.7781  12.8318  12.9034  13.0105  13.5800  13.6128
    13.6147  13.6809  13.9047  13.9230  13.9336  13.9985  14.0270  14.0379
    14.0461  14.1084  14.1244  14.2332  14.3621  14.3822  14.4142  14.5052
    14.6811  14.6957  14.9070  15.1112  15.2341  15.2581  15.3381  15.9706
    16.0525  16.0873  16.1231  16.7362  16.7381  16.9902  17.0168  17.3170

          k = 0.0000 0.3333 0.3297 ( 27256 PWs)   bands (ev):

   -46.1119 -46.1114 -46.1113 -46.1109 -46.1108 -46.1104 -46.1103 -46.1098
   -22.4347 -22.4331 -22.4316 -22.4304 -22.4108 -22.4095 -22.4083 -22.4072
   -22.3917 -22.3902 -22.3901 -22.3888 -22.3792 -22.3777 -22.3762 -22.3751
   -22.3523 -22.3512 -22.3499 -22.3490 -22.3382 -22.3373 -22.3372 -22.3363
   -14.4030 -14.3523 -14.3476 -14.3075 -14.3008 -14.2672 -14.2632 -14.2318
    -6.5862  -6.5463  -6.5283  -6.5237  -6.3881  -6.2725  -6.2320  -5.9899
    -5.8962  -5.8716  -5.8553  -5.8215  -5.7972  -5.7955  -5.7807  -5.7585
    -5.7303  -5.7086  -5.6870  -5.6707  -5.6690  -5.6667  -5.6366  -5.6030
    -0.1323  -0.0519   0.1443   0.1779   0.1788   0.2474   0.2557   0.2998
     0.3497   0.3660   0.4116   0.4149   0.4560   0.5046   0.5371   0.5442
     0.5474   0.5480   0.5580   0.5865   0.6390   0.6451   0.6565   0.6783
     6.1890   6.2362   6.2482   6.3273   6.4993   6.6780   6.7335   6.7672
     6.8127   6.8360   6.8509   6.8617   6.8888   6.9692   7.1020   7.2012
     7.3514   7.4016   7.4100   7.4189   7.4426   7.5699   7.5757   7.6072
     7.7023   7.7066   7.7286   7.7335   7.7796   7.7942   7.8496   7.8991
     7.9070   7.9348   7.9425   7.9444   7.9580   8.1962   8.2182   8.2580
     8.3067   8.3662   8.5423   8.5900   8.8258   8.8294   8.9707   9.0198
     9.1577   9.1938   9.2644   9.2876   9.2957   9.3061   9.3650   9.3686
     9.3975   9.4274   9.4313   9.4845   9.4983   9.5665   9.6243   9.6442
     9.6977   9.7400   9.8211   9.9367   9.9461   9.9950  10.1495  10.1596
    12.7492  12.8113  12.9857  13.0038  13.0897  13.2369  13.5887  13.5902
    13.6726  13.6734  13.6797  13.7106  13.8212  13.8231  13.9675  14.0248
    14.0701  14.0869  14.1273  14.2083  14.2707  14.2730  14.3666  14.3961
    14.8227  14.8999  14.9417  15.2007  15.5155  15.5734  15.8641  16.0191
    16.2596  16.3508  16.4605  16.4890  16.8535  16.9402  17.1053  17.1669

          k = 0.0000 0.3333-0.4946 ( 27264 PWs)   bands (ev):

   -46.1116 -46.1116 -46.1111 -46.1111 -46.1106 -46.1106 -46.1101 -46.1101
   -22.4228 -22.4228 -22.4213 -22.4213 -22.4200 -22.4200 -22.4188 -22.4188
   -22.3910 -22.3910 -22.3895 -22.3895 -22.3785 -22.3784 -22.3757 -22.3757
   -22.3517 -22.3517 -22.3494 -22.3494 -22.3378 -22.3378 -22.3367 -22.3367
   -14.3779 -14.3778 -14.3277 -14.3276 -14.2841 -14.2840 -14.2476 -14.2475
    -6.5197  -6.5196  -6.4838  -6.4837  -6.3900  -6.3898  -6.1385  -6.1383
    -5.8756  -5.8755  -5.8642  -5.8641  -5.7885  -5.7884  -5.7710  -5.7708
    -5.7040  -5.7039  -5.6923  -5.6922  -5.6527  -5.6525  -5.6363  -5.6362
    -0.0147  -0.0147   0.0951   0.0952   0.2175   0.2175   0.3713   0.3714
     0.3740   0.3740   0.3773   0.3774   0.3783   0.3784   0.4960   0.4961
     0.5928   0.5929   0.6165   0.6165   0.6169   0.6169   0.6442   0.6443
     6.2267   6.2268   6.2985   6.2986   6.6473   6.6474   6.8681   6.8682
     6.9987   6.9987   7.0532   7.0533   7.0647   7.0648   7.1273   7.1273
     7.1916   7.1918   7.3081   7.3083   7.3922   7.3924   7.5434   7.5435
     7.5445   7.5446   7.7206   7.7208   7.8724   7.8725   7.8857   7.8858
     7.9363   7.9363   7.9896   7.9897   8.0306   8.0307   8.1469   8.1471
     8.3586   8.3586   8.3964   8.3965   8.8652   8.8652   8.9657   8.9658
     9.1539   9.1540   9.2691   9.2691   9.3064   9.3064   9.3107   9.3107
     9.5044   9.5046   9.5287   9.5287   9.5865   9.5865   9.6970   9.6970
     9.7327   9.7327   9.7523   9.7523   9.8106   9.8106  10.1487  10.1489
    12.7828  12.7829  13.3387  13.3388  13.3469  13.3470  13.3702  13.3703
    13.5326  13.5327  13.6073  13.6074  13.7958  13.7959  14.0114  14.0115
    14.0565  14.0565  14.1555  14.1555  14.2472  14.2472  14.3241  14.3242
    14.8795  14.8795  15.1171  15.1171  15.8652  15.8653  16.0394  16.0396
    16.4815  16.4816  16.6653  16.6655  16.7789  16.7790  17.1302  17.1303

          k = 0.0000-0.5000 0.0000 ( 27234 PWs)   bands (ev):

   -46.1118 -46.1118 -46.1109 -46.1109 -46.1108 -46.1108 -46.1099 -46.1099
   -22.4457 -22.4457 -22.4426 -22.4426 -22.3982 -22.3982 -22.3961 -22.3961
   -22.3916 -22.3916 -22.3888 -22.3888 -22.3664 -22.3664 -22.3638 -22.3638
   -22.3636 -22.3636 -22.3616 -22.3616 -22.3382 -22.3382 -22.3363 -22.3363
   -14.3979 -14.3979 -14.3069 -14.3069 -14.2982 -14.2982 -14.2331 -14.2331
    -6.6159  -6.6159  -6.5309  -6.5308  -6.4602  -6.4602  -5.8727  -5.8727
    -5.8671  -5.8671  -5.8203  -5.8203  -5.7896  -5.7896  -5.7850  -5.7850
    -5.7386  -5.7386  -5.7221  -5.7221  -5.6646  -5.6646  -5.6280  -5.6280
    -0.0300  -0.0300   0.0193   0.0193   0.1478   0.1478   0.4064   0.4064
     0.4089   0.4089   0.4467   0.4468   0.4600   0.4600   0.5187   0.5187
     0.5712   0.5713   0.5772   0.5772   0.6319   0.6319   0.6364   0.6365
     6.0893   6.0893   6.2690   6.2690   6.3091   6.3091   6.5635   6.5635
     6.8552   6.8552   6.9789   6.9790   7.1661   7.1661   7.1988   7.1989
     7.2196   7.2196   7.2926   7.2926   7.3727   7.3727   7.6198   7.6198
     7.6589   7.6589   7.8516   7.8516   7.8888   7.8888   7.8905   7.8905
     7.8976   7.8976   7.9563   7.9563   8.0086   8.0086   8.4783   8.4783
     8.6942   8.6942   8.7793   8.7793   8.8773   8.8774   8.9134   8.9134
     8.9726   8.9726   9.1286   9.1286   9.1563   9.1563   9.2971   9.2971
     9.3126   9.3126   9.6383   9.6384   9.7626   9.7626   9.7647   9.7647
     9.7841   9.7841   9.8788   9.8788   9.9053   9.9053  10.2118  10.2118
    12.5983  12.5983  13.1835  13.1835  13.2121  13.2121  13.2436  13.2436
    13.2622  13.2622  14.0092  14.0092  14.0147  14.0147  14.0628  14.0628
    14.0896  14.0896  14.2580  14.2580  14.2663  14.2663  14.4894  14.4894
    14.5740  14.5740  15.0833  15.0833  15.1283  15.1283  15.6455  15.6456
    16.3977  16.3978  16.5418  16.5418  16.6285  16.6285  17.1794  17.1794

          k = 0.0000-0.5000 0.1649 ( 27230 PWs)   bands (ev):

   -46.1118 -46.1118 -46.1110 -46.1110 -46.1107 -46.1107 -46.1099 -46.1099
   -22.4425 -22.4425 -22.4395 -22.4395 -22.4014 -22.4014 -22.3992 -22.3992
   -22.3914 -22.3914 -22.3890 -22.3890 -22.3662 -22.3662 -22.3640 -22.3640
   -22.3635 -22.3635 -22.3617 -22.3617 -22.3380 -22.3380 -22.3365 -22.3365
   -14.3919 -14.3919 -14.3131 -14.3131 -14.2939 -14.2939 -14.2375 -14.2375
    -6.5948  -6.5948  -6.4976  -6.4976  -6.4566  -6.4566  -5.9654  -5.9654
    -5.8700  -5.8700  -5.8152  -5.8152  -5.7785  -5.7785  -5.7714  -5.7714
    -5.7334  -5.7334  -5.7278  -5.7278  -5.6614  -5.6614  -5.6298  -5.6298
    -0.0064  -0.0064   0.0041   0.0041   0.2289   0.2289   0.3376   0.3377
     0.3926   0.3927   0.4180   0.4180   0.4710   0.4710   0.4790   0.4790
     0.5965   0.5965   0.5990   0.5990   0.6198   0.6198   0.6435   0.6435
     6.1458   6.1458   6.3044   6.3044   6.3638   6.3638   6.6206   6.6206
     6.9085   6.9085   6.9944   6.9944   7.1486   7.1486   7.1877   7.1878
     7.2041   7.2042   7.3259   7.3259   7.3541   7.3541   7.6228   7.6228
     7.6949   7.6949   7.7898   7.7898   7.8855   7.8855   7.8906   7.8906
     7.9009   7.9009   7.9576   7.9576   7.9783   7.9783   8.3014   8.3014
     8.6237   8.6237   8.6481   8.6481   8.9337   8.9337   8.9726   8.9726
     9.0587   9.0587   9.1564   9.1564   9.1829   9.1829   9.2846   9.2846
     9.3189   9.3189   9.5958   9.5958   9.7207   9.7207   9.7214   9.7214
     9.7811   9.7811   9.8672   9.8672   9.8952   9.8952  10.1589  10.1589
    12.7028  12.7028  13.1900  13.1900  13.2378  13.2378  13.2444  13.2444
    13.3315  13.3315  13.9280  13.9280  13.9844  13.9844  14.0308  14.0308
    14.1017  14.1017  14.1872  14.1872  14.2538  14.2538  14.4434  14.4434
    14.6960  14.6960  15.1228  15.1228  15.2858  15.2858  15.7220  15.7221
    16.4774  16.4775  16.6473  16.6473  16.6729  16.6730  17.1331  17.1332

          k = 0.0000-0.5000 0.3297 ( 27248 PWs)   bands (ev):

   -46.1116 -46.1116 -46.1111 -46.1111 -46.1106 -46.1106 -46.1101 -46.1101
   -22.4339 -22.4339 -22.4310 -22.4310 -22.4101 -22.4101 -22.4078 -22.4078
   -22.3909 -22.3909 -22.3895 -22.3895 -22.3658 -22.3658 -22.3645 -22.3645
   -22.3631 -22.3631 -22.3621 -22.3621 -22.3377 -22.3377 -22.3368 -22.3368
   -14.3755 -14.3755 -14.3300 -14.3300 -14.2821 -14.2821 -14.2496 -14.2496
    -6.5419  -6.5419  -6.4576  -6.4575  -6.4038  -6.4038  -6.1109  -6.1109
    -5.8788  -5.8788  -5.8588  -5.8588  -5.7624  -5.7624  -5.7441  -5.7441
    -5.7365  -5.7365  -5.7329  -5.7329  -5.6534  -5.6534  -5.6352  -5.6352
     0.0022   0.0022   0.0990   0.0990   0.2023   0.2023   0.3673   0.3673
     0.3729   0.3729   0.3743   0.3743   0.3777   0.3777   0.5013   0.5013
     0.5872   0.5872   0.6123   0.6123   0.6297   0.6297   0.6355   0.6355
     6.2339   6.2339   6.2932   6.2933   6.6128   6.6128   6.8441   6.8441
     7.0286   7.0286   7.0476   7.0476   7.0906   7.0906   7.1087   7.1087
     7.2176   7.2176   7.3171   7.3171   7.4499   7.4499   7.5341   7.5341
     7.5524   7.5524   7.7735   7.7735   7.8692   7.8692   7.8969   7.8969
     7.8997   7.8998   7.9857   7.9857   8.0062   8.0063   8.0616   8.0616
     8.3440   8.3440   8.4446   8.4446   8.8736   8.8736   8.9699   8.9699
     9.2334   9.2334   9.2364   9.2364   9.2867   9.2868   9.3415   9.3415
     9.3727   9.3727   9.4879   9.4879   9.5621   9.5621   9.7400   9.7400
     9.8072   9.8072   9.8381   9.8382   9.8746   9.8746  10.0039  10.0039
    12.9683  12.9683  13.2138  13.2138  13.2207  13.2207  13.3528  13.3528
    13.5139  13.5139  13.6903  13.6903  13.7842  13.7842  14.0012  14.0012
    14.0928  14.0928  14.1366  14.1366  14.2192  14.2192  14.3315  14.3315
    14.9124  14.9124  15.1009  15.1009  15.7819  15.7819  15.9909  15.9909
    16.6114  16.6114  16.6993  16.6993  16.8463  16.8464  17.2052  17.2052

          k = 0.0000-0.5000-0.4946 ( 27248 PWs)   bands (ev):

   -46.1114 -46.1114 -46.1114 -46.1114 -46.1103 -46.1103 -46.1103 -46.1103
   -22.4221 -22.4221 -22.4220 -22.4220 -22.4194 -22.4194 -22.4194 -22.4194
   -22.3902 -22.3902 -22.3902 -22.3902 -22.3651 -22.3651 -22.3651 -22.3651
   -22.3626 -22.3626 -22.3626 -22.3626 -22.3373 -22.3373 -22.3372 -22.3372
   -14.3529 -14.3529 -14.3529 -14.3528 -14.2660 -14.2659 -14.2659 -14.2658
    -6.4861  -6.4861  -6.4860  -6.4860  -6.2666  -6.2666  -6.2665  -6.2665
    -5.8823  -5.8823  -5.8822  -5.8822  -5.7462  -5.7462  -5.7461  -5.7461
    -5.7372  -5.7372  -5.7371  -5.7370  -5.6437  -5.6437  -5.6436  -5.6436
     0.0768   0.0768   0.0769   0.0769   0.2331   0.2331   0.2332   0.2332
     0.3591   0.3591   0.3591   0.3591   0.5155   0.5155   0.5155   0.5155
     0.5437   0.5437   0.5437   0.5438   0.6470   0.6470   0.6470   0.6470
     6.2755   6.2755   6.2756   6.2756   6.9013   6.9013   6.9013   6.9013
     7.0666   7.0667   7.0667   7.0667   7.1753   7.1753   7.1754   7.1754
     7.2494   7.2494   7.2495   7.2495   7.3251   7.3251   7.3252   7.3252
     7.6968   7.6968   7.6969   7.6969   7.8357   7.8357   7.8358   7.8358
     7.8883   7.8883   7.8883   7.8883   8.1164   8.1165   8.1165   8.1165
     8.2305   8.2305   8.2306   8.2306   8.8745   8.8745   8.8745   8.8745
     9.3155   9.3155   9.3155   9.3156   9.3555   9.3555   9.3555   9.3555
     9.3886   9.3886   9.3886   9.3887   9.6950   9.6950   9.6951   9.6951
     9.7978   9.7978   9.7979   9.7979   9.8720   9.8720   9.8722   9.8722
    13.1833  13.1833  13.1834  13.1834  13.3713  13.3713  13.3714  13.3714
    13.5457  13.5457  13.5457  13.5457  13.7566  13.7566  13.7566  13.7567
    14.1685  14.1685  14.1686  14.1686  14.2093  14.2093  14.2093  14.2093
    15.0442  15.0442  15.0442  15.0442  16.3175  16.3176  16.3177  16.3177
    16.4230  16.4230  16.4231  16.4231  17.0231  17.0231  17.0233  17.0233

          k = 0.1667 0.1667 0.0000 ( 27266 PWs)   bands (ev):

   -46.1122 -46.1113 -46.1113 -46.1113 -46.1104 -46.1104 -46.1104 -46.1095
   -22.4470 -22.4440 -22.4440 -22.4416 -22.3989 -22.3971 -22.3971 -22.3954
   -22.3895 -22.3895 -22.3867 -22.3865 -22.3865 -22.3865 -22.3843 -22.3842
   -22.3428 -22.3426 -22.3408 -22.3408 -22.3408 -22.3407 -22.3390 -22.3390
   -14.4419 -14.3396 -14.3395 -14.3356 -14.2699 -14.2679 -14.2678 -14.2080
    -6.7217  -6.7217  -6.6557  -6.5372  -6.3245  -6.1555  -6.1555  -5.8941
    -5.8821  -5.8821  -5.8390  -5.8390  -5.8070  -5.7662  -5.7586  -5.7491
    -5.7287  -5.7287  -5.7229  -5.6992  -5.6658  -5.5909  -5.5612  -5.5612
    -0.3017  -0.2284  -0.1841   0.2735   0.2735   0.3046   0.3501   0.3501
     0.3706   0.3715   0.3869   0.4491   0.4604   0.5059   0.5059   0.5403
     0.5404   0.5797   0.6532   0.6532   0.7107   0.7147   0.7148   0.7416
     6.0183   6.1546   6.1546   6.1989   6.3156   6.4414   6.4414   6.4968
     6.4968   6.5029   6.6054   6.6606   6.6606   6.6841   6.6960   7.5246
     7.5962   7.5962   7.6036   7.6036   7.6310   7.6606   7.6685   7.6685
     7.7142   7.7349   7.7597   7.7597   7.7986   7.8810   7.9139   7.9532
     8.0006   8.0006   8.0145   8.0250   8.1102   8.2042   8.2042   8.5563
     8.5563   8.6801   8.7076   8.7076   8.8263   8.8660   8.9141   8.9944
     8.9957   8.9957   9.2060   9.2217   9.2372   9.2372   9.3552   9.4168
     9.4477   9.4477   9.5077   9.5077   9.5781   9.5781   9.5828   9.6176
    10.0020  10.0273  10.1390  10.1390  10.1422  10.1992  10.2568  10.2589
    12.4830  12.6045  12.6267  12.6401  12.7091  12.7091  13.8570  13.8570
    13.8820  13.8953  13.8953  13.9189  13.9189  13.9423  13.9812  14.0051
    14.0374  14.0374  14.2870  14.3298  14.3298  14.5047  14.5403  14.5460
    14.6967  14.6967  14.7109  14.7839  14.7916  15.1277  15.5136  15.5136
    15.6178  15.7500  16.3219  16.3219  16.6445  17.0650  17.2368  17.3987

          k = 0.1667 0.1667 0.1649 ( 27270 PWs)   bands (ev):

   -46.1121 -46.1114 -46.1112 -46.1112 -46.1105 -46.1105 -46.1103 -46.1096
   -22.4438 -22.4408 -22.4408 -22.4385 -22.4022 -22.4003 -22.4003 -22.3985
   -22.3893 -22.3893 -22.3867 -22.3867 -22.3865 -22.3863 -22.3845 -22.3844
   -22.3427 -22.3425 -22.3410 -22.3409 -22.3407 -22.3407 -22.3391 -22.3391
   -14.4350 -14.3429 -14.3349 -14.3348 -14.2728 -14.2727 -14.2658 -14.2122
    -6.6897  -6.6897  -6.6370  -6.5298  -6.2918  -6.2059  -6.2059  -5.8992
    -5.8688  -5.8688  -5.8357  -5.8357  -5.8125  -5.8043  -5.7689  -5.7391
    -5.7259  -5.7169  -5.7168  -5.7161  -5.6561  -5.6021  -5.5740  -5.5740
    -0.2629  -0.2311  -0.0921   0.2617   0.2899   0.2899   0.3120   0.3573
     0.3574   0.3760   0.3766   0.4543   0.4659   0.4660   0.4933   0.5526
     0.5563   0.5563   0.6567   0.6583   0.6584   0.7025   0.7025   0.7371
     6.0732   6.2010   6.2184   6.2184   6.4193   6.4836   6.4836   6.4990
     6.4990   6.5954   6.6680   6.6847   6.6950   6.7087   6.7087   7.5428
     7.5558   7.5558   7.6064   7.6064   7.6508   7.6508   7.6614   7.6823
     7.6835   7.7390   7.7951   7.8036   7.8036   7.8335   7.8335   7.8806
     7.9093   7.9282   7.9677   7.9977   8.1384   8.1433   8.1433   8.4973
     8.5830   8.5830   8.7616   8.7846   8.8999   8.9337   8.9337   8.9660
     8.9660   8.9924   9.2249   9.2249   9.2402   9.2644   9.3579   9.3579
     9.3967   9.4626   9.4956   9.4956   9.5118   9.5118   9.5467   9.6066
     9.9488   9.9680  10.0683  10.1040  10.1040  10.1135  10.2598  10.2734
    12.4975  12.6176  12.7051  12.7301  12.8079  12.8079  13.8623  13.8623
    13.8918  13.9049  13.9049  13.9103  13.9103  13.9166  13.9246  13.9573
    13.9573  13.9768  14.2796  14.2796  14.3013  14.4789  14.4899  14.5049
    14.7844  14.7902  14.8420  14.8420  14.8961  15.3392  15.5064  15.5064
    15.7360  15.8751  16.3862  16.3862  16.5489  17.0719  17.3433  17.3685

          k = 0.1667 0.1667 0.3297 ( 27254 PWs)   bands (ev):

   -46.1120 -46.1115 -46.1111 -46.1111 -46.1106 -46.1106 -46.1102 -46.1097
   -22.4351 -22.4323 -22.4323 -22.4301 -22.4111 -22.4089 -22.4089 -22.4070
   -22.3888 -22.3888 -22.3872 -22.3872 -22.3861 -22.3859 -22.3849 -22.3848
   -22.3423 -22.3421 -22.3413 -22.3412 -22.3404 -22.3404 -22.3395 -22.3395
   -14.4158 -14.3627 -14.3219 -14.3219 -14.2861 -14.2860 -14.2546 -14.2236
    -6.5998  -6.5998  -6.5903  -6.5224  -6.3261  -6.3261  -6.2005  -5.9298
    -5.8982  -5.8442  -5.8442  -5.8292  -5.8292  -5.7969  -5.7922  -5.7765
    -5.7114  -5.6978  -5.6890  -5.6890  -5.6573  -5.6323  -5.6079  -5.6078
    -0.1590  -0.1558   0.0865   0.1466   0.1625   0.3228   0.3228   0.3862
     0.3928   0.3952   0.3952   0.4082   0.4082   0.4377   0.4917   0.5080
     0.5360   0.5361   0.5737   0.6688   0.6688   0.6845   0.6845   0.7108
     6.1613   6.2043   6.3308   6.3308   6.4502   6.4502   6.6807   6.6807
     6.6864   6.6925   6.7060   6.8414   6.8936   6.8936   6.9087   7.3112
     7.3112   7.4893   7.5085   7.5354   7.5354   7.6129   7.6129   7.6152
     7.6476   7.6476   7.6844   7.7447   7.7967   7.8643   7.8918   7.9065
     7.9190   7.9190   7.9442   8.0859   8.0899   8.1341   8.1341   8.2205
     8.5580   8.5891   8.6500   8.6500   8.8226   8.8226   8.9941   9.0160
     9.1106   9.1106   9.2205   9.2207   9.2207   9.3109   9.3109   9.3333
     9.4001   9.4402   9.4402   9.4830   9.4830   9.5201   9.5726   9.6741
     9.8233   9.8721   9.8809   9.9306   9.9883   9.9883  10.2630  10.2759
    12.5253  12.5930  12.9771  12.9779  13.0652  13.0652  13.6479  13.6728
    13.7168  13.7168  13.8752  13.8752  13.9080  13.9080  13.9444  13.9444
    14.0380  14.0733  14.1590  14.1590  14.3406  14.3580  14.3645  14.4527
    14.7854  14.7880  15.1396  15.1396  15.3403  15.4707  15.4707  15.8670
    16.0581  16.2340  16.2716  16.6104  16.6104  16.9304  16.9740  17.3870

          k = 0.1667 0.1667-0.4946 ( 27244 PWs)   bands (ev):

   -46.1118 -46.1118 -46.1108 -46.1108 -46.1108 -46.1108 -46.1099 -46.1099
   -22.4231 -22.4231 -22.4206 -22.4206 -22.4206 -22.4206 -22.4186 -22.4186
   -22.3880 -22.3880 -22.3880 -22.3880 -22.3855 -22.3855 -22.3853 -22.3853
   -22.3418 -22.3418 -22.3417 -22.3417 -22.3399 -22.3399 -22.3399 -22.3399
   -14.3895 -14.3894 -14.3041 -14.3041 -14.3040 -14.3040 -14.2392 -14.2391
    -6.5426  -6.5425  -6.4696  -6.4696  -6.4695  -6.4695  -6.0702  -6.0701
    -5.8620  -5.8619  -5.8292  -5.8292  -5.8291  -5.8291  -5.7868  -5.7866
    -5.6749  -5.6748  -5.6725  -5.6724  -5.6508  -5.6508  -5.6507  -5.6507
    -0.0146  -0.0146  -0.0067  -0.0066   0.3018   0.3019   0.3589   0.3589
     0.3590   0.3590   0.4152   0.4152   0.4288   0.4288   0.4682   0.4682
     0.4683   0.4683   0.6532   0.6533   0.6769   0.6769   0.6770   0.6770
     6.1990   6.1991   6.4033   6.4033   6.4034   6.4034   6.6892   6.6893
     6.9650   6.9650   6.9651   6.9651   7.1044   7.1045   7.1471   7.1471
     7.2251   7.2251   7.2253   7.2253   7.3757   7.3759   7.6230   7.6230
     7.6231   7.6231   7.7365   7.7366   7.8527   7.8528   7.8542   7.8542
     7.9116   7.9116   8.0540   8.0540   8.0541   8.0541   8.3462   8.3463
     8.3586   8.3587   8.7231   8.7231   8.7231   8.7232   9.1191   9.1192
     9.1206   9.1206   9.1479   9.1479   9.1479   9.1479   9.3236   9.3236
     9.3236   9.3236   9.6213   9.6213   9.7015   9.7016   9.7121   9.7121
     9.7727   9.7728   9.7740   9.7741   9.7741   9.7741  10.2692  10.2694
    12.5593  12.5594  13.3135  13.3136  13.3325  13.3326  13.3973  13.3973
    13.3974  13.3974  13.8915  13.8915  13.8916  13.8916  14.0314  14.0315
    14.0315  14.0315  14.1941  14.1942  14.2123  14.2123  14.3954  14.3955
    14.7865  14.7865  15.3658  15.3658  15.3658  15.3658  15.8449  15.8451
    16.4808  16.4810  16.5049  16.5051  16.7728  16.7729  17.0102  17.0102

          k = 0.1667 0.3333 0.0000 ( 27257 PWs)   bands (ev):

   -46.1120 -46.1115 -46.1111 -46.1111 -46.1106 -46.1106 -46.1102 -46.1097
   -22.4464 -22.4446 -22.4435 -22.4421 -22.3986 -22.3975 -22.3968 -22.3957
   -22.3889 -22.3872 -22.3860 -22.3847 -22.3797 -22.3770 -22.3769 -22.3747
   -22.3527 -22.3505 -22.3505 -22.3486 -22.3423 -22.3412 -22.3404 -22.3394
   -14.4207 -14.3616 -14.3250 -14.3215 -14.2848 -14.2824 -14.2553 -14.2208
    -6.6655  -6.6395  -6.5619  -6.5530  -6.4092  -6.2780  -6.0590  -5.8758
    -5.8563  -5.8461  -5.8437  -5.8160  -5.7923  -5.7913  -5.7718  -5.7610
    -5.7508  -5.7360  -5.7224  -5.6992  -5.6982  -5.6414  -5.6173  -5.6006
    -0.2073  -0.1052  -0.0131   0.1331   0.2243   0.2948   0.3270   0.3822
     0.3941   0.4170   0.4270   0.4471   0.4533   0.4615   0.4669   0.5046
     0.5247   0.5720   0.6154   0.6505   0.6509   0.6538   0.6724   0.6736
     6.1010   6.1531   6.2323   6.2953   6.3173   6.4561   6.5780   6.5969
     6.6271   6.7231   6.7849   6.7945   6.8749   6.9263   6.9307   7.2330
     7.4302   7.4918   7.5649   7.5873   7.5903   7.6321   7.6333   7.6619
     7.6653   7.6685   7.6834   7.7674   7.7969   7.8101   7.8447   7.8944
     7.9287   7.9523   7.9779   8.0458   8.1456   8.1757   8.1993   8.3069
     8.6110   8.6645   8.7037   8.7125   8.7346   8.7908   8.9522   8.9637
     8.9928   9.1207   9.1323   9.1546   9.2845   9.2926   9.3039   9.3933
     9.4186   9.4309   9.4424   9.4579   9.5754   9.5955   9.6272   9.6648
     9.8739   9.9226   9.9829  10.0032  10.0549  10.1392  10.1471  10.1794
    12.6100  12.6841  12.8177  12.8614  12.9152  12.9275  13.5858  13.6092
    13.6177  13.6642  13.8867  13.9160  13.9161  13.9893  14.0185  14.0286
    14.0287  14.1120  14.1508  14.2052  14.3624  14.3747  14.4087  14.4978
    14.7107  14.7244  14.9412  15.1016  15.1371  15.2440  15.4695  15.9997
    16.0502  16.0985  16.0997  16.6286  16.8685  17.0164  17.0546  17.2941

          k = 0.1667 0.3333 0.1649 ( 27237 PWs)   bands (ev):

   -46.1119 -46.1114 -46.1112 -46.1110 -46.1107 -46.1105 -46.1103 -46.1097
   -22.4432 -22.4415 -22.4404 -22.4390 -22.4018 -22.4007 -22.3999 -22.3989
   -22.3887 -22.3870 -22.3862 -22.3849 -22.3795 -22.3770 -22.3768 -22.3749
   -22.3525 -22.3506 -22.3504 -22.3487 -22.3422 -22.3411 -22.3405 -22.3395
   -14.4142 -14.3564 -14.3283 -14.3204 -14.2878 -14.2806 -14.2601 -14.2251
    -6.6373  -6.6073  -6.5484  -6.5390  -6.3765  -6.2963  -6.1146  -5.8825
    -5.8778  -5.8545  -5.8450  -5.8382  -5.8117  -5.7895  -5.7679  -5.7528
    -5.7464  -5.7269  -5.7157  -5.6951  -5.6925  -5.6515  -5.6249  -5.6087
    -0.1752  -0.1200   0.0803   0.1595   0.2080   0.2833   0.3001   0.3796
     0.3798   0.3908   0.3955   0.3973   0.4243   0.4459   0.4868   0.5059
     0.5327   0.5518   0.5733   0.6621   0.6651   0.6805   0.6922   0.6999
     6.1662   6.2182   6.3142   6.3165   6.3942   6.4452   6.6283   6.6357
     6.6707   6.7647   6.7737   6.8267   6.8808   6.9246   6.9671   7.2630
     7.3652   7.4668   7.5328   7.5627   7.6121   7.6175   7.6254   7.6777
     7.6797   7.6824   7.6968   7.7353   7.8281   7.8367   7.8483   7.8738
     7.8961   7.9331   7.9345   8.0467   8.0704   8.0726   8.1722   8.2361
     8.5304   8.5553   8.6331   8.6983   8.7096   8.8938   8.9312   9.0382
     9.0527   9.1625   9.1668   9.2061   9.2188   9.2517   9.3442   9.3995
     9.4140   9.4193   9.4622   9.4959   9.5006   9.5720   9.5974   9.6423
     9.8291   9.8684   9.9127   9.9864  10.0334  10.1054  10.1346  10.1532
    12.7002  12.7836  12.8417  12.9192  12.9205  13.0016  13.5941  13.6250
    13.6574  13.6701  13.9006  13.9010  13.9281  13.9324  13.9446  13.9474
    14.0092  14.0428  14.1418  14.1649  14.3245  14.3360  14.3590  14.4479
    14.8544  14.8654  15.1023  15.1202  15.2923  15.3467  15.4627  16.0484
    16.0988  16.1596  16.2198  16.6565  16.7705  17.0799  17.0914  17.3997

          k = 0.1667 0.3333 0.3297 ( 27259 PWs)   bands (ev):

   -46.1118 -46.1113 -46.1113 -46.1109 -46.1108 -46.1104 -46.1104 -46.1099
   -22.4345 -22.4329 -22.4318 -22.4306 -22.4106 -22.4094 -22.4085 -22.4074
   -22.3882 -22.3867 -22.3866 -22.3853 -22.3790 -22.3776 -22.3764 -22.3753
   -22.3521 -22.3510 -22.3501 -22.3491 -22.3418 -22.3409 -22.3408 -22.3398
   -14.3963 -14.3467 -14.3421 -14.3078 -14.3025 -14.2730 -14.2690 -14.2370
    -6.5602  -6.5184  -6.5167  -6.5105  -6.3575  -6.2850  -6.2397  -6.0078
    -5.8915  -5.8631  -5.8458  -5.8229  -5.8114  -5.8025  -5.7825  -5.7579
    -5.7315  -5.7060  -5.7057  -5.6863  -5.6775  -5.6746  -5.6458  -5.6300
    -0.1030  -0.0571   0.1615   0.1960   0.2329   0.2361   0.2529   0.3044
     0.3152   0.3616   0.3807   0.3914   0.4022   0.4277   0.4480   0.4663
     0.4778   0.5869   0.5920   0.6502   0.6945   0.6973   0.7159   0.7256
     6.2704   6.3158   6.3260   6.4188   6.4903   6.6620   6.7100   6.7907
     6.7924   6.8288   6.8558   6.9516   6.9521   6.9578   7.1053   7.1953
     7.3391   7.3575   7.3734   7.3772   7.5338   7.6074   7.6078   7.6410
     7.6543   7.6864   7.6969   7.7159   7.8277   7.8590   7.8637   7.8804
     7.8975   7.8995   7.9135   7.9343   7.9593   8.1465   8.1887   8.2009
     8.2385   8.3160   8.4727   8.5152   8.7036   8.7753   8.8891   9.0551
     9.1631   9.2170   9.2307   9.3064   9.3067   9.3152   9.3824   9.3882
     9.4019   9.4675   9.4806   9.4857   9.5442   9.6056   9.6070   9.6146
     9.7150   9.7433   9.7996   9.9068   9.9231   9.9724  10.1250  10.1259
    12.8191  12.8960  13.0139  13.0420  13.1044  13.2271  13.6125  13.6239
    13.6639  13.6871  13.6983  13.7300  13.8088  13.8115  13.9322  13.9751
    13.9856  14.0017  14.0360  14.1912  14.2030  14.2036  14.2985  14.3322
    15.0446  15.1014  15.1406  15.4319  15.5238  15.5724  15.8730  16.0147
    16.3711  16.3807  16.4862  16.5678  16.7700  16.9767  17.2151  17.4415

          k = 0.1667 0.3333-0.4946 ( 27264 PWs)   bands (ev):

   -46.1116 -46.1116 -46.1110 -46.1110 -46.1107 -46.1107 -46.1101 -46.1101
   -22.4226 -22.4226 -22.4212 -22.4211 -22.4202 -22.4202 -22.4190 -22.4190
   -22.3875 -22.3874 -22.3860 -22.3859 -22.3783 -22.3783 -22.3759 -22.3758
   -22.3516 -22.3516 -22.3496 -22.3496 -22.3414 -22.3413 -22.3403 -22.3403
   -14.3717 -14.3716 -14.3224 -14.3224 -14.2905 -14.2905 -14.2531 -14.2530
    -6.4988  -6.4987  -6.4559  -6.4558  -6.3853  -6.3851  -6.1531  -6.1530
    -5.8748  -5.8747  -5.8546  -5.8545  -5.7988  -5.7987  -5.7709  -5.7708
    -5.7098  -5.7097  -5.6947  -5.6946  -5.6704  -5.6703  -5.6563  -5.6561
     0.0112   0.0112   0.0787   0.0788   0.2290   0.2291   0.3399   0.3400
     0.3437   0.3437   0.3658   0.3659   0.4274   0.4275   0.4380   0.4380
     0.4447   0.4447   0.6654   0.6655   0.7075   0.7076   0.7163   0.7163
     6.3100   6.3101   6.3839   6.3840   6.6258   6.6259   6.8705   6.8706
     6.9926   6.9926   7.0160   7.0161   7.0642   7.0643   7.1111   7.1111
     7.2544   7.2546   7.3773   7.3774   7.3805   7.3806   7.5104   7.5105
     7.5919   7.5920   7.7475   7.7476   7.7914   7.7914   7.8761   7.8761
     7.9439   7.9439   7.9673   7.9674   8.0827   8.0828   8.0854   8.0854
     8.2879   8.2880   8.3413   8.3413   8.6920   8.6920   8.9146   8.9147
     9.2120   9.2120   9.2954   9.2954   9.3107   9.3107   9.4020   9.4020
     9.5253   9.5253   9.5457   9.5458   9.5945   9.5945   9.6940   9.6940
     9.7211   9.7211   9.7369   9.7369   9.7890   9.7890  10.1195  10.1197
    12.8625  12.8626  13.3426  13.3427  13.3724  13.3725  13.3879  13.3879
    13.5220  13.5220  13.6382  13.6383  13.8129  13.8129  13.9677  13.9678
    13.9966  13.9967  14.0712  14.0712  14.1663  14.1664  14.2587  14.2588
    15.0911  15.0911  15.3432  15.3433  15.8677  15.8678  16.0525  16.0526
    16.4967  16.4969  16.7598  16.7599  16.7801  16.7803  17.0462  17.0463

          k = 0.1667-0.5000 0.0000 ( 27226 PWs)   bands (ev):

   -46.1118 -46.1118 -46.1108 -46.1108 -46.1108 -46.1108 -46.1099 -46.1099
   -22.4455 -22.4455 -22.4428 -22.4428 -22.3981 -22.3981 -22.3962 -22.3962
   -22.3880 -22.3880 -22.3854 -22.3854 -22.3662 -22.3662 -22.3638 -22.3638
   -22.3637 -22.3637 -22.3617 -22.3617 -22.3418 -22.3418 -22.3399 -22.3399
   -14.3914 -14.3914 -14.3050 -14.3050 -14.3021 -14.3020 -14.2381 -14.2381
    -6.5994  -6.5994  -6.5252  -6.5252  -6.4263  -6.4263  -5.9231  -5.9231
    -5.8576  -5.8576  -5.8202  -5.8202  -5.7907  -5.7907  -5.7864  -5.7864
    -5.7328  -5.7328  -5.7307  -5.7307  -5.6582  -5.6582  -5.6522  -5.6522
    -0.0466  -0.0466   0.0575   0.0575   0.2188   0.2188   0.3355   0.3355
     0.3792   0.3792   0.4193   0.4193   0.4596   0.4596   0.5369   0.5369
     0.5509   0.5509   0.6051   0.6051   0.6259   0.6259   0.6397   0.6397
     6.1418   6.1418   6.2704   6.2704   6.4006   6.4006   6.6226   6.6226
     6.8631   6.8631   7.0453   7.0453   7.1343   7.1344   7.1844   7.1845
     7.2271   7.2272   7.2935   7.2935   7.3645   7.3646   7.6496   7.6496
     7.6623   7.6623   7.8081   7.8081   7.8534   7.8534   7.8889   7.8889
     7.9347   7.9347   7.9553   7.9553   8.0291   8.0291   8.4113   8.4113
     8.4987   8.4988   8.6699   8.6700   8.8992   8.8992   8.9676   8.9676
     9.0361   9.0361   9.0718   9.0718   9.1058   9.1058   9.3247   9.3247
     9.3628   9.3628   9.6550   9.6550   9.7554   9.7554   9.7688   9.7688
     9.7889   9.7889   9.8211   9.8212   9.9146   9.9146  10.1608  10.1608
    12.6500  12.6500  13.2046  13.2046  13.2310  13.2310  13.2539  13.2539
    13.3066  13.3067  13.9044  13.9044  14.0067  14.0067  14.0144  14.0144
    14.0808  14.0808  14.1881  14.1881  14.2482  14.2482  14.4361  14.4361
    14.7202  14.7202  15.0915  15.0916  15.3471  15.3472  15.7259  15.7259
    16.5155  16.5156  16.6387  16.6387  16.6504  16.6504  17.0941  17.0941

          k = 0.1667-0.5000 0.1649 ( 27244 PWs)   bands (ev):

   -46.1117 -46.1117 -46.1109 -46.1109 -46.1108 -46.1108 -46.1100 -46.1100
   -22.4423 -22.4423 -22.4397 -22.4397 -22.4012 -22.4012 -22.3994 -22.3994
   -22.3879 -22.3879 -22.3855 -22.3855 -22.3660 -22.3660 -22.3639 -22.3639
   -22.3636 -22.3636 -22.3618 -22.3618 -22.3416 -22.3416 -22.3400 -22.3400
   -14.3855 -14.3855 -14.3082 -14.3081 -14.3006 -14.3006 -14.2427 -14.2427
    -6.5775  -6.5775  -6.4927  -6.4927  -6.4239  -6.4239  -5.9910  -5.9910
    -5.8607  -5.8607  -5.8138  -5.8138  -5.7908  -5.7908  -5.7805  -5.7804
    -5.7373  -5.7372  -5.7284  -5.7284  -5.6588  -5.6588  -5.6544  -5.6544
    -0.0190  -0.0190   0.0369   0.0369   0.2962   0.2962   0.3306   0.3306
     0.3350   0.3350   0.4150   0.4150   0.4260   0.4260   0.4639   0.4640
     0.5014   0.5014   0.6464   0.6464   0.6685   0.6685   0.6752   0.6752
     6.2088   6.2088   6.3627   6.3627   6.3939   6.3939   6.6630   6.6630
     6.9069   6.9069   7.0407   7.0407   7.1179   7.1179   7.1495   7.1496
     7.2399   7.2400   7.3246   7.3246   7.3738   7.3738   7.6677   7.6677
     7.6890   7.6890   7.7409   7.7409   7.8464   7.8464   7.8657   7.8657
     7.9555   7.9555   7.9596   7.9596   7.9777   7.9777   8.3144   8.3144
     8.4175   8.4175   8.5871   8.5871   8.8442   8.8442   8.9725   8.9725
     9.1218   9.1218   9.1441   9.1441   9.1465   9.1465   9.3062   9.3062
     9.3913   9.3913   9.6305   9.6305   9.6959   9.6959   9.7337   9.7337
     9.7675   9.7675   9.8372   9.8372   9.9026   9.9026  10.1147  10.1147
    12.7494  12.7494  13.2193  13.2193  13.2594  13.2594  13.2992  13.2992
    13.3223  13.3224  13.9281  13.9281  13.9286  13.9286  14.0033  14.0033
    14.0197  14.0197  14.1613  14.1613  14.1907  14.1907  14.3859  14.3859
    14.8631  14.8631  15.2938  15.2938  15.3438  15.3439  15.7807  15.7807
    16.5900  16.5901  16.6609  16.6609  16.7559  16.7559  17.0975  17.0975

          k = 0.1667-0.5000 0.3297 ( 27258 PWs)   bands (ev):

   -46.1115 -46.1115 -46.1111 -46.1111 -46.1106 -46.1106 -46.1102 -46.1102
   -22.4337 -22.4337 -22.4312 -22.4312 -22.4100 -22.4100 -22.4080 -22.4080
   -22.3874 -22.3874 -22.3860 -22.3860 -22.3656 -22.3656 -22.3643 -22.3643
   -22.3633 -22.3633 -22.3622 -22.3622 -22.3413 -22.3413 -22.3404 -22.3404
   -14.3694 -14.3694 -14.3248 -14.3247 -14.2885 -14.2885 -14.2551 -14.2550
    -6.5221  -6.5221  -6.4283  -6.4283  -6.4014  -6.4014  -6.1220  -6.1220
    -5.8707  -5.8707  -5.8550  -5.8550  -5.7663  -5.7663  -5.7625  -5.7625
    -5.7425  -5.7425  -5.7313  -5.7313  -5.6619  -5.6619  -5.6597  -5.6597
     0.0247   0.0247   0.0840   0.0841   0.2129   0.2129   0.3339   0.3339
     0.3384   0.3385   0.3674   0.3674   0.4244   0.4244   0.4394   0.4394
     0.4569   0.4569   0.6605   0.6605   0.7036   0.7036   0.7186   0.7186
     6.3157   6.3157   6.3791   6.3791   6.5984   6.5984   6.8409   6.8409
     7.0299   7.0300   7.0363   7.0363   7.0445   7.0446   7.1052   7.1052
     7.2731   7.2732   7.3767   7.3767   7.4305   7.4306   7.5156   7.5156
     7.6007   7.6008   7.7817   7.7817   7.7837   7.7837   7.8922   7.8922
     7.9099   7.9099   7.9843   7.9843   8.0299   8.0299   8.0694   8.0695
     8.3084   8.3084   8.3252   8.3252   8.7547   8.7547   8.8301   8.8302
     9.2312   9.2312   9.2922   9.2922   9.2949   9.2949   9.4158   9.4158
     9.4346   9.4346   9.5444   9.5445   9.5609   9.5610   9.7202   9.7202
     9.7852   9.7852   9.8242   9.8242   9.8776   9.8776   9.9801   9.9801
    13.0029  13.0029  13.2514  13.2514  13.2770  13.2770  13.3684  13.3685
    13.5028  13.5028  13.6953  13.6953  13.8036  13.8036  13.9860  13.9860
    13.9980  13.9980  14.0567  14.0567  14.1433  14.1433  14.2634  14.2634
    15.1246  15.1246  15.3270  15.3270  15.7910  15.7910  16.0039  16.0039
    16.6202  16.6202  16.8001  16.8002  16.8462  16.8462  17.1149  17.1149

          k = 0.1667-0.5000-0.4946 ( 27272 PWs)   bands (ev):

   -46.1113 -46.1113 -46.1113 -46.1113 -46.1104 -46.1104 -46.1104 -46.1104
   -22.4219 -22.4219 -22.4219 -22.4219 -22.4196 -22.4196 -22.4196 -22.4196
   -22.3867 -22.3867 -22.3867 -22.3867 -22.3650 -22.3650 -22.3649 -22.3649
   -22.3628 -22.3628 -22.3627 -22.3627 -22.3408 -22.3408 -22.3408 -22.3408
   -14.3472 -14.3472 -14.3472 -14.3471 -14.2719 -14.2719 -14.2718 -14.2718
    -6.4619  -6.4619  -6.4618  -6.4618  -6.2691  -6.2691  -6.2690  -6.2690
    -5.8762  -5.8762  -5.8761  -5.8761  -5.7556  -5.7556  -5.7555  -5.7555
    -5.7390  -5.7390  -5.7389  -5.7389  -5.6638  -5.6638  -5.6636  -5.6636
     0.0955   0.0955   0.0956   0.0956   0.2047   0.2047   0.2047   0.2047
     0.3397   0.3397   0.3398   0.3398   0.4332   0.4332   0.4332   0.4332
     0.5754   0.5755   0.5755   0.5755   0.7309   0.7309   0.7309   0.7309
     6.3605   6.3605   6.3606   6.3607   6.8601   6.8601   6.8602   6.8602
     7.0088   7.0088   7.0088   7.0088   7.2480   7.2480   7.2481   7.2481
     7.2481   7.2481   7.2481   7.2481   7.3907   7.3907   7.3908   7.3908
     7.6207   7.6207   7.6207   7.6207   7.8923   7.8923   7.8923   7.8924
     7.8924   7.8924   7.8924   7.8924   8.0849   8.0849   8.0849   8.0849
     8.1724   8.1724   8.1724   8.1724   8.7275   8.7275   8.7276   8.7276
     9.3230   9.3230   9.3231   9.3231   9.4121   9.4121   9.4121   9.4121
     9.4597   9.4597   9.4598   9.4598   9.6932   9.6932   9.6932   9.6932
     9.7705   9.7705   9.7705   9.7705   9.8702   9.8703   9.8704   9.8704
    13.2292  13.2292  13.2292  13.2293  13.3911  13.3911  13.3911  13.3911
    13.5636  13.5636  13.5636  13.5636  13.7432  13.7432  13.7433  13.7433
    14.0866  14.0866  14.0866  14.0867  14.1306  14.1306  14.1307  14.1307
    15.2733  15.2733  15.2733  15.2733  16.3301  16.3301  16.3302  16.3302
    16.4197  16.4197  16.4198  16.4198  17.1878  17.1878  17.1878  17.1879

          k = 0.3333 0.3333 0.0000 ( 27246 PWs)   bands (ev):

   -46.1118 -46.1113 -46.1113 -46.1109 -46.1108 -46.1104 -46.1104 -46.1099
   -22.4457 -22.4441 -22.4441 -22.4426 -22.3982 -22.3971 -22.3971 -22.3961
   -22.3791 -22.3791 -22.3778 -22.3772 -22.3764 -22.3764 -22.3753 -22.3750
   -22.3525 -22.3519 -22.3510 -22.3510 -22.3502 -22.3499 -22.3490 -22.3490
   -14.4008 -14.3456 -14.3456 -14.3077 -14.3013 -14.2695 -14.2695 -14.2339
    -6.6000  -6.6000  -6.5459  -6.4676  -6.4478  -6.1826  -6.1825  -5.9007
    -5.8493  -5.8305  -5.8305  -5.8215  -5.8215  -5.7961  -5.7959  -5.7624
    -5.7609  -5.7309  -5.7222  -5.6959  -5.6959  -5.6751  -5.6751  -5.6297
    -0.1554   0.0041   0.1413   0.1414   0.1616   0.2830   0.3094   0.3095
     0.3193   0.3581   0.4018   0.4019   0.4478   0.5295   0.5361   0.5362
     0.5376   0.5376   0.5561   0.5931   0.6366   0.6397   0.6607   0.6607
     6.1843   6.2337   6.2337   6.2855   6.4896   6.7122   6.7122   6.7248
     6.7248   6.8081   6.9638   6.9697   6.9762   6.9762   6.9829   7.0884
     7.3346   7.4008   7.4895   7.4895   7.5495   7.5540   7.6077   7.6077
     7.7321   7.7537   7.7537   7.7661   7.7973   7.7974   7.8458   7.8458
     7.8968   7.9280   7.9485   7.9693   7.9913   8.2616   8.2616   8.3115
     8.3115   8.3602   8.5934   8.6179   8.6179   8.6275   8.7807   8.9165
     9.0897   9.0897   9.1754   9.2188   9.3057   9.3457   9.4001   9.4156
     9.4759   9.4759   9.5139   9.5139   9.5295   9.5295   9.7095   9.7095
     9.8155   9.8815   9.8837   9.9276   9.9990   9.9990  10.0594  10.0711
    12.7638  12.8908  12.8908  12.9406  13.0298  13.1659  13.5371  13.6092
    13.6093  13.6618  13.6618  13.7038  13.7976  13.7976  13.9811  14.0106
    14.0484  14.0900  14.0900  14.1978  14.2491  14.2491  14.3566  14.3746
    14.9040  14.9550  14.9550  15.1417  15.5098  15.5517  16.0103  16.0103
    16.3853  16.3890  16.3926  16.3926  16.9948  17.0920  17.2362  17.2702

          k = 0.3333 0.3333 0.1649 ( 27255 PWs)   bands (ev):

   -46.1118 -46.1112 -46.1112 -46.1110 -46.1107 -46.1105 -46.1105 -46.1099
   -22.4426 -22.4410 -22.4410 -22.4396 -22.4014 -22.4003 -22.4003 -22.3993
   -22.3789 -22.3789 -22.3777 -22.3771 -22.3766 -22.3766 -22.3755 -22.3752
   -22.3524 -22.3518 -22.3509 -22.3509 -22.3504 -22.3501 -22.3492 -22.3491
   -14.3947 -14.3406 -14.3406 -14.3141 -14.2968 -14.2747 -14.2747 -14.2385
    -6.5709  -6.5709  -6.5274  -6.4589  -6.4162  -6.2046  -6.2046  -5.9534
    -5.8585  -5.8368  -5.8368  -5.8195  -5.8195  -5.7916  -5.7829  -5.7765
    -5.7539  -5.7353  -5.7234  -5.6951  -5.6951  -5.6815  -5.6815  -5.6391
    -0.1244  -0.0187   0.1607   0.1607   0.2476   0.2806   0.2806   0.2865
     0.2884   0.3534   0.3784   0.3785   0.4024   0.4130   0.4660   0.4660
     0.4828   0.5884   0.5884   0.6513   0.6857   0.7026   0.7141   0.7141
     6.2664   6.3152   6.3152   6.3789   6.4817   6.7042   6.7042   6.7317
     6.7317   6.8169   6.9634   6.9684   7.0079   7.0130   7.0130   7.1097
     7.3383   7.3577   7.4296   7.4296   7.5663   7.6229   7.6324   7.6324
     7.6805   7.6805   7.7405   7.7548   7.8605   7.8605   7.8632   7.8668
     7.8668   7.8965   7.9217   7.9564   7.9874   8.1283   8.1283   8.3042
     8.3042   8.3441   8.4851   8.5090   8.6263   8.6263   8.7339   8.8663
     9.1787   9.1850   9.1850   9.2983   9.3622   9.3640   9.4013   9.4013
     9.4473   9.4520   9.4649   9.4649   9.5930   9.5930   9.6819   9.6819
     9.7557   9.8507   9.8630   9.8812   9.9751   9.9751  10.0484  10.0614
    12.8482  12.9759  12.9760  12.9936  13.0478  13.1560  13.5932  13.6311
    13.6311  13.6752  13.6752  13.7372  13.7862  13.7862  13.9238  13.9656
    13.9959  14.0105  14.0105  14.1802  14.1869  14.1869  14.2963  14.3160
    15.0988  15.1358  15.1358  15.3501  15.5142  15.5490  16.0077  16.0077
    16.4149  16.4149  16.4677  16.4910  16.8923  17.1184  17.2660  17.4933

          k = 0.3333 0.3333 0.3297 ( 27256 PWs)   bands (ev):

   -46.1116 -46.1111 -46.1111 -46.1111 -46.1106 -46.1106 -46.1105 -46.1101
   -22.4339 -22.4324 -22.4324 -22.4311 -22.4102 -22.4089 -22.4089 -22.4078
   -22.3784 -22.3784 -22.3772 -22.3771 -22.3771 -22.3767 -22.3760 -22.3756
   -22.3520 -22.3514 -22.3508 -22.3505 -22.3505 -22.3504 -22.3495 -22.3495
   -14.3779 -14.3314 -14.3269 -14.3268 -14.2888 -14.2888 -14.2846 -14.2510
    -6.4908  -6.4908  -6.4843  -6.4438  -6.3278  -6.2746  -6.2746  -6.0666
    -5.8752  -5.8387  -5.8387  -5.8327  -5.8184  -5.8184  -5.7799  -5.7525
    -5.7474  -5.7305  -5.7277  -5.6971  -5.6970  -5.6945  -5.6945  -5.6642
    -0.0393  -0.0038   0.1978   0.2132   0.2132   0.2369   0.2512   0.2512
     0.3030   0.3165   0.3165   0.3405   0.3548   0.3737   0.3737   0.3989
     0.4087   0.6711   0.6781   0.6781   0.7322   0.7580   0.7580   0.7643
     6.4130   6.4700   6.4753   6.4753   6.6205   6.6504   6.6504   6.8474
     6.8474   6.9242   6.9629   6.9656   7.0789   7.1300   7.1300   7.1616
     7.2063   7.2685   7.2685   7.3963   7.6016   7.6016   7.6047   7.6654
     7.6820   7.6820   7.7011   7.7195   7.8116   7.8205   7.8205   7.8966
     7.8982   7.9091   7.9140   7.9140   8.0112   8.0112   8.0418   8.1690
     8.2578   8.2838   8.2838   8.2944   8.4631   8.4631   8.6489   8.7102
     9.3017   9.3495   9.3495   9.3603   9.3603   9.4047   9.4065   9.4798
     9.4798   9.5043   9.5326   9.5524   9.6242   9.6242   9.6410   9.6410
     9.6813   9.7414   9.7631   9.7975   9.8923   9.8923  10.0273  10.0397
    13.0146  13.1279  13.1511  13.1555  13.1988  13.1988  13.6841  13.6841
    13.6965  13.7293  13.7293  13.7353  13.7353  13.7405  13.7406  13.8172
    13.8172  13.8329  14.0324  14.0324  14.0370  14.1155  14.1487  14.1797
    15.5239  15.5412  15.5412  15.5427  15.5745  15.8755  15.9818  15.9818
    16.5145  16.5145  16.5919  16.6913  16.8027  17.0410  17.1739  17.1937

          k = 0.3333 0.3333-0.4946 ( 27302 PWs)   bands (ev):

   -46.1114 -46.1114 -46.1109 -46.1109 -46.1108 -46.1108 -46.1103 -46.1103
   -22.4221 -22.4221 -22.4207 -22.4207 -22.4207 -22.4207 -22.4195 -22.4195
   -22.3778 -22.3778 -22.3778 -22.3777 -22.3766 -22.3766 -22.3761 -22.3761
   -22.3514 -22.3514 -22.3509 -22.3509 -22.3500 -22.3500 -22.3500 -22.3500
   -14.3548 -14.3548 -14.3080 -14.3079 -14.3079 -14.3079 -14.2679 -14.2678
    -6.4483  -6.4482  -6.3812  -6.3812  -6.3811  -6.3811  -6.2019  -6.2018
    -5.8718  -5.8718  -5.8271  -5.8271  -5.8270  -5.8270  -5.7638  -5.7637
    -5.7368  -5.7367  -5.7004  -5.7004  -5.7002  -5.7002  -5.6978  -5.6977
     0.0783   0.0784   0.0855   0.0856   0.2597   0.2597   0.2598   0.2598
     0.2918   0.2918   0.2918   0.2918   0.3221   0.3222   0.3521   0.3521
     0.5671   0.5672   0.7444   0.7444   0.7444   0.7444   0.7758   0.7758
     6.4628   6.4629   6.5787   6.5787   6.5787   6.5788   6.9093   6.9093
     6.9633   6.9634   7.0664   7.0664   7.0664   7.0665   7.1121   7.1122
     7.3689   7.3689   7.3690   7.3690   7.4128   7.4129   7.4967   7.4968
     7.6631   7.6632   7.7310   7.7310   7.7311   7.7311   7.8998   7.8999
     7.9257   7.9258   7.9798   7.9798   7.9799   7.9799   8.0566   8.0566
     8.1396   8.1397   8.3063   8.3063   8.3063   8.3064   8.6130   8.6131
     9.3542   9.3542   9.3542   9.3542   9.4364   9.4365   9.5258   9.5258
     9.6048   9.6048   9.6049   9.6049   9.6316   9.6316   9.6472   9.6473
     9.6696   9.6697   9.7350   9.7350   9.7350   9.7350  10.0228  10.0230
    13.0848  13.0848  13.4100  13.4101  13.4359  13.4360  13.4891  13.4891
    13.4892  13.4892  13.7335  13.7335  13.7335  13.7335  13.8581  13.8581
    13.8582  13.8582  13.9369  13.9370  13.9783  13.9783  14.0958  14.0958
    15.5341  15.5342  15.8642  15.8642  15.8642  15.8642  16.1250  16.1252
    16.5080  16.5082  16.7926  16.7926  16.7927  16.7927  17.0245  17.2209

          k = 0.3333-0.5000 0.0000 ( 27206 PWs)   bands (ev):

   -46.1116 -46.1116 -46.1110 -46.1110 -46.1107 -46.1107 -46.1101 -46.1101
   -22.4449 -22.4449 -22.4434 -22.4434 -22.3977 -22.3977 -22.3966 -22.3966
   -22.3783 -22.3783 -22.3758 -22.3758 -22.3657 -22.3657 -22.3643 -22.3643
   -22.3633 -22.3633 -22.3621 -22.3621 -22.3516 -22.3516 -22.3496 -22.3496
   -14.3734 -14.3734 -14.3236 -14.3236 -14.2887 -14.2887 -14.2518 -14.2518
    -6.5610  -6.5610  -6.5174  -6.5174  -6.3314  -6.3314  -6.0465  -6.0465
    -5.8283  -5.8283  -5.8131  -5.8131  -5.7951  -5.7951  -5.7872  -5.7872
    -5.7573  -5.7572  -5.7118  -5.7118  -5.7089  -5.7089  -5.6607  -5.6607
    -0.0281  -0.0281   0.1543   0.1543   0.1913   0.1914   0.3459   0.3459
     0.3613   0.3613   0.3663   0.3663   0.4301   0.4301   0.4910   0.4910
     0.5730   0.5730   0.6062   0.6062   0.6221   0.6221   0.6424   0.6424
     6.2228   6.2228   6.2707   6.2707   6.6338   6.6338   6.8180   6.8180
     6.8855   6.8855   7.0790   7.0790   7.1019   7.1019   7.1951   7.1951
     7.2970   7.2971   7.3384   7.3384   7.3715   7.3715   7.5647   7.5647
     7.6066   7.6066   7.7622   7.7622   7.8799   7.8799   7.8820   7.8820
     7.9196   7.9196   8.0669   8.0669   8.0755   8.0755   8.1002   8.1002
     8.4079   8.4080   8.5079   8.5079   8.5513   8.5513   8.6762   8.6762
     9.1908   9.1908   9.1993   9.1993   9.3602   9.3602   9.3861   9.3861
     9.4404   9.4404   9.6506   9.6506   9.6757   9.6757   9.7372   9.7372
     9.7385   9.7385   9.8173   9.8173   9.9253   9.9253  10.0059  10.0059
    12.8510  12.8510  13.2251  13.2251  13.2432  13.2432  13.3340  13.3340
    13.4840  13.4840  13.6345  13.6345  13.7938  13.7939  13.9908  13.9908
    14.0557  14.0557  14.1212  14.1212  14.2118  14.2119  14.3084  14.3084
    14.9529  14.9529  15.0980  15.0980  15.8515  15.8515  16.0090  16.0090
    16.6258  16.6258  16.7927  16.7928  16.8401  16.8402  16.9716  16.9716

          k = 0.3333-0.5000 0.1649 ( 27230 PWs)   bands (ev):

   -46.1115 -46.1115 -46.1110 -46.1110 -46.1107 -46.1107 -46.1102 -46.1102
   -22.4418 -22.4418 -22.4403 -22.4403 -22.4009 -22.4009 -22.3998 -22.3998
   -22.3782 -22.3782 -22.3760 -22.3760 -22.3655 -22.3655 -22.3641 -22.3641
   -22.3634 -22.3634 -22.3623 -22.3623 -22.3515 -22.3515 -22.3497 -22.3497
   -14.3679 -14.3678 -14.3189 -14.3188 -14.2945 -14.2945 -14.2567 -14.2567
    -6.5368  -6.5368  -6.4870  -6.4870  -6.3331  -6.3331  -6.0775  -6.0775
    -5.8321  -5.8321  -5.8128  -5.8128  -5.8112  -5.8112  -5.7829  -5.7829
    -5.7585  -5.7585  -5.7146  -5.7146  -5.7123  -5.7123  -5.6664  -5.6664
    -0.0029  -0.0029   0.1247   0.1247   0.2034   0.2034   0.3176   0.3176
     0.3555   0.3555   0.3814   0.3814   0.4253   0.4253   0.4352   0.4352
     0.4439   0.4440   0.6639   0.6639   0.7038   0.7038   0.7088   0.7088
     6.3070   6.3070   6.3586   6.3586   6.6154   6.6154   6.8168   6.8168
     6.9065   6.9065   7.0365   7.0366   7.1115   7.1115   7.1742   7.1742
     7.3290   7.3291   7.3677   7.3677   7.3830   7.3830   7.5766   7.5766
     7.6072   7.6072   7.7773   7.7773   7.7881   7.7881   7.8853   7.8853
     7.9330   7.9331   8.0405   8.0405   8.0500   8.0500   8.1158   8.1158
     8.2935   8.2935   8.4716   8.4716   8.4827   8.4827   8.6434   8.6434
     9.2571   9.2571   9.2776   9.2776   9.3481   9.3482   9.3678   9.3678
     9.5035   9.5035   9.6027   9.6027   9.6357   9.6357   9.7408   9.7408
     9.7608   9.7608   9.7871   9.7871   9.9085   9.9085   9.9798   9.9798
    12.9348  12.9348  13.2790  13.2790  13.2922  13.2922  13.3493  13.3493
    13.4731  13.4731  13.6653  13.6653  13.8085  13.8085  13.9729  13.9729
    13.9754  13.9754  14.0461  14.0461  14.1411  14.1411  14.2475  14.2475
    15.1399  15.1399  15.3010  15.3010  15.8538  15.8538  16.0195  16.0195
    16.6313  16.6313  16.8400  16.8400  16.8767  16.8768  17.0337  17.1535

          k = 0.3333-0.5000 0.3297 ( 27246 PWs)   bands (ev):

   -46.1113 -46.1113 -46.1109 -46.1109 -46.1108 -46.1108 -46.1104 -46.1104
   -22.4332 -22.4332 -22.4317 -22.4317 -22.4096 -22.4096 -22.4084 -22.4084
   -22.3777 -22.3777 -22.3764 -22.3764 -22.3651 -22.3651 -22.3639 -22.3639
   -22.3637 -22.3637 -22.3627 -22.3627 -22.3511 -22.3511 -22.3501 -22.3501
   -14.3526 -14.3525 -14.3102 -14.3102 -14.3059 -14.3059 -14.2700 -14.2700
    -6.4739  -6.4739  -6.4028  -6.4028  -6.3498  -6.3497  -6.1651  -6.1651
    -5.8457  -5.8457  -5.8452  -5.8452  -5.8010  -5.8010  -5.7771  -5.7771
    -5.7543  -5.7543  -5.7237  -5.7237  -5.7165  -5.7165  -5.6827  -5.6827
     0.0646   0.0646   0.1143   0.1143   0.2360   0.2360   0.2389   0.2390
     0.2983   0.2983   0.3221   0.3221   0.3258   0.3258   0.3421   0.3421
     0.5695   0.5695   0.7395   0.7395   0.7463   0.7463   0.7729   0.7729
     6.4641   6.4641   6.5644   6.5644   6.5743   6.5744   6.8987   6.8987
     6.9197   6.9197   7.0152   7.0152   7.1282   7.1282   7.1461   7.1461
     7.3650   7.3650   7.4040   7.4040   7.4667   7.4667   7.4826   7.4826
     7.6504   7.6504   7.7310   7.7310   7.7449   7.7449   7.9001   7.9001
     7.9617   7.9617   7.9791   7.9791   7.9864   7.9864   8.0965   8.0965
     8.1262   8.1262   8.2272   8.2272   8.3904   8.3904   8.4697   8.4697
     9.3583   9.3583   9.3942   9.3942   9.4194   9.4194   9.4745   9.4745
     9.5734   9.5734   9.5782   9.5782   9.5801   9.5801   9.7232   9.7232
     9.7335   9.7335   9.7604   9.7604   9.8705   9.8705   9.9037   9.9037
    13.1517  13.1517  13.3671  13.3671  13.4190  13.4190  13.4410  13.4410
    13.4687  13.4688  13.7552  13.7552  13.7560  13.7560  13.8498  13.8498
    13.8501  13.8501  13.9156  13.9156  13.9741  13.9741  14.0954  14.0954
    15.5569  15.5569  15.8038  15.8039  15.8520  15.8520  16.0898  16.0898
    16.6115  16.6116  16.8441  16.8441  16.8497  16.8497  17.1486  17.1486

          k = 0.3333-0.5000-0.4946 ( 27236 PWs)   bands (ev):

   -46.1111 -46.1111 -46.1111 -46.1111 -46.1106 -46.1106 -46.1106 -46.1106
   -22.4214 -22.4214 -22.4214 -22.4214 -22.4201 -22.4201 -22.4201 -22.4201
   -22.3771 -22.3771 -22.3771 -22.3771 -22.3645 -22.3645 -22.3645 -22.3645
   -22.3632 -22.3632 -22.3632 -22.3632 -22.3506 -22.3506 -22.3506 -22.3506
   -14.3315 -14.3315 -14.3315 -14.3314 -14.2880 -14.2880 -14.2880 -14.2879
    -6.4001  -6.4001  -6.4000  -6.4000  -6.2853  -6.2852  -6.2851  -6.2851
    -5.8578  -5.8578  -5.8577  -5.8577  -5.7849  -5.7849  -5.7849  -5.7848
    -5.7404  -5.7404  -5.7402  -5.7402  -5.7040  -5.7040  -5.7039  -5.7039
     0.1443   0.1443   0.1443   0.1443   0.1819   0.1819   0.1819   0.1819
     0.2805   0.2805   0.2805   0.2805   0.3057   0.3057   0.3058   0.3058
     0.6858   0.6858   0.6858   0.6858   0.7894   0.7894   0.7894   0.7894
     6.5342   6.5342   6.5343   6.5343   6.7607   6.7607   6.7608   6.7608
     7.0615   7.0615   7.0616   7.0616   7.2521   7.2521   7.2522   7.2522
     7.2725   7.2725   7.2726   7.2726   7.5114   7.5114   7.5114   7.5115
     7.6019   7.6019   7.6019   7.6019   7.9055   7.9055   7.9055   7.9056
     7.9116   7.9117   7.9117   7.9117   8.0157   8.0157   8.0158   8.0158
     8.0658   8.0658   8.0658   8.0659   8.3450   8.3450   8.3451   8.3451
     9.4433   9.4433   9.4434   9.4434   9.4802   9.4802   9.4802   9.4802
     9.6150   9.6150   9.6151   9.6151   9.6662   9.6662   9.6662   9.6662
     9.7003   9.7003   9.7003   9.7003   9.8481   9.8482   9.8483   9.8483
    13.3749  13.3749  13.3750  13.3750  13.4891  13.4891  13.4891  13.4891
    13.6100  13.6100  13.6100  13.6100  13.7031  13.7031  13.7032  13.7032
    13.8784  13.8785  13.8785  13.8785  13.9300  13.9300  13.9300  13.9300
    15.8088  15.8088  15.8088  15.8088  16.3584  16.3585  16.3586  16.3586
    16.4087  16.4087  16.4088  16.4088  16.8923  16.8923  16.8923  16.8923

          k =-0.5000-0.5000 0.0000 ( 27260 PWs)   bands (ev):

   -46.1113 -46.1113 -46.1113 -46.1113 -46.1104 -46.1104 -46.1104 -46.1104
   -22.4441 -22.4441 -22.4441 -22.4441 -22.3972 -22.3972 -22.3972 -22.3972
   -22.3654 -22.3654 -22.3654 -22.3654 -22.3646 -22.3646 -22.3646 -22.3646
   -22.3629 -22.3629 -22.3629 -22.3629 -22.3625 -22.3625 -22.3625 -22.3625
   -14.3487 -14.3486 -14.3486 -14.3486 -14.2704 -14.2703 -14.2703 -14.2703
    -6.5271  -6.5271  -6.5271  -6.5271  -6.1950  -6.1950  -6.1950  -6.1950
    -5.8033  -5.8033  -5.8033  -5.8033  -5.7797  -5.7797  -5.7797  -5.7797
    -5.7771  -5.7771  -5.7771  -5.7770  -5.6812  -5.6812  -5.6812  -5.6812
     0.0561   0.0561   0.0561   0.0561   0.2895   0.2895   0.2895   0.2895
     0.3392   0.3392   0.3392   0.3393   0.5052   0.5052   0.5052   0.5052
     0.5345   0.5345   0.5345   0.5345   0.6468   0.6468   0.6468   0.6469
     6.2605   6.2605   6.2605   6.2605   6.8943   6.8943   6.8943   6.8943
     6.9116   6.9116   6.9116   6.9116   7.3040   7.3040   7.3040   7.3040
     7.3169   7.3169   7.3169   7.3169   7.3705   7.3705   7.3705   7.3705
     7.6964   7.6964   7.6964   7.6965   7.8495   7.8495   7.8495   7.8495
     7.9075   7.9075   7.9075   7.9076   8.2219   8.2219   8.2219   8.2219
     8.2426   8.2426   8.2426   8.2426   8.5217   8.5217   8.5217   8.5217
     9.2567   9.2567   9.2567   9.2568   9.4841   9.4842   9.4842   9.4842
     9.5185   9.5185   9.5185   9.5185   9.6888   9.6888   9.6888   9.6888
     9.7772   9.7772   9.7772   9.7772   9.8992   9.8992   9.8992   9.8992
    13.1237  13.1237  13.1237  13.1237  13.3432  13.3432  13.3432  13.3432
    13.5387  13.5387  13.5387  13.5387  13.7331  13.7331  13.7331  13.7331
    14.1476  14.1476  14.1476  14.1476  14.1826  14.1826  14.1826  14.1826
    15.0683  15.0683  15.0683  15.0683  16.3616  16.3616  16.3616  16.3616
    16.4429  16.4430  16.4430  16.4430  17.1350  17.1351  17.1352  17.1352

          k =-0.5000-0.5000 0.1649 ( 27232 PWs)   bands (ev):

   -46.1112 -46.1112 -46.1112 -46.1112 -46.1105 -46.1105 -46.1105 -46.1105
   -22.4410 -22.4410 -22.4410 -22.4410 -22.4003 -22.4003 -22.4003 -22.4003
   -22.3652 -22.3652 -22.3652 -22.3652 -22.3644 -22.3644 -22.3644 -22.3644
   -22.3631 -22.3631 -22.3631 -22.3631 -22.3626 -22.3626 -22.3626 -22.3626
   -14.3435 -14.3435 -14.3435 -14.3435 -14.2757 -14.2757 -14.2757 -14.2757
    -6.4998  -6.4998  -6.4998  -6.4998  -6.2060  -6.2060  -6.2060  -6.2059
    -5.8142  -5.8142  -5.8142  -5.8142  -5.7851  -5.7851  -5.7851  -5.7851
    -5.7733  -5.7733  -5.7733  -5.7733  -5.6880  -5.6880  -5.6880  -5.6880
     0.0752   0.0752   0.0752   0.0752   0.2487   0.2487   0.2487   0.2487
     0.3204   0.3204   0.3204   0.3204   0.4323   0.4323   0.4323   0.4323
     0.5739   0.5739   0.5739   0.5739   0.7260   0.7260   0.7260   0.7260
     6.3474   6.3474   6.3474   6.3474   6.8549   6.8549   6.8549   6.8549
     6.9047   6.9047   6.9047   6.9048   7.3066   7.3066   7.3066   7.3066
     7.3651   7.3651   7.3651   7.3651   7.3966   7.3966   7.3966   7.3966
     7.6103   7.6103   7.6103   7.6103   7.9027   7.9028   7.9028   7.9028
     7.9139   7.9140   7.9140   7.9140   8.1801   8.1801   8.1801   8.1801
     8.1873   8.1874   8.1874   8.1874   8.4517   8.4517   8.4517   8.4517
     9.3331   9.3331   9.3331   9.3331   9.4479   9.4479   9.4479   9.4479
     9.5338   9.5338   9.5338   9.5338   9.6867   9.6867   9.6867   9.6867
     9.7799   9.7799   9.7799   9.7799   9.8759   9.8759   9.8759   9.8759
    13.1954  13.1954  13.1954  13.1954  13.3790  13.3790  13.3790  13.3790
    13.5542  13.5542  13.5542  13.5542  13.7194  13.7194  13.7194  13.7195
    14.0725  14.0725  14.0725  14.0725  14.1110  14.1110  14.1110  14.1110
    15.2713  15.2713  15.2713  15.2713  16.3703  16.3703  16.3703  16.3703
    16.4396  16.4396  16.4396  16.4397  17.2233  17.2233  17.2234  17.2234

          k =-0.5000-0.5000 0.3297 ( 27280 PWs)   bands (ev):

   -46.1111 -46.1111 -46.1111 -46.1111 -46.1106 -46.1106 -46.1106 -46.1106
   -22.4325 -22.4325 -22.4325 -22.4325 -22.4090 -22.4090 -22.4090 -22.4090
   -22.3648 -22.3648 -22.3648 -22.3648 -22.3641 -22.3641 -22.3641 -22.3641
   -22.3635 -22.3635 -22.3635 -22.3635 -22.3630 -22.3630 -22.3630 -22.3630
   -14.3294 -14.3293 -14.3293 -14.3293 -14.2902 -14.2902 -14.2902 -14.2902
    -6.4261  -6.4261  -6.4261  -6.4261  -6.2490  -6.2490  -6.2490  -6.2490
    -5.8299  -5.8299  -5.8299  -5.8299  -5.8054  -5.8054  -5.8054  -5.8053
    -5.7557  -5.7557  -5.7557  -5.7557  -5.7065  -5.7065  -5.7065  -5.7065
     0.1273   0.1273   0.1273   0.1273   0.2098   0.2098   0.2098   0.2098
     0.2688   0.2688   0.2689   0.2689   0.3070   0.3070   0.3070   0.3070
     0.6882   0.6882   0.6882   0.6882   0.7856   0.7856   0.7856   0.7856
     6.5294   6.5294   6.5294   6.5294   6.7596   6.7596   6.7596   6.7596
     6.9844   6.9844   6.9844   6.9844   7.3155   7.3156   7.3156   7.3156
     7.3503   7.3503   7.3503   7.3503   7.4741   7.4741   7.4741   7.4741
     7.5852   7.5852   7.5852   7.5852   7.9343   7.9343   7.9343   7.9344
     7.9380   7.9380   7.9380   7.9380   8.0802   8.0802   8.0802   8.0802
     8.0812   8.0812   8.0812   8.0812   8.1903   8.1903   8.1903   8.1903
     9.4709   9.4709   9.4709   9.4709   9.4839   9.4839   9.4839   9.4839
     9.5716   9.5716   9.5716   9.5716   9.6591   9.6591   9.6591   9.6591
     9.7766   9.7766   9.7766   9.7766   9.8192   9.8192   9.8192   9.8192
    13.3816  13.3817  13.3817  13.3817  13.4879  13.4879  13.4879  13.4880
    13.5989  13.5989  13.5989  13.5989  13.6787  13.6788  13.6788  13.6788
    13.8849  13.8849  13.8849  13.8849  13.9214  13.9214  13.9214  13.9214
    15.7779  15.7779  15.7779  15.7779  16.3906  16.3906  16.3906  16.3907
    16.4294  16.4295  16.4295  16.4295  16.8983  16.8983  16.8983  16.8984

          k =-0.5000-0.5000-0.4946 ( 27256 PWs)   bands (ev):

   -46.1108 -46.1108 -46.1108 -46.1108 -46.1108 -46.1108 -46.1108 -46.1108
   -22.4208 -22.4208 -22.4208 -22.4208 -22.4207 -22.4207 -22.4207 -22.4207
   -22.3642 -22.3642 -22.3642 -22.3642 -22.3641 -22.3641 -22.3641 -22.3641
   -22.3635 -22.3635 -22.3635 -22.3635 -22.3635 -22.3635 -22.3635 -22.3635
   -14.3099 -14.3099 -14.3099 -14.3099 -14.3099 -14.3098 -14.3098 -14.3098
    -6.3306  -6.3306  -6.3306  -6.3306  -6.3305  -6.3305  -6.3305  -6.3305
    -5.8259  -5.8259  -5.8259  -5.8259  -5.8258  -5.8258  -5.8258  -5.8258
    -5.7314  -5.7314  -5.7314  -5.7314  -5.7313  -5.7312  -5.7312  -5.7312
     0.1981   0.1981   0.1982   0.1982   0.1982   0.1982   0.1982   0.1982
     0.2270   0.2270   0.2270   0.2270   0.2271   0.2271   0.2271   0.2271
     0.7706   0.7706   0.7707   0.7707   0.7707   0.7707   0.7707   0.7707
     6.6561   6.6561   6.6561   6.6561   6.6562   6.6562   6.6562   6.6562
     7.2417   7.2417   7.2417   7.2417   7.2418   7.2418   7.2418   7.2419
     7.3314   7.3314   7.3314   7.3314   7.3315   7.3315   7.3315   7.3315
     7.8479   7.8480   7.8480   7.8480   7.8480   7.8480   7.8480   7.8480
     7.9853   7.9853   7.9853   7.9853   7.9853   7.9854   7.9854   7.9854
     7.9908   7.9909   7.9909   7.9909   7.9909   7.9909   7.9909   7.9909
     9.5771   9.5771   9.5771   9.5771   9.5772   9.5772   9.5772   9.5772
     9.5824   9.5824   9.5824   9.5824   9.5824   9.5824   9.5824   9.5824
     9.7730   9.7730   9.7730   9.7730   9.7731   9.7731   9.7732   9.7732
    13.5934  13.5934  13.5934  13.5934  13.5934  13.5934  13.5934  13.5934
    13.6668  13.6668  13.6668  13.6668  13.6668  13.6668  13.6668  13.6668
    13.6967  13.6967  13.6967  13.6967  13.6967  13.6967  13.6967  13.6967
    16.3808  16.3808  16.3808  16.3808  16.3809  16.3809  16.3809  16.3809
    16.4124  16.4124  16.4124  16.4124  16.4124  16.4125  16.4125  16.4125

     highest occupied, lowest unoccupied level (ev):    10.4085   12.2307

!    total energy              =   -5964.60370814 Ry
     total all-electron energy =   -147449.057281 Ry
     estimated scf accuracy    <          5.0E-11 Ry

     The total energy is the sum of the following terms:
     one-electron contribution =    -550.43484254 Ry
     hartree contribution      =     483.85691444 Ry
     xc contribution           =    -491.50429722 Ry
     ewald contribution        =   -1653.96634398 Ry
     one-center paw contrib.   =   -3752.55513884 Ry

     convergence has been achieved in   8 iterations

     Forces acting on atoms (cartesian axes, Ry/au):

     atom    1 type  1   force =     0.00000000    0.00000000   -0.00095941
     atom    2 type  1   force =     0.00000000    0.00000000   -0.00092810
     atom    3 type  1   force =     0.00000000    0.00000000   -0.00094834
     atom    4 type  1   force =     0.00000000    0.00000000   -0.00093449
     atom    5 type  1   force =     0.00000000    0.00000000   -0.00094834
     atom    6 type  1   force =     0.00000000    0.00000000   -0.00093449
     atom    7 type  1   force =     0.00000000    0.00000000   -0.00096375
     atom    8 type  1   force =     0.00000000    0.00000000   -0.00092610
     atom    9 type  2   force =    -0.00000080   -0.00000080    0.00015816
     atom   10 type  2   force =    -0.00000140   -0.00000140    0.00016696
     atom   11 type  2   force =    -0.00000080    0.00000080    0.00015816
     atom   12 type  2   force =    -0.00000140    0.00000140    0.00016696
     atom   13 type  2   force =     0.00000080   -0.00000080    0.00015816
     atom   14 type  2   force =     0.00000140   -0.00000140    0.00016696
     atom   15 type  2   force =     0.00000080    0.00000080    0.00015816
     atom   16 type  2   force =     0.00000140    0.00000140    0.00016696
     atom   17 type  3   force =    -0.00000143   -0.00000143   -0.00004569
     atom   18 type  3   force =    -0.00000238   -0.00000238   -0.00003693
     atom   19 type  3   force =    -0.00000143    0.00000143   -0.00004569
     atom   20 type  3   force =    -0.00000238    0.00000238   -0.00003693
     atom   21 type  3   force =     0.00000143   -0.00000143   -0.00004569
     atom   22 type  3   force =     0.00000238   -0.00000238   -0.00003693
     atom   23 type  3   force =     0.00000143    0.00000143   -0.00004569
     atom   24 type  3   force =     0.00000238    0.00000238   -0.00003693
     atom   25 type  3   force =    -0.00000190    0.00000000    0.00040513
     atom   26 type  3   force =    -0.00000557    0.00000000    0.00040954
     atom   27 type  3   force =     0.00000086    0.00000000    0.00040967
     atom   28 type  3   force =     0.00000294    0.00000000    0.00041892
     atom   29 type  3   force =     0.00000190    0.00000000    0.00040513
     atom   30 type  3   force =     0.00000557    0.00000000    0.00040954
     atom   31 type  3   force =    -0.00000086    0.00000000    0.00040967
     atom   32 type  3   force =    -0.00000294   -0.00000000    0.00041892
     atom   33 type  3   force =     0.00000000   -0.00000190    0.00040513
     atom   34 type  3   force =     0.00000000   -0.00000557    0.00040954
     atom   35 type  3   force =     0.00000000    0.00000190    0.00040513
     atom   36 type  3   force =     0.00000000    0.00000557    0.00040954
     atom   37 type  3   force =     0.00000000    0.00000086    0.00040967
     atom   38 type  3   force =     0.00000000    0.00000294    0.00041892
     atom   39 type  3   force =     0.00000000   -0.00000086    0.00040967
     atom   40 type  3   force =     0.00000000   -0.00000294    0.00041892

     Total force =     0.003169     Total SCF correction =     0.000002


     Computing stress (Cartesian axis) and pressure

          total   stress  (Ry/bohr**3)                   (kbar)     P=       38.94
   0.00023513   0.00000000   0.00000000           34.59        0.00        0.00
   0.00000000   0.00023513   0.00000000            0.00       34.59        0.00
   0.00000000   0.00000000   0.00032383            0.00        0.00       47.64


     Writing all to output data dir ./tmp/60_ecut_6_kmesh_PBE.save/ :
     XML data file, charge density, pseudopotentials, collected wavefunctions

     init_run     :      1.44s CPU      3.21s WALL (       1 calls)
     electrons    :     22.83s CPU     23.79s WALL (       1 calls)
     forces       :      0.65s CPU      0.68s WALL (       1 calls)
     stress       :      1.69s CPU      1.76s WALL (       1 calls)

     Called by init_run:
     wfcinit      :      0.58s CPU      2.16s WALL (       1 calls)
     potinit      :      0.22s CPU      0.27s WALL (       1 calls)
     hinit0       :      0.41s CPU      0.52s WALL (       1 calls)

     Called by electrons:
     c_bands      :     18.91s CPU     19.67s WALL (       9 calls)
     sum_band     :      2.79s CPU      2.89s WALL (       9 calls)
     v_of_rho     :      0.24s CPU      0.28s WALL (       9 calls)
     newd         :      0.32s CPU      0.34s WALL (       9 calls)
     PAW_pot      :      0.43s CPU      0.44s WALL (       9 calls)
     mix_rho      :      0.01s CPU      0.02s WALL (       9 calls)

     Called by c_bands:
     init_us_2    :      0.41s CPU      0.42s WALL (     100 calls)
     cegterg      :     17.14s CPU     17.86s WALL (      45 calls)

     Called by *egterg:
     cdiaghg      :      2.50s CPU      2.66s WALL (     143 calls)
     h_psi        :      9.01s CPU      9.31s WALL (     153 calls)
     s_psi        :      1.28s CPU      1.30s WALL (     153 calls)
     g_psi        :      0.03s CPU      0.03s WALL (     108 calls)

     Called by h_psi:
     h_psi:calbec :      1.60s CPU      1.67s WALL (     153 calls)
     vloc_psi     :      6.04s CPU      6.14s WALL (     153 calls)
                                        0.00s GPU  (     153 calls)
     add_vuspsi   :      1.28s CPU      1.29s WALL (     153 calls)

     General routines
     calbec       :      3.86s CPU      4.04s WALL (     283 calls)
     fft          :      0.53s CPU      0.59s WALL (     141 calls)
     ffts         :      0.13s CPU      0.13s WALL (      18 calls)
     fftw         :      7.09s CPU      7.20s WALL (   48092 calls)
     interpolate  :      0.14s CPU      0.14s WALL (       9 calls)

     Parallel routines

     PWSCF        :     28.01s CPU     32.40s WALL


   This run was terminated on:   0:14:50  21May2026            

=------------------------------------------------------------------------------=
   JOB DONE.
=------------------------------------------------------------------------------=
