
     Program PWSCF v.7.5 starts on 21May2026 at  0:16:22 

     This program is part of the open-source Quantum ESPRESSO suite
     for quantum simulation of materials; please cite
         "P. Giannozzi et al., J. Phys.:Condens. Matter 21 395502 (2009);
         "P. Giannozzi et al., J. Phys.:Condens. Matter 29 465901 (2017);
         "P. Giannozzi et al., J. Chem. Phys. 152 154105 (2020);
          URL http://www.quantum-espresso.org", 
     in publications or presentations arising from this work. More details at
     http://www.quantum-espresso.org/quote

     Parallel version (MPI & OpenMP), running on     192 processor cores
     Number of MPI processes:               192
     Threads/MPI process:                     1

     MPI processes distributed on     1 nodes
     361602 MiB available memory on the printing compute node when the environment starts

     Waiting for input...
     Reading input from standard input

     Current dimensions of program PWSCF are:
     Max number of different atomic species (ntypx) = 10
     Max number of k-points (npk) =  40000
     Max angular momentum in pseudopotentials (lmaxx) =  4
     file Ba.pbe-spn-kjpaw_psl.1.0.0.UPF: wavefunction(s)  5S 6S renormalized
     file Ti.pbe-spn-kjpaw_psl.1.0.0.UPF: wavefunction(s)  3S 3P 3D renormalized
     file O.pbe-n-kjpaw_psl.1.0.0.UPF: wavefunction(s)  2S 2P renormalized

     IMPORTANT: XC functional enforced from input :
     Exchange-correlation= PBE
                           (   1   4   3   4   0   0   0)
     Any further DFT definition will be discarded
     Please, verify this is what you really want

     Found identity + ( -0.5000 -0.5000  0.0000) symmetry
     This is a supercell, fractional translations are disabled

     K-points division:     npool     =       8
     R & G space division:  proc/nbgrp/npool/nimage =      24
     Subspace diagonalization in iterative solution of the eigenvalue problem:
     one sub-group per band group will be used
     ELPA distributed-memory algorithm (size of sub-group:  2*  2 procs)


     Parallelization info
     --------------------
     sticks:   dense  smooth     PW     G-vecs:    dense   smooth      PW
     Min         543     271     73                47197    16689    2333
     Max         545     272     74                47200    16692    2336
     Sum       13053    6525   1757              1132751   400585   56003

     Using Slab Decomposition



     bravais-lattice index     =            6
     lattice parameter (alat)  =      15.0876  a.u.
     unit-cell volume          =    3472.3239 (a.u.)^3
     number of atoms/cell      =           40
     number of atomic types    =            3
     number of electrons       =       320.00
     number of Kohn-Sham states=          200
     kinetic-energy cutoff     =      90.0000  Ry
     charge density cutoff     =     720.0000  Ry
     scf convergence threshold =      1.0E-10
     mixing beta               =       0.3000
     number of iterations used =           16  plain     mixing
     Exchange-correlation= PBE
                           (   1   4   3   4   0   0   0)

     celldm(1)=  15.087600  celldm(2)=   0.000000  celldm(3)=   1.011020
     celldm(4)=   0.000000  celldm(5)=   0.000000  celldm(6)=   0.000000

     crystal axes: (cart. coord. in units of alat)
               a(1) = (   1.000000   0.000000   0.000000 )  
               a(2) = (   0.000000   1.000000   0.000000 )  
               a(3) = (   0.000000   0.000000   1.011020 )  

     reciprocal axes: (cart. coord. in units 2 pi/alat)
               b(1) = (  1.000000  0.000000  0.000000 )  
               b(2) = (  0.000000  1.000000  0.000000 )  
               b(3) = (  0.000000  0.000000  0.989100 )  


     PseudoPot. # 1 for Ba read from file:
     /home/kylay/scratch/BTO/pseuds/Ba.pbe-spn-kjpaw_psl.1.0.0.UPF
     MD5 check sum: 7cfe25f1fe7574a4710541d5a11d6531
     Pseudo is Projector augmented-wave + core cor, Zval = 10.0
     Generated using &quot;atomic&quot; code by A. Dal Corso  v.6.2.2
     Shape of augmentation charge: PSQ
     Using radial grid of 1251 points,  7 beta functions with: 
                l(1) =   0
                l(2) =   0
                l(3) =   0
                l(4) =   1
                l(5) =   1
                l(6) =   2
                l(7) =   2
     Q(r) pseudized with 0 coefficients 


     PseudoPot. # 2 for Ti read from file:
     /home/kylay/scratch/BTO/pseuds/Ti.pbe-spn-kjpaw_psl.1.0.0.UPF
     MD5 check sum: 01f69b0d8ba4438b2e03ac6ea4af1c0b
     Pseudo is Projector augmented-wave + core cor, Zval = 12.0
     Generated using &quot;atomic&quot; code by A. Dal Corso  v.6.2.2
     Shape of augmentation charge: PSQ
     Using radial grid of 1177 points,  6 beta functions with: 
                l(1) =   0
                l(2) =   0
                l(3) =   1
                l(4) =   1
                l(5) =   2
                l(6) =   2
     Q(r) pseudized with 0 coefficients 


     PseudoPot. # 3 for O  read from file:
     /home/kylay/scratch/BTO/pseuds/O.pbe-n-kjpaw_psl.1.0.0.UPF
     MD5 check sum: e99d9cef9b487d1ca56f5b95ecd0fd7a
     Pseudo is Projector augmented-wave + core cor, Zval =  6.0
     Generated using &quot;atomic&quot; code by A. Dal Corso  v.6.3
     Shape of augmentation charge: PSQ
     Using radial grid of 1095 points,  4 beta functions with: 
                l(1) =   0
                l(2) =   0
                l(3) =   1
                l(4) =   1
     Q(r) pseudized with 0 coefficients 


     atomic species   valence    mass     pseudopotential
     Ba               10.00   137.32700     Ba( 1.00)
     Ti               12.00    47.86700     Ti( 1.00)
     O                 6.00    15.99900     O ( 1.00)

      8 Sym. Ops. (no inversion) found



   Cartesian axes

     site n.     atom                  positions (alat units)
         1        Ba     tau(   1) = (   0.0000000   0.0000000  -0.0010787  )
         2        Ba     tau(   2) = (   0.0000000   0.0000000   0.5044220  )
         3        Ba     tau(   3) = (   0.0000000   0.5000000  -0.0010832  )
         4        Ba     tau(   4) = (   0.0000000   0.5000000   0.5044235  )
         5        Ba     tau(   5) = (   0.5000000   0.0000000  -0.0010832  )
         6        Ba     tau(   6) = (   0.5000000   0.0000000   0.5044235  )
         7        Ba     tau(   7) = (   0.5000000   0.5000000  -0.0010766  )
         8        Ba     tau(   8) = (   0.5000000   0.5000000   0.5044202  )
         9        Ti     tau(   9) = (   0.2500002   0.2500002   0.2436990  )
        10        Ti     tau(  10) = (   0.2500007   0.2500007   0.7492042  )
        11        Ti     tau(  11) = (   0.2500002   0.7499998   0.2436990  )
        12        Ti     tau(  12) = (   0.2500007   0.7499993   0.7492042  )
        13        Ti     tau(  13) = (   0.7499998   0.2500002   0.2436990  )
        14        Ti     tau(  14) = (   0.7499993   0.2500007   0.7492042  )
        15        Ti     tau(  15) = (   0.7499998   0.7499998   0.2436990  )
        16        Ti     tau(  16) = (   0.7499993   0.7499993   0.7492042  )
        17        O      tau(  17) = (   0.2500011   0.2500011   0.0113903  )
        18        O      tau(  18) = (   0.2500007   0.2500007   0.5168954  )
        19        O      tau(  19) = (   0.2500011   0.7499989   0.0113903  )
        20        O      tau(  20) = (   0.2500007   0.7499993   0.5168954  )
        21        O      tau(  21) = (   0.7499989   0.2500011   0.0113903  )
        22        O      tau(  22) = (   0.7499993   0.2500007   0.5168954  )
        23        O      tau(  23) = (   0.7499989   0.7499989   0.0113903  )
        24        O      tau(  24) = (   0.7499993   0.7499993   0.5168954  )
        25        O      tau(  25) = (   0.2500005   0.0000000   0.2592128  )
        26        O      tau(  26) = (   0.2500020   0.0000000   0.7647195  )
        27        O      tau(  27) = (   0.2499999   0.5000000   0.2592107  )
        28        O      tau(  28) = (   0.2499998   0.5000000   0.7647148  )
        29        O      tau(  29) = (   0.7499995   0.0000000   0.2592128  )
        30        O      tau(  30) = (   0.7499980   0.0000000   0.7647195  )
        31        O      tau(  31) = (   0.7500001   0.5000000   0.2592107  )
        32        O      tau(  32) = (   0.7500002   0.5000000   0.7647148  )
        33        O      tau(  33) = (   0.0000000   0.2500005   0.2592128  )
        34        O      tau(  34) = (   0.0000000   0.2500020   0.7647195  )
        35        O      tau(  35) = (   0.0000000   0.7499995   0.2592128  )
        36        O      tau(  36) = (   0.0000000   0.7499980   0.7647195  )
        37        O      tau(  37) = (   0.5000000   0.2499999   0.2592107  )
        38        O      tau(  38) = (   0.5000000   0.2499998   0.7647148  )
        39        O      tau(  39) = (   0.5000000   0.7500001   0.2592107  )
        40        O      tau(  40) = (   0.5000000   0.7500002   0.7647148  )

     number of k points=    18
                       cart. coord. in units 2pi/alat
        k(    1) = (   0.0000000   0.0000000   0.0000000), wk =   0.0312500
        k(    2) = (   0.0000000   0.0000000   0.2472750), wk =   0.0625000
        k(    3) = (   0.0000000   0.0000000  -0.4945501), wk =   0.0312500
        k(    4) = (   0.0000000   0.2500000   0.0000000), wk =   0.1250000
        k(    5) = (   0.0000000   0.2500000   0.2472750), wk =   0.2500000
        k(    6) = (   0.0000000   0.2500000  -0.4945501), wk =   0.1250000
        k(    7) = (   0.0000000  -0.5000000   0.0000000), wk =   0.0625000
        k(    8) = (   0.0000000  -0.5000000   0.2472750), wk =   0.1250000
        k(    9) = (   0.0000000  -0.5000000  -0.4945501), wk =   0.0625000
        k(   10) = (   0.2500000   0.2500000   0.0000000), wk =   0.1250000
        k(   11) = (   0.2500000   0.2500000   0.2472750), wk =   0.2500000
        k(   12) = (   0.2500000   0.2500000  -0.4945501), wk =   0.1250000
        k(   13) = (   0.2500000  -0.5000000   0.0000000), wk =   0.1250000
        k(   14) = (   0.2500000  -0.5000000   0.2472750), wk =   0.2500000
        k(   15) = (   0.2500000  -0.5000000  -0.4945501), wk =   0.1250000
        k(   16) = (  -0.5000000  -0.5000000   0.0000000), wk =   0.0312500
        k(   17) = (  -0.5000000  -0.5000000   0.2472750), wk =   0.0625000
        k(   18) = (  -0.5000000  -0.5000000  -0.4945501), wk =   0.0312500

     Dense  grid:  1132751 G-vectors     FFT dimensions: ( 135, 135, 135)

     Smooth grid:   400585 G-vectors     FFT dimensions: (  96,  96,  96)

     Estimated max dynamical RAM per process >     132.43 MB

     Estimated total dynamical RAM >      21.05 GB

     The initial density is read from file :
     ./tmp/90_ecut_4_kmesh_PBE.save/charge-density

     Starting wfcs from file
     Checking if some PAW data can be deallocated... 

     total cpu time spent up to now is        4.7 secs

     per-process dynamical memory:   153.3 Mb

     Self-consistent Calculation

     iteration #  1     ecut=    90.00 Ry     beta= 0.30
     Davidson diagonalization with overlap
     ethr =  1.00E-05,  avg # of iterations =  1.1

     Threshold (ethr) on eigenvalues was too large:
     Diagonalizing with lowered threshold

     Davidson diagonalization with overlap
     ethr =  3.07E-12,  avg # of iterations =  5.3

     total cpu time spent up to now is       10.1 secs

     total energy              =   -5964.63708065 Ry
     estimated scf accuracy    <       0.00000002 Ry

     iteration #  2     ecut=    90.00 Ry     beta= 0.30
     Davidson diagonalization with overlap
     ethr =  5.01E-12,  avg # of iterations =  1.9

     total cpu time spent up to now is       12.6 secs

     total energy              =   -5964.63708065 Ry
     estimated scf accuracy    <          4.6E-09 Ry

     iteration #  3     ecut=    90.00 Ry     beta= 0.30
     Davidson diagonalization with overlap
     ethr =  1.45E-12,  avg # of iterations =  4.1

     total cpu time spent up to now is       15.6 secs

     total energy              =   -5964.63708065 Ry
     estimated scf accuracy    <          1.3E-09 Ry

     iteration #  4     ecut=    90.00 Ry     beta= 0.30
     Davidson diagonalization with overlap
     ethr =  4.01E-13,  avg # of iterations =  5.1

     total cpu time spent up to now is       18.7 secs

     total energy              =   -5964.63708065 Ry
     estimated scf accuracy    <          6.8E-10 Ry

     iteration #  5     ecut=    90.00 Ry     beta= 0.30
     Davidson diagonalization with overlap
     ethr =  2.14E-13,  avg # of iterations =  2.1

     total cpu time spent up to now is       21.3 secs

     End of self-consistent calculation

          k = 0.0000 0.0000 0.0000 ( 50063 PWs)   bands (ev):

   -46.1071 -46.1062 -46.1060 -46.1060 -46.1051 -46.1051 -46.1050 -46.1041
   -22.4424 -22.4388 -22.4388 -22.4361 -22.3941 -22.3920 -22.3920 -22.3899
   -22.3881 -22.3881 -22.3849 -22.3849 -22.3846 -22.3846 -22.3823 -22.3823
   -22.3340 -22.3340 -22.3321 -22.3321 -22.3319 -22.3319 -22.3301 -22.3301
   -14.4583 -14.3467 -14.3373 -14.3373 -14.2679 -14.2678 -14.2599 -14.1994
    -6.7735  -6.7735  -6.7211  -6.5306  -6.2523  -6.1394  -6.1394  -5.9048
    -5.9048  -5.9041  -5.8434  -5.8434  -5.8096  -5.7774  -5.7456  -5.7456
    -5.7426  -5.7426  -5.7340  -5.6681  -5.5747  -5.5747  -5.5131  -5.5131
    -0.3543  -0.3543  -0.2922   0.2988   0.2988   0.3149   0.3149   0.3647
     0.3704   0.3705   0.3743   0.3743   0.5274   0.5274   0.5323   0.5323
     0.5491   0.5491   0.7379   0.7422   0.7422   0.7625   0.7625   0.8063
     5.9194   6.0770   6.1021   6.1021   6.2943   6.2943   6.3335   6.3489
     6.4059   6.4059   6.5582   6.5582   6.5587   6.5800   6.5958   7.5252
     7.5252   7.5766   7.5766   7.6240   7.6240   7.6250   7.6250   7.6382
     7.6382   7.7374   7.7374   7.9229   7.9229   7.9524   8.0506   8.0853
     8.0853   8.0904   8.0904   8.3846   8.3846   8.4537   8.4572   8.4694
     8.4695   8.5500   8.5500   8.6149   8.6904   8.6904   8.7145   8.7145
     9.0492   9.0492   9.2278   9.3427   9.3428   9.3757   9.3757   9.4724
     9.4724   9.4812   9.4812   9.4995   9.4995   9.7140   9.7140   9.9942
    10.0590  10.0590  10.1756  10.1756  10.2458  10.2458  10.3371  10.4077
    12.2288  12.3750  12.5469  12.5469  12.6634  12.6634  13.9440  13.9440
    13.9725  13.9725  13.9999  14.0000  14.0060  14.0060  14.0207  14.0207
    14.0226  14.0226  14.3638  14.3638  14.3926  14.4621  14.4626  14.5490
    14.5490  14.6094  14.6094  14.6144  14.6172  15.0982  15.2983  15.2983
    15.3434  15.4898  16.2943  16.2943  16.4902  16.8974  17.1086  17.3347

          k = 0.0000 0.0000 0.2473 ( 50054 PWs)   bands (ev):

   -46.1069 -46.1063 -46.1059 -46.1059 -46.1053 -46.1053 -46.1048 -46.1042
   -22.4353 -22.4320 -22.4320 -22.4294 -22.4013 -22.3989 -22.3989 -22.3967
   -22.3876 -22.3876 -22.3854 -22.3854 -22.3843 -22.3843 -22.3826 -22.3826
   -22.3337 -22.3337 -22.3324 -22.3324 -22.3316 -22.3316 -22.3304 -22.3304
   -14.4423 -14.3634 -14.3273 -14.3273 -14.2782 -14.2782 -14.2511 -14.2084
    -6.7001  -6.7001  -6.6740  -6.5296  -6.2745  -6.2745  -6.1808  -5.9046
    -5.8566  -5.8566  -5.8359  -5.8359  -5.8147  -5.8049  -5.7822  -5.7282
    -5.7193  -5.7193  -5.7112  -5.7112  -5.6008  -5.6008  -5.5468  -5.5468
    -0.2632  -0.2632  -0.1644   0.1977   0.1977   0.3749   0.3749   0.3890
     0.3890   0.3958   0.3958   0.4304   0.5030   0.5030   0.5041   0.5041
     0.5570   0.5760   0.5760   0.6914   0.6914   0.7124   0.7124   0.7423
     6.0025   6.0794   6.2092   6.2092   6.3798   6.3798   6.4533   6.4533
     6.5696   6.5823   6.5935   6.6127   6.6980   6.6980   6.7461   7.5352
     7.5352   7.5545   7.5545   7.5589   7.5589   7.5713   7.5713   7.7117
     7.7117   7.7118   7.7118   7.7399   7.7836   7.8498   7.8498   7.9075
     7.9075   8.0405   8.0405   8.2077   8.4232   8.4232   8.4386   8.4386
     8.5516   8.6177   8.6178   8.6269   8.7636   8.7636   8.8931   8.8931
     9.0952   9.2179   9.2179   9.2257   9.2257   9.2848   9.2848   9.3504
     9.3505   9.3698   9.3698   9.4591   9.4591   9.6782   9.7596   9.7596
    10.0056  10.0056  10.0750  10.0750  10.0858  10.0858  10.3473  10.3972
    12.2494  12.3527  12.7882  12.7882  12.8818  12.8818  13.8097  13.8097
    13.8334  13.8334  13.9486  13.9486  13.9687  13.9687  14.0140  14.0140
    14.0997  14.0997  14.2704  14.2704  14.4243  14.4614  14.4617  14.5090
    14.5090  14.5831  14.8124  14.8124  14.9916  15.2750  15.2750  15.5489
    15.6288  15.7779  16.2822  16.4832  16.4832  16.8642  17.0278  17.4501

          k = 0.0000 0.0000-0.4946 ( 50046 PWs)   bands (ev):

   -46.1066 -46.1066 -46.1056 -46.1056 -46.1056 -46.1056 -46.1045 -46.1045
   -22.4184 -22.4183 -22.4155 -22.4155 -22.4155 -22.4155 -22.4131 -22.4131
   -22.3865 -22.3865 -22.3865 -22.3865 -22.3835 -22.3835 -22.3835 -22.3835
   -22.3331 -22.3331 -22.3331 -22.3331 -22.3310 -22.3310 -22.3310 -22.3310
   -14.4033 -14.4032 -14.3030 -14.3029 -14.3029 -14.3028 -14.2299 -14.2298
    -6.5780  -6.5778  -6.5080  -6.5080  -6.5079  -6.5079  -6.0023  -6.0022
    -5.8466  -5.8466  -5.8287  -5.8287  -5.8286  -5.8286  -5.7936  -5.7935
    -5.6615  -5.6615  -5.6614  -5.6614  -5.6287  -5.6287  -5.6286  -5.6286
    -0.0377  -0.0377  -0.0376  -0.0376   0.1708   0.1709   0.4406   0.4406
     0.4407   0.4407   0.4490   0.4490   0.4491   0.4491   0.5276   0.5276
     0.5277   0.5277   0.5871   0.5872   0.6428   0.6428   0.6429   0.6429
     6.0716   6.0717   6.3198   6.3198   6.3198   6.3198   6.5878   6.5879
     6.9020   6.9020   6.9021   6.9021   7.1606   7.1608   7.1703   7.1703
     7.1705   7.1705   7.2009   7.2009   7.3849   7.3851   7.5555   7.5555
     7.5556   7.5556   7.8391   7.8391   7.8391   7.8391   7.8989   7.8989
     7.8990   7.8990   8.1293   8.1293   8.1294   8.1294   8.6155   8.6155
     8.6156   8.6156   8.8066   8.8067   8.9663   8.9663   8.9663   8.9664
     8.9874   8.9875   8.9875   8.9876   9.0883   9.0883   9.1951   9.1951
     9.1952   9.1952   9.7235   9.7235   9.7235   9.7235   9.7763   9.7763
     9.7763   9.7763   9.8779   9.8779   9.8780   9.8780  10.3720  10.3721
    12.3002  12.3003  13.3196  13.3196  13.3197  13.3197  13.3718  13.3718
    13.3719  13.3719  13.9590  13.9590  13.9591  13.9591  14.1028  14.1028
    14.1028  14.1028  14.2942  14.2942  14.2942  14.2942  14.4609  14.4609
    14.5024  14.5025  15.1496  15.1496  15.1497  15.1497  15.7127  15.7128
    16.3160  16.3162  16.4191  16.4193  16.5391  16.5393  17.0751  17.0751

          k = 0.0000 0.2500 0.0000 ( 50054 PWs)   bands (ev):

   -46.1069 -46.1062 -46.1060 -46.1059 -46.1053 -46.1051 -46.1050 -46.1042
   -22.4418 -22.4393 -22.4384 -22.4365 -22.3938 -22.3923 -22.3917 -22.3902
   -22.3876 -22.3851 -22.3845 -22.3827 -22.3802 -22.3772 -22.3769 -22.3747
   -22.3420 -22.3399 -22.3397 -22.3378 -22.3337 -22.3322 -22.3318 -22.3304
   -14.4410 -14.3555 -14.3354 -14.3262 -14.2796 -14.2714 -14.2579 -14.2096
    -6.7230  -6.7043  -6.6476  -6.5426  -6.3387  -6.2438  -6.0621  -5.8922
    -5.8807  -5.8714  -5.8492  -5.8250  -5.7994  -5.7643  -5.7614  -5.7508
    -5.7327  -5.7219  -5.7083  -5.7023  -5.6620  -5.6012  -5.5815  -5.5460
    -0.2613  -0.2352  -0.1835   0.2110   0.2656   0.3275   0.3399   0.3604
     0.3880   0.3988   0.4284   0.4325   0.4896   0.4981   0.5065   0.5223
     0.5507   0.5572   0.5678   0.6884   0.7067   0.7074   0.7089   0.7367
     6.0099   6.1021   6.1888   6.1955   6.3123   6.3751   6.4108   6.5124
     6.5590   6.5657   6.5659   6.6393   6.7210   6.7639   6.7689   7.4621
     7.5408   7.5968   7.6233   7.6306   7.6341   7.6344   7.6691   7.6756
     7.7077   7.7079   7.7368   7.7378   7.7493   7.7972   7.8230   7.9046
     7.9457   8.0174   8.0426   8.1666   8.2044   8.2545   8.2938   8.5769
     8.5968   8.6090   8.6868   8.6930   8.8011   8.8113   8.8315   8.9183
     8.9672   9.1377   9.1821   9.2382   9.3017   9.3029   9.3228   9.4200
     9.4236   9.4736   9.5141   9.5236   9.5539   9.5576   9.5942   9.6819
     9.9074  10.0074  10.0829  10.0926  10.1857  10.2214  10.2387  10.2514
    12.5150  12.5894  12.6431  12.6553  12.6982  12.7978  13.7298  13.7611
    13.7649  13.7850  13.9657  13.9800  14.0056  14.0077  14.0182  14.0183
    14.0546  14.0677  14.2533  14.2844  14.3997  14.4943  14.5013  14.5615
    14.5678  14.5750  14.7620  14.8118  14.9347  15.1233  15.2697  15.6448
    15.7633  15.7845  16.1340  16.5223  16.6804  16.9823  17.1475  17.3512

          k = 0.0000 0.2500 0.2473 ( 50073 PWs)   bands (ev):

   -46.1068 -46.1061 -46.1060 -46.1057 -46.1054 -46.1051 -46.1050 -46.1044
   -22.4348 -22.4325 -22.4316 -22.4298 -22.4009 -22.3992 -22.3985 -22.3970
   -22.3871 -22.3850 -22.3848 -22.3830 -22.3798 -22.3777 -22.3766 -22.3750
   -22.3417 -22.3402 -22.3394 -22.3381 -22.3334 -22.3321 -22.3319 -22.3307
   -14.4259 -14.3512 -14.3445 -14.3163 -14.2909 -14.2681 -14.2625 -14.2187
    -6.6565  -6.6308  -6.6091  -6.5277  -6.3153  -6.2663  -6.2038  -5.8997
    -5.8734  -5.8703  -5.8453  -5.8283  -5.8158  -5.7948  -5.7766  -5.7519
    -5.7308  -5.7104  -5.6952  -5.6928  -5.6531  -5.6171  -5.6101  -5.5708
    -0.2170  -0.1752  -0.0092   0.2087   0.2597   0.2637   0.2753   0.3437
     0.3674   0.3962   0.4210   0.4578   0.4635   0.4840   0.5147   0.5330
     0.5484   0.5890   0.5907   0.6128   0.6301   0.6790   0.6802   0.7113
     6.1076   6.1899   6.2075   6.3421   6.3539   6.5399   6.5639   6.6041
     6.6611   6.6900   6.7000   6.7081   6.7244   6.8039   6.8679   7.4282
     7.5081   7.5247   7.5409   7.5622   7.5874   7.6252   7.6352   7.6536
     7.6649   7.6705   7.7197   7.7738   7.7917   7.8481   7.8637   7.8697
     7.8753   7.9128   7.9138   8.0083   8.0091   8.3053   8.3203   8.3702
     8.4411   8.5821   8.7089   8.7222   8.7641   8.7927   8.8820   9.1298
     9.1425   9.1514   9.1729   9.1925   9.2993   9.3088   9.3678   9.3681
     9.3694   9.4334   9.4491   9.4758   9.4873   9.4987   9.5645   9.5750
     9.8428   9.9019   9.9318  10.0250  10.0594  10.0834  10.2397  10.2584
    12.5489  12.6370  12.8088  12.8641  12.8778  12.9994  13.7360  13.7501
    13.7866  13.7882  13.8131  13.8387  13.8848  13.8870  13.9809  14.0293
    14.0427  14.0875  14.1342  14.3052  14.3150  14.3774  14.4601  14.4826
    14.7017  14.7604  14.8169  15.1417  15.1888  15.2472  15.5725  15.7486
    15.9008  16.0667  16.3209  16.4688  16.6384  17.0268  17.1904  17.2800

          k = 0.0000 0.2500-0.4946 ( 50094 PWs)   bands (ev):

   -46.1065 -46.1064 -46.1057 -46.1057 -46.1054 -46.1054 -46.1047 -46.1047
   -22.4179 -22.4179 -22.4159 -22.4159 -22.4151 -22.4151 -22.4135 -22.4135
   -22.3861 -22.3861 -22.3839 -22.3839 -22.3787 -22.3787 -22.3758 -22.3758
   -22.3409 -22.3409 -22.3387 -22.3387 -22.3328 -22.3328 -22.3313 -22.3313
   -14.3889 -14.3888 -14.3179 -14.3179 -14.2924 -14.2923 -14.2408 -14.2407
    -6.5403  -6.5402  -6.4900  -6.4899  -6.4384  -6.4383  -6.0821  -6.0820
    -5.8644  -5.8643  -5.8497  -5.8497  -5.8043  -5.8042  -5.7810  -5.7809
    -5.6852  -5.6851  -5.6675  -5.6674  -5.6552  -5.6551  -5.6320  -5.6319
    -0.0370  -0.0369   0.0390   0.0391   0.2936   0.2937   0.3009   0.3009
     0.3874   0.3875   0.3973   0.3973   0.4385   0.4386   0.4760   0.4761
     0.5920   0.5920   0.6129   0.6130   0.6305   0.6306   0.6419   0.6419
     6.1822   6.1823   6.3060   6.3061   6.5165   6.5166   6.7314   6.7315
     6.9623   6.9624   7.0021   7.0022   7.0997   7.0999   7.1541   7.1541
     7.1820   7.1822   7.2847   7.2848   7.3326   7.3328   7.5770   7.5771
     7.6555   7.6556   7.6864   7.6865   7.8622   7.8623   7.8934   7.8935
     7.9335   7.9336   7.9845   7.9845   8.1331   8.1332   8.1927   8.1928
     8.4817   8.4818   8.5453   8.5453   8.8929   8.8930   8.9798   8.9798
     9.0747   9.0747   9.2327   9.2328   9.2792   9.2792   9.2876   9.2877
     9.3222   9.3224   9.6030   9.6030   9.6964   9.6964   9.7041   9.7041
     9.7472   9.7472   9.7554   9.7554   9.8014   9.8014  10.2467  10.2469
    12.5933  12.5934  13.3264  13.3265  13.3290  13.3291  13.3579  13.3580
    13.4524  13.4525  13.7516  13.7517  13.9149  13.9150  14.0129  14.0129
    14.1230  14.1231  14.1322  14.1323  14.2659  14.2660  14.3911  14.3911
    14.7508  14.7509  15.1328  15.1328  15.5998  15.5998  15.8892  15.8893
    16.4771  16.4773  16.5206  16.5208  16.8224  16.8225  16.9078  16.9079

          k = 0.0000-0.5000 0.0000 ( 50018 PWs)   bands (ev):

   -46.1065 -46.1065 -46.1056 -46.1056 -46.1055 -46.1055 -46.1046 -46.1046
   -22.4406 -22.4406 -22.4375 -22.4375 -22.3931 -22.3931 -22.3909 -22.3909
   -22.3864 -22.3864 -22.3836 -22.3836 -22.3612 -22.3612 -22.3586 -22.3586
   -22.3584 -22.3584 -22.3563 -22.3563 -22.3329 -22.3329 -22.3311 -22.3311
   -14.3987 -14.3987 -14.3077 -14.3077 -14.2990 -14.2990 -14.2339 -14.2339
    -6.6145  -6.6145  -6.5294  -6.5294  -6.4588  -6.4588  -5.8712  -5.8712
    -5.8656  -5.8656  -5.8187  -5.8187  -5.7880  -5.7880  -5.7835  -5.7834
    -5.7372  -5.7371  -5.7206  -5.7206  -5.6630  -5.6630  -5.6264  -5.6264
    -0.0306  -0.0305   0.0187   0.0187   0.1471   0.1471   0.4058   0.4059
     0.4084   0.4084   0.4461   0.4461   0.4594   0.4594   0.5182   0.5182
     0.5707   0.5707   0.5768   0.5768   0.6313   0.6313   0.6358   0.6358
     6.0889   6.0889   6.2684   6.2684   6.3081   6.3081   6.5623   6.5623
     6.8541   6.8542   6.9779   6.9779   7.1651   7.1651   7.1977   7.1977
     7.2187   7.2187   7.2915   7.2915   7.3717   7.3717   7.6190   7.6191
     7.6581   7.6581   7.8505   7.8506   7.8883   7.8883   7.8899   7.8899
     7.8965   7.8966   7.9553   7.9553   8.0075   8.0075   8.4773   8.4774
     8.6931   8.6931   8.7786   8.7786   8.8765   8.8765   8.9125   8.9125
     8.9717   8.9717   9.1279   9.1279   9.1556   9.1556   9.2962   9.2962
     9.3119   9.3119   9.6376   9.6376   9.7620   9.7620   9.7638   9.7638
     9.7832   9.7832   9.8780   9.8780   9.9044   9.9044  10.2110  10.2110
    12.5964  12.5965  13.1817  13.1817  13.2102  13.2102  13.2415  13.2415
    13.2600  13.2600  14.0071  14.0071  14.0125  14.0125  14.0605  14.0605
    14.0874  14.0874  14.2557  14.2557  14.2641  14.2642  14.4872  14.4872
    14.5718  14.5718  15.0813  15.0813  15.1262  15.1262  15.6438  15.6439
    16.3972  16.3973  16.5413  16.5413  16.6272  16.6272  17.1777  17.1777

          k = 0.0000-0.5000 0.2473 ( 50094 PWs)   bands (ev):

   -46.1064 -46.1064 -46.1058 -46.1058 -46.1054 -46.1054 -46.1047 -46.1047
   -22.4337 -22.4337 -22.4307 -22.4307 -22.4001 -22.4001 -22.3978 -22.3978
   -22.3860 -22.3860 -22.3840 -22.3840 -22.3608 -22.3608 -22.3590 -22.3590
   -22.3581 -22.3581 -22.3566 -22.3566 -22.3327 -22.3327 -22.3314 -22.3314
   -14.3856 -14.3856 -14.3213 -14.3213 -14.2896 -14.2896 -14.2436 -14.2435
    -6.5695  -6.5695  -6.4560  -6.4560  -6.4536  -6.4536  -6.0336  -6.0336
    -5.8724  -5.8724  -5.8360  -5.8360  -5.7697  -5.7697  -5.7517  -5.7517
    -5.7313  -5.7313  -5.7306  -5.7306  -5.6563  -5.6563  -5.6305  -5.6305
    -0.0108  -0.0108   0.0444   0.0444   0.2717   0.2718   0.2986   0.2986
     0.3784   0.3785   0.3956   0.3956   0.4321   0.4321   0.4834   0.4835
     0.6050   0.6050   0.6132   0.6132   0.6187   0.6188   0.6354   0.6355
     6.1937   6.1937   6.2984   6.2984   6.4736   6.4736   6.7065   6.7065
     6.9689   6.9689   7.0094   7.0094   7.1289   7.1289   7.1470   7.1470
     7.2093   7.2093   7.3348   7.3348   7.3724   7.3725   7.6069   7.6069
     7.6750   7.6750   7.7320   7.7320   7.8784   7.8784   7.9008   7.9008
     7.9204   7.9204   7.9324   7.9324   8.0090   8.0090   8.1566   8.1566
     8.5016   8.5017   8.5426   8.5426   8.8998   8.8998   9.0017   9.0017
     9.1898   9.1898   9.1966   9.1966   9.2052   9.2052   9.2742   9.2742
     9.3330   9.3331   9.5469   9.5469   9.6482   9.6482   9.7157   9.7157
     9.7950   9.7950   9.8538   9.8539   9.8841   9.8841  10.0921  10.0921
    12.8201  12.8201  13.1967  13.1967  13.2285  13.2286  13.2859  13.2859
    13.4096  13.4096  13.8229  13.8229  13.8927  13.8928  14.0550  14.0550
    14.1031  14.1031  14.1141  14.1141  14.2367  14.2367  14.3901  14.3901
    14.8063  14.8063  15.1126  15.1127  15.5092  15.5092  15.8276  15.8277
    16.5722  16.5722  16.6466  16.6466  16.8317  16.8317  17.0089  17.0090

          k = 0.0000-0.5000-0.4946 ( 50120 PWs)   bands (ev):

   -46.1061 -46.1061 -46.1061 -46.1061 -46.1051 -46.1051 -46.1050 -46.1050
   -22.4169 -22.4169 -22.4169 -22.4169 -22.4143 -22.4143 -22.4143 -22.4143
   -22.3850 -22.3850 -22.3850 -22.3850 -22.3599 -22.3599 -22.3599 -22.3599
   -22.3573 -22.3573 -22.3573 -22.3573 -22.3320 -22.3320 -22.3320 -22.3320
   -14.3537 -14.3537 -14.3537 -14.3536 -14.2668 -14.2667 -14.2667 -14.2666
    -6.4847  -6.4847  -6.4846  -6.4846  -6.2651  -6.2651  -6.2650  -6.2650
    -5.8808  -5.8808  -5.8807  -5.8807  -5.7447  -5.7446  -5.7446  -5.7445
    -5.7357  -5.7357  -5.7356  -5.7356  -5.6421  -5.6421  -5.6420  -5.6420
     0.0762   0.0762   0.0762   0.0762   0.2326   0.2326   0.2327   0.2327
     0.3585   0.3585   0.3586   0.3586   0.5150   0.5150   0.5150   0.5150
     0.5431   0.5431   0.5431   0.5431   0.6465   0.6465   0.6465   0.6465
     6.2746   6.2746   6.2747   6.2747   6.9007   6.9007   6.9007   6.9007
     7.0656   7.0656   7.0656   7.0656   7.1745   7.1745   7.1746   7.1746
     7.2485   7.2485   7.2486   7.2486   7.3242   7.3242   7.3243   7.3243
     7.6959   7.6959   7.6960   7.6960   7.8350   7.8350   7.8351   7.8351
     7.8872   7.8872   7.8873   7.8873   8.1155   8.1155   8.1156   8.1156
     8.2295   8.2295   8.2296   8.2296   8.8737   8.8737   8.8737   8.8737
     9.3146   9.3146   9.3146   9.3146   9.3547   9.3547   9.3548   9.3548
     9.3878   9.3878   9.3878   9.3878   9.6942   9.6942   9.6942   9.6942
     9.7970   9.7970   9.7971   9.7971   9.8712   9.8712   9.8713   9.8713
    13.1813  13.1813  13.1814  13.1814  13.3693  13.3693  13.3694  13.3694
    13.5436  13.5436  13.5437  13.5437  13.7545  13.7545  13.7546  13.7546
    14.1664  14.1664  14.1664  14.1664  14.2070  14.2070  14.2071  14.2071
    15.0422  15.0422  15.0422  15.0422  16.3155  16.3155  16.3156  16.3156
    16.4209  16.4210  16.4211  16.4211  17.0226  17.0227  17.2813  17.2822

          k = 0.2500 0.2500 0.0000 ( 50052 PWs)   bands (ev):

   -46.1067 -46.1060 -46.1060 -46.1059 -46.1053 -46.1051 -46.1051 -46.1044
   -22.4413 -22.4389 -22.4389 -22.4369 -22.3935 -22.3920 -22.3920 -22.3905
   -22.3797 -22.3797 -22.3776 -22.3772 -22.3769 -22.3769 -22.3752 -22.3750
   -22.3418 -22.3414 -22.3400 -22.3400 -22.3397 -22.3395 -22.3381 -22.3381
   -14.4246 -14.3434 -14.3434 -14.3242 -14.2839 -14.2695 -14.2695 -14.2200
    -6.6625  -6.6625  -6.5738  -6.5409  -6.3862  -6.1680  -6.1680  -5.8751
    -5.8551  -5.8551  -5.8303  -5.8303  -5.8008  -5.7825  -5.7629  -5.7534
    -5.7495  -5.7276  -5.7138  -5.7101  -5.7101  -5.6119  -5.6119  -5.6063
    -0.2397  -0.1224  -0.0296   0.2148   0.2148   0.3105   0.3291   0.3292
     0.3647   0.3814   0.4123   0.4476   0.4584   0.4585   0.5218   0.5372
     0.5373   0.5846   0.5847   0.6184   0.6629   0.6780   0.6814   0.6814
     6.1083   6.1982   6.1982   6.2986   6.3283   6.5693   6.5693   6.5991
     6.5991   6.6813   6.7021   6.8009   6.8009   6.8057   6.8113   7.3149
     7.5371   7.5685   7.5685   7.6116   7.6405   7.6481   7.6481   7.6594
     7.6887   7.7090   7.7090   7.7879   7.7879   7.8044   7.8669   7.8669
     7.9034   7.9137   7.9594   7.9896   8.0215   8.2428   8.2428   8.4261
     8.4261   8.6075   8.6908   8.6908   8.6994   8.7625   9.0099   9.0099
     9.1100   9.1129   9.1329   9.2060   9.2162   9.2725   9.3314   9.4161
     9.4161   9.4425   9.4425   9.4746   9.5149   9.5149   9.6054   9.6054
     9.9380   9.9416  10.0390  10.0769  10.0839  10.0839  10.1492  10.1713
    12.6307  12.7650  12.7741  12.7782  12.7782  12.8778  13.7240  13.7506
    13.7506  13.7774  13.7774  13.8391  13.8576  13.8576  13.9812  14.0141
    14.0573  14.0573  14.1536  14.2894  14.2895  14.3709  14.4558  14.4660
    14.8022  14.8290  14.8290  15.1135  15.1373  15.1410  15.7429  15.7429
    15.9471  16.0370  16.3518  16.3518  16.8052  17.2378  17.2698  17.3220

          k = 0.2500 0.2500 0.2473 ( 50073 PWs)   bands (ev):

   -46.1066 -46.1060 -46.1059 -46.1059 -46.1053 -46.1053 -46.1051 -46.1045
   -22.4344 -22.4321 -22.4321 -22.4302 -22.4006 -22.3989 -22.3989 -22.3974
   -22.3793 -22.3793 -22.3773 -22.3773 -22.3773 -22.3769 -22.3755 -22.3753
   -22.3415 -22.3412 -22.3400 -22.3398 -22.3397 -22.3397 -22.3384 -22.3384
   -14.4102 -14.3392 -14.3327 -14.3327 -14.2805 -14.2805 -14.2747 -14.2295
    -6.5952  -6.5952  -6.5432  -6.5156  -6.3146  -6.2449  -6.2448  -5.9233
    -5.8885  -5.8488  -5.8488  -5.8249  -5.8249  -5.7934  -5.7801  -5.7571
    -5.7329  -5.7075  -5.7068  -5.6970  -5.6969  -5.6329  -5.6329  -5.6289
    -0.1619  -0.1266   0.1462   0.2267   0.2524   0.2525   0.2868   0.3128
     0.3128   0.3676   0.3739   0.3794   0.3920   0.3920   0.4845   0.4845
     0.5030   0.6146   0.6352   0.6406   0.6406   0.7174   0.7174   0.7312
     6.2392   6.3302   6.3414   6.3414   6.5152   6.5664   6.5664   6.6670
     6.6670   6.7905   6.8054   6.8097   6.8334   6.9016   6.9016   7.3631
     7.4061   7.4061   7.4797   7.4964   7.6530   7.6530   7.6581   7.6625
     7.6625   7.7036   7.7932   7.7933   7.8118   7.8288   7.8395   7.8589
     7.8589   7.8810   7.8968   7.9087   8.0628   8.0628   8.0755   8.3541
     8.4550   8.4550   8.5008   8.5264   8.7299   8.7299   8.9632   9.1453
     9.1720   9.1985   9.1985   9.2282   9.3011   9.3011   9.3087   9.3859
     9.3859   9.4241   9.4363   9.5024   9.5024   9.5345   9.5525   9.5525
     9.8097   9.8616   9.8997   9.9581  10.0128  10.0128  10.1557  10.1637
    12.7402  12.8582  12.8998  12.9221  12.9796  12.9796  13.7722  13.7722
    13.7876  13.8105  13.8105  13.8250  13.8268  13.8268  13.8297  13.8916
    13.8916  13.9138  14.1714  14.1714  14.1851  14.3202  14.3408  14.3635
    15.1185  15.1332  15.1564  15.1564  15.2010  15.5881  15.7268  15.7269
    16.1701  16.2983  16.4615  16.4615  16.5855  17.1569  17.3594  17.4080

          k = 0.2500 0.2500-0.4946 ( 50066 PWs)   bands (ev):

   -46.1063 -46.1063 -46.1056 -46.1056 -46.1056 -46.1056 -46.1048 -46.1048
   -22.4175 -22.4175 -22.4156 -22.4156 -22.4155 -22.4155 -22.4138 -22.4138
   -22.3783 -22.3783 -22.3783 -22.3783 -22.3764 -22.3764 -22.3761 -22.3761
   -22.3408 -22.3408 -22.3405 -22.3405 -22.3391 -22.3391 -22.3391 -22.3391
   -14.3750 -14.3750 -14.3068 -14.3068 -14.3068 -14.3067 -14.2522 -14.2522
    -6.4991  -6.4990  -6.4257  -6.4257  -6.4256  -6.4255  -6.1324  -6.1322
    -5.8696  -5.8695  -5.8266  -5.8266  -5.8266  -5.8266  -5.7754  -5.7753
    -5.6972  -5.6971  -5.6820  -5.6819  -5.6724  -5.6724  -5.6723  -5.6723
     0.0256   0.0257   0.0293   0.0294   0.3044   0.3044   0.3045   0.3045
     0.3739   0.3740   0.3793   0.3793   0.3794   0.3794   0.3969   0.3970
     0.4292   0.4292   0.7131   0.7132   0.7132   0.7132   0.7180   0.7180
     6.3306   6.3307   6.4897   6.4897   6.4898   6.4898   6.8066   6.8067
     7.0082   7.0082   7.0083   7.0083   7.0262   7.0263   7.1051   7.1051
     7.2964   7.2964   7.2965   7.2965   7.4137   7.4138   7.5654   7.5655
     7.6818   7.6818   7.6819   7.6819   7.7781   7.7782   7.8715   7.8715
     7.9332   7.9332   8.0062   8.0062   8.0063   8.0063   8.1842   8.1843
     8.2361   8.2362   8.5177   8.5177   8.5177   8.5178   8.9305   8.9305
     9.2523   9.2523   9.2523   9.2523   9.2936   9.2936   9.4553   9.4554
     9.4554   9.4554   9.5525   9.5526   9.6442   9.6442   9.6896   9.6897
     9.6947   9.6947   9.7614   9.7614   9.7614   9.7614  10.1547  10.1549
    12.8083  12.8084  13.3384  13.3384  13.3647  13.3648  13.4319  13.4320
    13.4320  13.4320  13.8136  13.8136  13.8136  13.8136  13.9494  13.9494
    13.9494  13.9495  14.0769  14.0770  14.1089  14.1090  14.2635  14.2635
    15.1263  15.1264  15.5937  15.5937  15.5937  15.5937  15.9761  15.9762
    16.5092  16.5094  16.7283  16.7285  16.9206  16.9206  16.9207  16.9207

          k = 0.2500-0.5000 0.0000 ( 49990 PWs)   bands (ev):

   -46.1064 -46.1064 -46.1056 -46.1056 -46.1055 -46.1055 -46.1048 -46.1048
   -22.4401 -22.4401 -22.4379 -22.4379 -22.3928 -22.3928 -22.3913 -22.3913
   -22.3786 -22.3786 -22.3760 -22.3760 -22.3608 -22.3608 -22.3588 -22.3588
   -22.3583 -22.3583 -22.3567 -22.3567 -22.3408 -22.3408 -22.3389 -22.3389
   -14.3844 -14.3843 -14.3139 -14.3139 -14.2971 -14.2971 -14.2449 -14.2449
    -6.5801  -6.5801  -6.5189  -6.5189  -6.3842  -6.3841  -5.9775  -5.9775
    -5.8441  -5.8441  -5.8157  -5.8157  -5.7907  -5.7907  -5.7859  -5.7859
    -5.7428  -5.7428  -5.7198  -5.7197  -5.6777  -5.6777  -5.6554  -5.6554
    -0.0459  -0.0459   0.0990   0.0990   0.2655   0.2655   0.2859   0.2859
     0.3597   0.3597   0.3902   0.3902   0.4725   0.4725   0.4896   0.4896
     0.5710   0.5710   0.6171   0.6171   0.6264   0.6264   0.6309   0.6309
     6.1860   6.1860   6.2706   6.2706   6.5044   6.5044   6.7049   6.7049
     6.8717   6.8717   7.1079   7.1079   7.1163   7.1163   7.1397   7.1397
     7.2749   7.2749   7.2936   7.2936   7.3520   7.3520   7.6226   7.6226
     7.7083   7.7083   7.7176   7.7176   7.8648   7.8648   7.8859   7.8859
     7.9234   7.9234   8.0060   8.0060   8.0558   8.0558   8.2477   8.2478
     8.4625   8.4625   8.6034   8.6034   8.7042   8.7042   8.8237   8.8237
     9.1199   9.1199   9.1330   9.1330   9.2421   9.2421   9.3378   9.3378
     9.3927   9.3927   9.6798   9.6798   9.7455   9.7455   9.7478   9.7478
     9.7595   9.7595   9.7874   9.7874   9.9211   9.9211  10.0954  10.0954
    12.7286  12.7286  13.2207  13.2208  13.2407  13.2407  13.2665  13.2665
    13.3809  13.3809  13.7821  13.7821  13.9097  13.9097  14.0253  14.0253
    14.0966  14.0966  14.0990  14.0990  14.2304  14.2304  14.3752  14.3752
    14.8438  14.8438  15.0951  15.0951  15.5788  15.5788  15.8378  15.8378
    16.6433  16.6434  16.6540  16.6540  16.7701  16.7701  16.9860  16.9860

          k = 0.2500-0.5000 0.2473 ( 50076 PWs)   bands (ev):

   -46.1062 -46.1062 -46.1056 -46.1056 -46.1055 -46.1055 -46.1049 -46.1049
   -22.4332 -22.4332 -22.4311 -22.4311 -22.3997 -22.3997 -22.3981 -22.3981
   -22.3782 -22.3782 -22.3764 -22.3764 -22.3604 -22.3604 -22.3586 -22.3586
   -22.3585 -22.3585 -22.3570 -22.3570 -22.3405 -22.3405 -22.3391 -22.3391
   -14.3718 -14.3718 -14.3101 -14.3101 -14.3039 -14.3039 -14.2551 -14.2551
    -6.5309  -6.5309  -6.4494  -6.4493  -6.3852  -6.3852  -6.0758  -6.0757
    -5.8523  -5.8523  -5.8307  -5.8307  -5.7905  -5.7905  -5.7750  -5.7750
    -5.7475  -5.7474  -5.7227  -5.7227  -5.6827  -5.6827  -5.6635  -5.6635
     0.0122   0.0122   0.0688   0.0688   0.2792   0.2792   0.2808   0.2808
     0.3761   0.3761   0.3812   0.3813   0.3887   0.3887   0.4106   0.4106
     0.4294   0.4294   0.7059   0.7059   0.7139   0.7139   0.7143   0.7143
     6.3348   6.3348   6.4616   6.4616   6.4826   6.4826   6.7707   6.7707
     6.9519   6.9519   7.0536   7.0536   7.0781   7.0781   7.0988   7.0988
     7.3032   7.3033   7.3626   7.3627   7.4068   7.4069   7.5958   7.5959
     7.7074   7.7074   7.7114   7.7114   7.7732   7.7732   7.8784   7.8784
     7.9629   7.9629   7.9654   7.9654   7.9861   7.9861   8.1985   8.1985
     8.2537   8.2537   8.4162   8.4162   8.6269   8.6269   8.7458   8.7458
     9.2557   9.2557   9.2658   9.2658   9.2974   9.2974   9.3565   9.3566
     9.4734   9.4734   9.6104   9.6104   9.6181   9.6181   9.7148   9.7148
     9.7583   9.7583   9.8070   9.8070   9.8923   9.8923  10.0107  10.0107
    12.9268  12.9269  13.2740  13.2740  13.3215  13.3215  13.3605  13.3605
    13.3867  13.3867  13.8407  13.8407  13.8425  13.8425  13.9321  13.9321
    13.9401  13.9401  14.0503  14.0503  14.0952  14.0952  14.2589  14.2589
    15.1756  15.1756  15.5236  15.5236  15.5749  15.5749  15.9228  15.9228
    16.6548  16.6548  16.8088  16.8088  16.9860  16.9916  16.9916  17.0142

          k = 0.2500-0.5000-0.4946 ( 50108 PWs)   bands (ev):

   -46.1059 -46.1059 -46.1059 -46.1059 -46.1052 -46.1052 -46.1052 -46.1052
   -22.4165 -22.4165 -22.4165 -22.4165 -22.4147 -22.4147 -22.4147 -22.4147
   -22.3773 -22.3773 -22.3773 -22.3773 -22.3595 -22.3595 -22.3595 -22.3595
   -22.3577 -22.3577 -22.3577 -22.3577 -22.3398 -22.3398 -22.3398 -22.3398
   -14.3412 -14.3412 -14.3411 -14.3411 -14.2797 -14.2797 -14.2796 -14.2796
    -6.4327  -6.4327  -6.4326  -6.4326  -6.2729  -6.2729  -6.2728  -6.2728
    -5.8670  -5.8670  -5.8669  -5.8669  -5.7662  -5.7662  -5.7661  -5.7661
    -5.7389  -5.7388  -5.7387  -5.7387  -5.6823  -5.6823  -5.6822  -5.6821
     0.1167   0.1167   0.1167   0.1167   0.1869   0.1869   0.1869   0.1870
     0.3152   0.3152   0.3153   0.3153   0.3630   0.3630   0.3630   0.3630
     0.6296   0.6296   0.6297   0.6297   0.7686   0.7686   0.7686   0.7686
     6.4468   6.4468   6.4469   6.4469   6.8135   6.8135   6.8136   6.8136
     7.0086   7.0086   7.0087   7.0087   7.2483   7.2483   7.2484   7.2484
     7.2640   7.2640   7.2640   7.2640   7.4842   7.4842   7.4842   7.4842
     7.5688   7.5688   7.5688   7.5688   7.8981   7.8982   7.8982   7.8982
     7.9078   7.9078   7.9078   7.9079   8.0505   8.0505   8.0506   8.0506
     8.1179   8.1179   8.1180   8.1180   8.5524   8.5525   8.5525   8.5525
     9.3734   9.3734   9.3735   9.3735   9.4402   9.4402   9.4402   9.4402
     9.5373   9.5373   9.5374   9.5374   9.6844   9.6844   9.6844   9.6844
     9.7371   9.7371   9.7371   9.7371   9.8630   9.8630   9.8631   9.8631
    13.2874  13.2874  13.2875  13.2875  13.4256  13.4256  13.4256  13.4257
    13.5818  13.5818  13.5818  13.5818  13.7245  13.7245  13.7246  13.7246
    13.9911  13.9911  13.9911  13.9911  14.0389  14.0389  14.0390  14.0390
    15.5173  15.5173  15.5173  15.5174  16.3413  16.3413  16.3414  16.3414
    16.4132  16.4133  16.4134  16.4134  17.0639  17.0639  17.0639  17.0640

          k =-0.5000-0.5000 0.0000 ( 50056 PWs)   bands (ev):

   -46.1060 -46.1060 -46.1060 -46.1060 -46.1051 -46.1051 -46.1051 -46.1051
   -22.4390 -22.4390 -22.4390 -22.4390 -22.3920 -22.3920 -22.3920 -22.3920
   -22.3602 -22.3602 -22.3602 -22.3602 -22.3594 -22.3594 -22.3594 -22.3594
   -22.3577 -22.3577 -22.3577 -22.3577 -22.3573 -22.3573 -22.3573 -22.3573
   -14.3495 -14.3494 -14.3494 -14.3494 -14.2712 -14.2711 -14.2711 -14.2711
    -6.5256  -6.5256  -6.5256  -6.5256  -6.1935  -6.1935  -6.1935  -6.1935
    -5.8016  -5.8016  -5.8016  -5.8016  -5.7782  -5.7782  -5.7782  -5.7782
    -5.7755  -5.7755  -5.7755  -5.7755  -5.6797  -5.6797  -5.6797  -5.6797
     0.0554   0.0554   0.0555   0.0555   0.2889   0.2890   0.2890   0.2890
     0.3386   0.3386   0.3387   0.3387   0.5047   0.5047   0.5047   0.5047
     0.5339   0.5339   0.5339   0.5339   0.6463   0.6463   0.6463   0.6463
     6.2600   6.2600   6.2600   6.2600   6.8936   6.8936   6.8936   6.8936
     6.9106   6.9106   6.9106   6.9106   7.3028   7.3028   7.3028   7.3028
     7.3161   7.3161   7.3161   7.3161   7.3693   7.3693   7.3693   7.3693
     7.6955   7.6955   7.6955   7.6955   7.8489   7.8489   7.8489   7.8489
     7.9065   7.9065   7.9065   7.9065   8.2210   8.2210   8.2210   8.2210
     8.2416   8.2416   8.2416   8.2416   8.5208   8.5208   8.5208   8.5208
     9.2559   9.2559   9.2559   9.2559   9.4836   9.4836   9.4836   9.4836
     9.5176   9.5176   9.5176   9.5176   9.6879   9.6879   9.6879   9.6879
     9.7764   9.7764   9.7764   9.7764   9.8984   9.8984   9.8984   9.8984
    13.1217  13.1217  13.1217  13.1217  13.3411  13.3411  13.3411  13.3411
    13.5366  13.5366  13.5366  13.5366  13.7311  13.7311  13.7311  13.7312
    14.1453  14.1453  14.1453  14.1453  14.1804  14.1804  14.1804  14.1804
    15.0662  15.0663  15.0663  15.0663  16.3598  16.3598  16.3598  16.3599
    16.4412  16.4412  16.4412  16.4412  17.1352  17.3270  17.3275  17.3277

          k =-0.5000-0.5000 0.2473 ( 50036 PWs)   bands (ev):

   -46.1059 -46.1059 -46.1059 -46.1059 -46.1053 -46.1053 -46.1053 -46.1053
   -22.4322 -22.4322 -22.4322 -22.4322 -22.3989 -22.3989 -22.3989 -22.3989
   -22.3598 -22.3598 -22.3598 -22.3598 -22.3591 -22.3591 -22.3591 -22.3591
   -22.3580 -22.3580 -22.3580 -22.3580 -22.3576 -22.3576 -22.3576 -22.3576
   -14.3382 -14.3381 -14.3381 -14.3381 -14.2828 -14.2828 -14.2828 -14.2828
    -6.4661  -6.4661  -6.4661  -6.4661  -6.2210  -6.2210  -6.2210  -6.2210
    -5.8218  -5.8218  -5.8218  -5.8218  -5.7927  -5.7927  -5.7927  -5.7927
    -5.7642  -5.7642  -5.7642  -5.7642  -5.6946  -5.6945  -5.6945  -5.6945
     0.0972   0.0972   0.0972   0.0972   0.2232   0.2233   0.2233   0.2233
     0.2974   0.2974   0.2975   0.2975   0.3654   0.3654   0.3654   0.3654
     0.6312   0.6312   0.6312   0.6312   0.7637   0.7637   0.7637   0.7637
     6.4375   6.4375   6.4375   6.4375   6.8104   6.8104   6.8104   6.8104
     6.9216   6.9216   6.9216   6.9216   7.3090   7.3090   7.3090   7.3090
     7.3574   7.3575   7.3575   7.3575   7.4803   7.4803   7.4803   7.4804
     7.5471   7.5471   7.5471   7.5471   7.9219   7.9219   7.9219   7.9219
     7.9221   7.9221   7.9221   7.9221   8.1334   8.1334   8.1334   8.1334
     8.1336   8.1336   8.1336   8.1336   8.3439   8.3439   8.3439   8.3439
     9.4067   9.4067   9.4067   9.4067   9.4424   9.4424   9.4424   9.4424
     9.5505   9.5505   9.5505   9.5505   9.6777   9.6777   9.6777   9.6777
     9.7792   9.7792   9.7792   9.7792   9.8490   9.8490   9.8490   9.8490
    13.2757  13.2757  13.2757  13.2758  13.4221  13.4221  13.4221  13.4221
    13.5710  13.5710  13.5710  13.5710  13.7004  13.7004  13.7004  13.7004
    13.9858  13.9858  13.9858  13.9858  14.0253  14.0253  14.0253  14.0253
    15.4972  15.4972  15.4972  15.4972  16.3779  16.3779  16.3779  16.3779
    16.4337  16.4337  16.4337  16.4337  17.0859  17.0859  17.0859  17.0859

          k =-0.5000-0.5000-0.4946 ( 50144 PWs)   bands (ev):

   -46.1056 -46.1056 -46.1056 -46.1056 -46.1056 -46.1056 -46.1056 -46.1056
   -22.4156 -22.4156 -22.4156 -22.4156 -22.4156 -22.4156 -22.4156 -22.4156
   -22.3589 -22.3589 -22.3589 -22.3589 -22.3589 -22.3589 -22.3589 -22.3589
   -22.3583 -22.3583 -22.3583 -22.3583 -22.3583 -22.3583 -22.3583 -22.3583
   -14.3107 -14.3107 -14.3107 -14.3107 -14.3107 -14.3106 -14.3106 -14.3106
    -6.3291  -6.3291  -6.3291  -6.3291  -6.3290  -6.3290  -6.3290  -6.3290
    -5.8244  -5.8244  -5.8244  -5.8244  -5.8243  -5.8243  -5.8243  -5.8243
    -5.7299  -5.7299  -5.7299  -5.7299  -5.7298  -5.7297  -5.7297  -5.7297
     0.1975   0.1975   0.1975   0.1976   0.1976   0.1976   0.1976   0.1976
     0.2264   0.2264   0.2264   0.2264   0.2264   0.2265   0.2265   0.2265
     0.7701   0.7701   0.7702   0.7702   0.7702   0.7702   0.7702   0.7702
     6.6555   6.6555   6.6555   6.6555   6.6556   6.6556   6.6556   6.6556
     7.2409   7.2409   7.2409   7.2409   7.2410   7.2410   7.2410   7.2410
     7.3302   7.3302   7.3302   7.3302   7.3303   7.3303   7.3303   7.3303
     7.8472   7.8473   7.8473   7.8473   7.8473   7.8473   7.8473   7.8473
     7.9843   7.9843   7.9843   7.9843   7.9844   7.9844   7.9844   7.9844
     7.9898   7.9899   7.9899   7.9899   7.9899   7.9899   7.9899   7.9900
     9.5763   9.5763   9.5763   9.5763   9.5763   9.5763   9.5763   9.5763
     9.5815   9.5815   9.5815   9.5815   9.5816   9.5816   9.5816   9.5816
     9.7721   9.7721   9.7721   9.7721   9.7722   9.7722   9.7722   9.7722
    13.5913  13.5913  13.5913  13.5913  13.5913  13.5913  13.5913  13.5914
    13.6647  13.6647  13.6647  13.6647  13.6648  13.6648  13.6648  13.6648
    13.6946  13.6946  13.6946  13.6946  13.6946  13.6946  13.6946  13.6946
    16.3786  16.3786  16.3786  16.3786  16.3788  16.3788  16.3788  16.3788
    16.4106  16.4106  16.4106  16.4106  16.4106  16.4107  16.4107  16.4107

     highest occupied, lowest unoccupied level (ev):    10.4077   12.2288

!    total energy              =   -5964.63708065 Ry
     total all-electron energy =   -147449.090653 Ry
     estimated scf accuracy    <          4.8E-11 Ry

     The total energy is the sum of the following terms:
     one-electron contribution =    -550.52052674 Ry
     hartree contribution      =     483.91575636 Ry
     xc contribution           =    -491.51476095 Ry
     ewald contribution        =   -1653.96634398 Ry
     one-center paw contrib.   =   -3752.55120534 Ry

     convergence has been achieved in   5 iterations

     Forces acting on atoms (cartesian axes, Ry/au):

     atom    1 type  1   force =     0.00000000    0.00000000   -0.00098014
     atom    2 type  1   force =     0.00000000    0.00000000   -0.00094513
     atom    3 type  1   force =     0.00000000    0.00000000   -0.00096593
     atom    4 type  1   force =     0.00000000    0.00000000   -0.00095366
     atom    5 type  1   force =     0.00000000    0.00000000   -0.00096593
     atom    6 type  1   force =     0.00000000    0.00000000   -0.00095366
     atom    7 type  1   force =     0.00000000    0.00000000   -0.00098508
     atom    8 type  1   force =     0.00000000    0.00000000   -0.00094496
     atom    9 type  2   force =    -0.00000120   -0.00000120    0.00024800
     atom   10 type  2   force =    -0.00000186   -0.00000186    0.00025510
     atom   11 type  2   force =    -0.00000120    0.00000120    0.00024800
     atom   12 type  2   force =    -0.00000186    0.00000186    0.00025510
     atom   13 type  2   force =     0.00000120   -0.00000120    0.00024800
     atom   14 type  2   force =     0.00000186   -0.00000186    0.00025510
     atom   15 type  2   force =     0.00000120    0.00000120    0.00024800
     atom   16 type  2   force =     0.00000186    0.00000186    0.00025510
     atom   17 type  3   force =    -0.00000140   -0.00000140   -0.00014525
     atom   18 type  3   force =    -0.00000232   -0.00000232   -0.00013566
     atom   19 type  3   force =    -0.00000140    0.00000140   -0.00014525
     atom   20 type  3   force =    -0.00000232    0.00000232   -0.00013566
     atom   21 type  3   force =     0.00000140   -0.00000140   -0.00014525
     atom   22 type  3   force =     0.00000232   -0.00000232   -0.00013566
     atom   23 type  3   force =     0.00000140    0.00000140   -0.00014525
     atom   24 type  3   force =     0.00000232    0.00000232   -0.00013566
     atom   25 type  3   force =    -0.00000189    0.00000000    0.00041958
     atom   26 type  3   force =    -0.00000556    0.00000000    0.00042421
     atom   27 type  3   force =     0.00000078   -0.00000000    0.00042410
     atom   28 type  3   force =     0.00000307    0.00000000    0.00043354
     atom   29 type  3   force =     0.00000189    0.00000000    0.00041958
     atom   30 type  3   force =     0.00000556    0.00000000    0.00042421
     atom   31 type  3   force =    -0.00000078    0.00000000    0.00042410
     atom   32 type  3   force =    -0.00000307    0.00000000    0.00043354
     atom   33 type  3   force =     0.00000000   -0.00000189    0.00041958
     atom   34 type  3   force =     0.00000000   -0.00000556    0.00042421
     atom   35 type  3   force =     0.00000000    0.00000189    0.00041958
     atom   36 type  3   force =     0.00000000    0.00000556    0.00042421
     atom   37 type  3   force =     0.00000000    0.00000078    0.00042410
     atom   38 type  3   force =     0.00000000    0.00000307    0.00043354
     atom   39 type  3   force =     0.00000000   -0.00000078    0.00042410
     atom   40 type  3   force =     0.00000000   -0.00000307    0.00043354

     Total force =     0.003311     Total SCF correction =     0.000024


     Computing stress (Cartesian axis) and pressure

          total   stress  (Ry/bohr**3)                   (kbar)     P=       43.11
   0.00026336   0.00000000   0.00000000           38.74        0.00        0.00
   0.00000000   0.00026336   0.00000000            0.00       38.74        0.00
   0.00000000   0.00000000   0.00035240            0.00        0.00       51.84


     Writing all to output data dir ./tmp/90_ecut_4_kmesh_PBE.save/ :
     XML data file, charge density, pseudopotentials, collected wavefunctions

     init_run     :      2.28s CPU      3.48s WALL (       1 calls)
     electrons    :     16.34s CPU     16.70s WALL (       1 calls)
     forces       :      0.89s CPU      0.92s WALL (       1 calls)
     stress       :      2.15s CPU      2.19s WALL (       1 calls)

     Called by init_run:
     wfcinit      :      0.50s CPU      1.61s WALL (       1 calls)
     potinit      :      0.68s CPU      0.73s WALL (       1 calls)
     hinit0       :      0.21s CPU      0.22s WALL (       1 calls)

     Called by electrons:
     c_bands      :     12.96s CPU     13.14s WALL (       6 calls)
     sum_band     :      2.15s CPU      2.21s WALL (       6 calls)
     v_of_rho     :      0.41s CPU      0.45s WALL (       6 calls)
     newd         :      0.71s CPU      0.72s WALL (       6 calls)
     PAW_pot      :      0.29s CPU      0.29s WALL (       6 calls)
     mix_rho      :      0.01s CPU      0.02s WALL (       6 calls)

     Called by c_bands:
     init_us_2    :      0.34s CPU      0.35s WALL (      42 calls)
     cegterg      :     11.96s CPU     12.12s WALL (      18 calls)

     Called by *egterg:
     cdiaghg      :      1.17s CPU      1.20s WALL (      79 calls)
     h_psi        :      6.08s CPU      6.16s WALL (      85 calls)
     s_psi        :      0.91s CPU      0.92s WALL (      85 calls)
     g_psi        :      0.01s CPU      0.01s WALL (      67 calls)

     Called by h_psi:
     h_psi:calbec :      1.23s CPU      1.26s WALL (      85 calls)
     vloc_psi     :      3.88s CPU      3.93s WALL (      85 calls)
                                        0.00s GPU  (      85 calls)
     add_vuspsi   :      0.92s CPU      0.92s WALL (      85 calls)

     General routines
     calbec       :      3.66s CPU      3.74s WALL (     154 calls)
     fft          :      0.54s CPU      0.62s WALL (     102 calls)
     ffts         :      0.54s CPU      0.55s WALL (      12 calls)
     fftw         :      4.63s CPU      4.68s WALL (   19906 calls)
     interpolate  :      0.56s CPU      0.56s WALL (       6 calls)

     Parallel routines

     PWSCF        :     23.00s CPU     26.06s WALL


   This run was terminated on:   0:16:48  21May2026            

=------------------------------------------------------------------------------=
   JOB DONE.
=------------------------------------------------------------------------------=
