
     Program PWSCF v.7.5 starts on 21May2026 at  0:12:45 

     This program is part of the open-source Quantum ESPRESSO suite
     for quantum simulation of materials; please cite
         "P. Giannozzi et al., J. Phys.:Condens. Matter 21 395502 (2009);
         "P. Giannozzi et al., J. Phys.:Condens. Matter 29 465901 (2017);
         "P. Giannozzi et al., J. Chem. Phys. 152 154105 (2020);
          URL http://www.quantum-espresso.org", 
     in publications or presentations arising from this work. More details at
     http://www.quantum-espresso.org/quote

     Parallel version (MPI & OpenMP), running on     192 processor cores
     Number of MPI processes:               192
     Threads/MPI process:                     1

     MPI processes distributed on     1 nodes
     390499 MiB available memory on the printing compute node when the environment starts

     Waiting for input...
     Reading input from standard input

     Current dimensions of program PWSCF are:
     Max number of different atomic species (ntypx) = 10
     Max number of k-points (npk) =  40000
     Max angular momentum in pseudopotentials (lmaxx) =  4
     file Ba.pbe-spn-kjpaw_psl.1.0.0.UPF: wavefunction(s)  5S 6S renormalized
     file Ti.pbe-spn-kjpaw_psl.1.0.0.UPF: wavefunction(s)  3S 3P 3D renormalized
     file O.pbe-n-kjpaw_psl.1.0.0.UPF: wavefunction(s)  2S 2P renormalized

     IMPORTANT: XC functional enforced from input :
     Exchange-correlation= PBE
                           (   1   4   3   4   0   0   0)
     Any further DFT definition will be discarded
     Please, verify this is what you really want

     Found identity + ( -0.5000 -0.5000  0.0000) symmetry
     This is a supercell, fractional translations are disabled

     K-points division:     npool     =       8
     R & G space division:  proc/nbgrp/npool/nimage =      24
     Subspace diagonalization in iterative solution of the eigenvalue problem:
     one sub-group per band group will be used
     ELPA distributed-memory algorithm (size of sub-group:  2*  2 procs)


     Parallelization info
     --------------------
     sticks:   dense  smooth     PW     G-vecs:    dense   smooth      PW
     Min         240     120     33                13981     4944     727
     Max         242     122     34                13987     4947     732
     Sum        5785    2893    805               335575   118681   17493

     Using Slab Decomposition



     bravais-lattice index     =            6
     lattice parameter (alat)  =      15.0876  a.u.
     unit-cell volume          =    3472.3239 (a.u.)^3
     number of atoms/cell      =           40
     number of atomic types    =            3
     number of electrons       =       320.00
     number of Kohn-Sham states=          200
     kinetic-energy cutoff     =      40.0000  Ry
     charge density cutoff     =     320.0000  Ry
     scf convergence threshold =      1.0E-10
     mixing beta               =       0.3000
     number of iterations used =           16  plain     mixing
     Exchange-correlation= PBE
                           (   1   4   3   4   0   0   0)

     celldm(1)=  15.087600  celldm(2)=   0.000000  celldm(3)=   1.011020
     celldm(4)=   0.000000  celldm(5)=   0.000000  celldm(6)=   0.000000

     crystal axes: (cart. coord. in units of alat)
               a(1) = (   1.000000   0.000000   0.000000 )  
               a(2) = (   0.000000   1.000000   0.000000 )  
               a(3) = (   0.000000   0.000000   1.011020 )  

     reciprocal axes: (cart. coord. in units 2 pi/alat)
               b(1) = (  1.000000  0.000000  0.000000 )  
               b(2) = (  0.000000  1.000000  0.000000 )  
               b(3) = (  0.000000  0.000000  0.989100 )  


     PseudoPot. # 1 for Ba read from file:
     /home/kylay/scratch/BTO/pseuds/Ba.pbe-spn-kjpaw_psl.1.0.0.UPF
     MD5 check sum: 7cfe25f1fe7574a4710541d5a11d6531
     Pseudo is Projector augmented-wave + core cor, Zval = 10.0
     Generated using &quot;atomic&quot; code by A. Dal Corso  v.6.2.2
     Shape of augmentation charge: PSQ
     Using radial grid of 1251 points,  7 beta functions with: 
                l(1) =   0
                l(2) =   0
                l(3) =   0
                l(4) =   1
                l(5) =   1
                l(6) =   2
                l(7) =   2
     Q(r) pseudized with 0 coefficients 


     PseudoPot. # 2 for Ti read from file:
     /home/kylay/scratch/BTO/pseuds/Ti.pbe-spn-kjpaw_psl.1.0.0.UPF
     MD5 check sum: 01f69b0d8ba4438b2e03ac6ea4af1c0b
     Pseudo is Projector augmented-wave + core cor, Zval = 12.0
     Generated using &quot;atomic&quot; code by A. Dal Corso  v.6.2.2
     Shape of augmentation charge: PSQ
     Using radial grid of 1177 points,  6 beta functions with: 
                l(1) =   0
                l(2) =   0
                l(3) =   1
                l(4) =   1
                l(5) =   2
                l(6) =   2
     Q(r) pseudized with 0 coefficients 


     PseudoPot. # 3 for O  read from file:
     /home/kylay/scratch/BTO/pseuds/O.pbe-n-kjpaw_psl.1.0.0.UPF
     MD5 check sum: e99d9cef9b487d1ca56f5b95ecd0fd7a
     Pseudo is Projector augmented-wave + core cor, Zval =  6.0
     Generated using &quot;atomic&quot; code by A. Dal Corso  v.6.3
     Shape of augmentation charge: PSQ
     Using radial grid of 1095 points,  4 beta functions with: 
                l(1) =   0
                l(2) =   0
                l(3) =   1
                l(4) =   1
     Q(r) pseudized with 0 coefficients 


     atomic species   valence    mass     pseudopotential
     Ba               10.00   137.32700     Ba( 1.00)
     Ti               12.00    47.86700     Ti( 1.00)
     O                 6.00    15.99900     O ( 1.00)

      8 Sym. Ops. (no inversion) found



   Cartesian axes

     site n.     atom                  positions (alat units)
         1        Ba     tau(   1) = (   0.0000000   0.0000000  -0.0010787  )
         2        Ba     tau(   2) = (   0.0000000   0.0000000   0.5044220  )
         3        Ba     tau(   3) = (   0.0000000   0.5000000  -0.0010832  )
         4        Ba     tau(   4) = (   0.0000000   0.5000000   0.5044235  )
         5        Ba     tau(   5) = (   0.5000000   0.0000000  -0.0010832  )
         6        Ba     tau(   6) = (   0.5000000   0.0000000   0.5044235  )
         7        Ba     tau(   7) = (   0.5000000   0.5000000  -0.0010766  )
         8        Ba     tau(   8) = (   0.5000000   0.5000000   0.5044202  )
         9        Ti     tau(   9) = (   0.2500002   0.2500002   0.2436990  )
        10        Ti     tau(  10) = (   0.2500007   0.2500007   0.7492042  )
        11        Ti     tau(  11) = (   0.2500002   0.7499998   0.2436990  )
        12        Ti     tau(  12) = (   0.2500007   0.7499993   0.7492042  )
        13        Ti     tau(  13) = (   0.7499998   0.2500002   0.2436990  )
        14        Ti     tau(  14) = (   0.7499993   0.2500007   0.7492042  )
        15        Ti     tau(  15) = (   0.7499998   0.7499998   0.2436990  )
        16        Ti     tau(  16) = (   0.7499993   0.7499993   0.7492042  )
        17        O      tau(  17) = (   0.2500011   0.2500011   0.0113903  )
        18        O      tau(  18) = (   0.2500007   0.2500007   0.5168954  )
        19        O      tau(  19) = (   0.2500011   0.7499989   0.0113903  )
        20        O      tau(  20) = (   0.2500007   0.7499993   0.5168954  )
        21        O      tau(  21) = (   0.7499989   0.2500011   0.0113903  )
        22        O      tau(  22) = (   0.7499993   0.2500007   0.5168954  )
        23        O      tau(  23) = (   0.7499989   0.7499989   0.0113903  )
        24        O      tau(  24) = (   0.7499993   0.7499993   0.5168954  )
        25        O      tau(  25) = (   0.2500005   0.0000000   0.2592128  )
        26        O      tau(  26) = (   0.2500020   0.0000000   0.7647195  )
        27        O      tau(  27) = (   0.2499999   0.5000000   0.2592107  )
        28        O      tau(  28) = (   0.2499998   0.5000000   0.7647148  )
        29        O      tau(  29) = (   0.7499995   0.0000000   0.2592128  )
        30        O      tau(  30) = (   0.7499980   0.0000000   0.7647195  )
        31        O      tau(  31) = (   0.7500001   0.5000000   0.2592107  )
        32        O      tau(  32) = (   0.7500002   0.5000000   0.7647148  )
        33        O      tau(  33) = (   0.0000000   0.2500005   0.2592128  )
        34        O      tau(  34) = (   0.0000000   0.2500020   0.7647195  )
        35        O      tau(  35) = (   0.0000000   0.7499995   0.2592128  )
        36        O      tau(  36) = (   0.0000000   0.7499980   0.7647195  )
        37        O      tau(  37) = (   0.5000000   0.2499999   0.2592107  )
        38        O      tau(  38) = (   0.5000000   0.2499998   0.7647148  )
        39        O      tau(  39) = (   0.5000000   0.7500001   0.2592107  )
        40        O      tau(  40) = (   0.5000000   0.7500002   0.7647148  )

     number of k points=    40
                       cart. coord. in units 2pi/alat
        k(    1) = (   0.0000000   0.0000000   0.0000000), wk =   0.0092593
        k(    2) = (   0.0000000   0.0000000   0.1648500), wk =   0.0185185
        k(    3) = (   0.0000000   0.0000000   0.3297000), wk =   0.0185185
        k(    4) = (   0.0000000   0.0000000  -0.4945501), wk =   0.0092593
        k(    5) = (   0.0000000   0.1666667   0.0000000), wk =   0.0370370
        k(    6) = (   0.0000000   0.1666667   0.1648500), wk =   0.0740741
        k(    7) = (   0.0000000   0.1666667   0.3297000), wk =   0.0740741
        k(    8) = (   0.0000000   0.1666667  -0.4945501), wk =   0.0370370
        k(    9) = (   0.0000000   0.3333333   0.0000000), wk =   0.0370370
        k(   10) = (   0.0000000   0.3333333   0.1648500), wk =   0.0740741
        k(   11) = (   0.0000000   0.3333333   0.3297000), wk =   0.0740741
        k(   12) = (   0.0000000   0.3333333  -0.4945501), wk =   0.0370370
        k(   13) = (   0.0000000  -0.5000000   0.0000000), wk =   0.0185185
        k(   14) = (   0.0000000  -0.5000000   0.1648500), wk =   0.0370370
        k(   15) = (   0.0000000  -0.5000000   0.3297000), wk =   0.0370370
        k(   16) = (   0.0000000  -0.5000000  -0.4945501), wk =   0.0185185
        k(   17) = (   0.1666667   0.1666667   0.0000000), wk =   0.0370370
        k(   18) = (   0.1666667   0.1666667   0.1648500), wk =   0.0740741
        k(   19) = (   0.1666667   0.1666667   0.3297000), wk =   0.0740741
        k(   20) = (   0.1666667   0.1666667  -0.4945501), wk =   0.0370370
        k(   21) = (   0.1666667   0.3333333   0.0000000), wk =   0.0740741
        k(   22) = (   0.1666667   0.3333333   0.1648500), wk =   0.1481481
        k(   23) = (   0.1666667   0.3333333   0.3297000), wk =   0.1481481
        k(   24) = (   0.1666667   0.3333333  -0.4945501), wk =   0.0740741
        k(   25) = (   0.1666667  -0.5000000   0.0000000), wk =   0.0370370
        k(   26) = (   0.1666667  -0.5000000   0.1648500), wk =   0.0740741
        k(   27) = (   0.1666667  -0.5000000   0.3297000), wk =   0.0740741
        k(   28) = (   0.1666667  -0.5000000  -0.4945501), wk =   0.0370370
        k(   29) = (   0.3333333   0.3333333   0.0000000), wk =   0.0370370
        k(   30) = (   0.3333333   0.3333333   0.1648500), wk =   0.0740741
        k(   31) = (   0.3333333   0.3333333   0.3297000), wk =   0.0740741
        k(   32) = (   0.3333333   0.3333333  -0.4945501), wk =   0.0370370
        k(   33) = (   0.3333333  -0.5000000   0.0000000), wk =   0.0370370
        k(   34) = (   0.3333333  -0.5000000   0.1648500), wk =   0.0740741
        k(   35) = (   0.3333333  -0.5000000   0.3297000), wk =   0.0740741
        k(   36) = (   0.3333333  -0.5000000  -0.4945501), wk =   0.0370370
        k(   37) = (  -0.5000000  -0.5000000   0.0000000), wk =   0.0092593
        k(   38) = (  -0.5000000  -0.5000000   0.1648500), wk =   0.0185185
        k(   39) = (  -0.5000000  -0.5000000   0.3297000), wk =   0.0185185
        k(   40) = (  -0.5000000  -0.5000000  -0.4945501), wk =   0.0092593

     Dense  grid:   335575 G-vectors     FFT dimensions: (  90,  90,  90)

     Smooth grid:   118681 G-vectors     FFT dimensions: (  64,  64,  64)

     Estimated max dynamical RAM per process >      48.53 MB

     Estimated total dynamical RAM >       7.98 GB

     Check: negative core charge=   -0.000007

     The initial density is read from file :
     ./tmp/40_ecut_6_kmesh_PBE.save/charge-density

     Starting wfcs from file
     Checking if some PAW data can be deallocated... 

     total cpu time spent up to now is        3.5 secs

     per-process dynamical memory:   112.7 Mb

     Self-consistent Calculation

     iteration #  1     ecut=    40.00 Ry     beta= 0.30
     Davidson diagonalization with overlap
     ethr =  1.00E-05,  avg # of iterations =  1.0

     Threshold (ethr) on eigenvalues was too large:
     Diagonalizing with lowered threshold

     Davidson diagonalization with overlap
     ethr =  1.20E-13,  avg # of iterations =  4.2

     total cpu time spent up to now is        7.1 secs

     total energy              =   -5964.46998639 Ry
     estimated scf accuracy    <          5.5E-10 Ry

     iteration #  2     ecut=    40.00 Ry     beta= 0.30
     Davidson diagonalization with overlap
     ethr =  1.71E-13,  avg # of iterations =  4.3

     total cpu time spent up to now is        8.9 secs

     total energy              =   -5964.46998639 Ry
     estimated scf accuracy    <          1.3E-10 Ry

     iteration #  3     ecut=    40.00 Ry     beta= 0.30
     Davidson diagonalization with overlap
     ethr =  1.00E-13,  avg # of iterations =  2.0

     total cpu time spent up to now is       10.5 secs

     End of self-consistent calculation

          k = 0.0000 0.0000 0.0000 ( 14883 PWs)   bands (ev):

   -46.1464 -46.1455 -46.1453 -46.1453 -46.1444 -46.1444 -46.1441 -46.1433
   -22.4757 -22.4722 -22.4722 -22.4696 -22.4275 -22.4254 -22.4254 -22.4234
   -22.4208 -22.4208 -22.4177 -22.4177 -22.4174 -22.4174 -22.4151 -22.4151
   -22.3670 -22.3670 -22.3651 -22.3651 -22.3649 -22.3649 -22.3633 -22.3633
   -14.4514 -14.3397 -14.3302 -14.3302 -14.2607 -14.2606 -14.2527 -14.1922
    -6.7789  -6.7789  -6.7263  -6.5364  -6.2588  -6.1452  -6.1452  -5.9116
    -5.9116  -5.9103  -5.8496  -5.8496  -5.8153  -5.7832  -5.7517  -5.7517
    -5.7487  -5.7487  -5.7412  -5.6752  -5.5814  -5.5814  -5.5197  -5.5197
    -0.3486  -0.3486  -0.2864   0.3042   0.3042   0.3203   0.3203   0.3709
     0.3760   0.3760   0.3804   0.3804   0.5338   0.5338   0.5387   0.5387
     0.5555   0.5555   0.7445   0.7487   0.7487   0.7678   0.7678   0.8117
     5.9179   6.0802   6.1028   6.1028   6.2977   6.2977   6.3358   6.3519
     6.4124   6.4124   6.5618   6.5630   6.5630   6.5890   6.6062   7.5282
     7.5282   7.5780   7.5780   7.6255   7.6255   7.6264   7.6264   7.6424
     7.6424   7.7415   7.7415   7.9272   7.9272   7.9566   8.0511   8.0858
     8.0858   8.0952   8.0952   8.3907   8.3907   8.4596   8.4609   8.4747
     8.4747   8.5563   8.5563   8.6155   8.6906   8.6906   8.7209   8.7209
     9.0558   9.0558   9.2327   9.3488   9.3488   9.3818   9.3818   9.4779
     9.4779   9.4846   9.4846   9.5058   9.5058   9.7198   9.7198  10.0013
    10.0703  10.0703  10.1823  10.1823  10.2504  10.2504  10.3451  10.4130
    12.2494  12.3993  12.5646  12.5646  12.6828  12.6828  13.9652  13.9652
    13.9955  13.9955  14.0236  14.0236  14.0294  14.0294  14.0436  14.0436
    14.0514  14.0514  14.3947  14.3947  14.4266  14.4842  14.4898  14.5704
    14.5704  14.6314  14.6314  14.6380  14.6446  15.1176  15.3167  15.3167
    15.3478  15.4942  16.3234  16.3234  16.5226  16.9027  17.1112  17.1113

          k = 0.0000 0.0000 0.1649 ( 14851 PWs)   bands (ev):

   -46.1464 -46.1455 -46.1452 -46.1452 -46.1444 -46.1444 -46.1441 -46.1433
   -22.4725 -22.4690 -22.4690 -22.4664 -22.4308 -22.4285 -22.4285 -22.4265
   -22.4207 -22.4207 -22.4179 -22.4179 -22.4173 -22.4173 -22.4153 -22.4153
   -22.3669 -22.3669 -22.3653 -22.3653 -22.3648 -22.3648 -22.3633 -22.3633
   -14.4441 -14.3474 -14.3257 -14.3256 -14.2654 -14.2654 -14.2487 -14.1963
    -6.7457  -6.7457  -6.7044  -6.5343  -6.2263  -6.2136  -6.2136  -5.9125
    -5.8830  -5.8830  -5.8460  -5.8460  -5.8132  -5.7854  -5.7783  -5.7382
    -5.7382  -5.7360  -5.7360  -5.7033  -5.5933  -5.5933  -5.5350  -5.5350
    -0.3070  -0.3070  -0.2286   0.2577   0.2577   0.3475   0.3475   0.3843
     0.3843   0.3903   0.3903   0.4009   0.5231   0.5231   0.5249   0.5250
     0.5678   0.5678   0.6598   0.7350   0.7350   0.7351   0.7351   0.7825
     5.9633   6.0809   6.1604   6.1604   6.3697   6.3697   6.3998   6.3998
     6.4434   6.4752   6.5906   6.6052   6.6207   6.6207   6.6403   7.5345
     7.5345   7.5757   7.5758   7.6037   7.6037   7.6664   7.6664   7.6782
     7.6782   7.7913   7.7913   7.7948   7.7948   7.8601   7.9214   7.9214
     7.9283   8.0663   8.0663   8.4142   8.4142   8.4227   8.4971   8.4971
     8.5029   8.5387   8.5396   8.5396   8.7253   8.7253   8.9798   8.9798
     9.0169   9.0169   9.1717   9.2882   9.2883   9.3807   9.3807   9.4186
     9.4186   9.4304   9.4304   9.4388   9.4388   9.7408   9.7408   9.8459
    10.0430  10.0430  10.1452  10.1452  10.1709  10.1709  10.3499  10.4083
    12.2574  12.3891  12.6751  12.6751  12.7837  12.7837  13.9387  13.9387
    13.9636  13.9636  13.9672  13.9672  14.0018  14.0018  14.0275  14.0275
    14.0849  14.0849  14.3532  14.3532  14.4403  14.4838  14.4862  14.5851
    14.5851  14.6225  14.7015  14.7015  14.8191  15.3122  15.3122  15.3309
    15.4789  15.6244  16.4035  16.4035  16.4325  16.8989  17.2019  17.2805

          k = 0.0000 0.0000 0.3297 ( 14827 PWs)   bands (ev):

   -46.1461 -46.1457 -46.1451 -46.1451 -46.1446 -46.1446 -46.1438 -46.1434
   -22.4638 -22.4605 -22.4605 -22.4580 -22.4396 -22.4372 -22.4372 -22.4349
   -22.4201 -22.4201 -22.4185 -22.4185 -22.4168 -22.4168 -22.4157 -22.4157
   -22.3665 -22.3665 -22.3656 -22.3656 -22.3645 -22.3645 -22.3637 -22.3637
   -14.4240 -14.3682 -14.3131 -14.3131 -14.2783 -14.2783 -14.2377 -14.2075
    -6.6519  -6.6519  -6.6480  -6.5425  -6.3562  -6.3562  -6.1360  -5.9022
    -5.8777  -5.8481  -5.8481  -5.8382  -5.8382  -5.8074  -5.7913  -5.7743
    -5.7089  -5.7089  -5.6932  -5.6932  -5.6254  -5.6254  -5.5771  -5.5771
    -0.1923  -0.1923  -0.0645   0.1331   0.1331   0.4088   0.4088   0.4174
     0.4174   0.4239   0.4239   0.4437   0.4825   0.4897   0.4897   0.4941
     0.4941   0.6017   0.6017   0.6477   0.6477   0.6982   0.6982   0.7026
     6.0376   6.0836   6.2603   6.2603   6.3681   6.3681   6.5779   6.5779
     6.5967   6.6040   6.7398   6.7959   6.8297   6.8297   6.9159   7.3272
     7.3272   7.4740   7.4740   7.5450   7.5450   7.5696   7.5696   7.5913
     7.6000   7.7626   7.7626   7.7721   7.7721   7.8988   7.8988   7.9361
     7.9361   7.9489   8.0057   8.0057   8.3408   8.3408   8.4879   8.4879
     8.6273   8.7315   8.7316   8.7570   8.8053   8.8053   8.8213   8.8213
     9.0131   9.1415   9.1415   9.2153   9.2153   9.2509   9.2509   9.3110
     9.3110   9.4367   9.4367   9.4898   9.5349   9.5349   9.7979   9.7979
     9.9709   9.9709   9.9756   9.9756  10.0170  10.0170  10.3638  10.3963
    12.2871  12.3590  12.9715  12.9715  13.0501  13.0501  13.6891  13.6891
    13.7217  13.7217  13.9750  13.9750  13.9917  13.9917  14.0526  14.0526
    14.1871  14.1871  14.2387  14.2387  14.4742  14.4742  14.4802  14.4859
    14.4860  14.5830  14.9672  14.9672  15.2525  15.2742  15.2742  15.8346
    15.8642  15.9945  16.1518  16.6674  16.6674  16.8094  16.8209  17.1666

          k = 0.0000 0.0000-0.4946 ( 14774 PWs)   bands (ev):

   -46.1459 -46.1459 -46.1448 -46.1448 -46.1448 -46.1448 -46.1437 -46.1437
   -22.4517 -22.4517 -22.4488 -22.4488 -22.4488 -22.4488 -22.4465 -22.4465
   -22.4193 -22.4193 -22.4193 -22.4193 -22.4162 -22.4162 -22.4162 -22.4162
   -22.3661 -22.3661 -22.3661 -22.3661 -22.3641 -22.3641 -22.3641 -22.3641
   -14.3963 -14.3962 -14.2958 -14.2958 -14.2957 -14.2957 -14.2227 -14.2226
    -6.5834  -6.5833  -6.5137  -6.5137  -6.5136  -6.5136  -6.0092  -6.0091
    -5.8533  -5.8532  -5.8350  -5.8350  -5.8350  -5.8350  -5.7994  -5.7993
    -5.6679  -5.6679  -5.6678  -5.6678  -5.6350  -5.6350  -5.6349  -5.6349
    -0.0321  -0.0321  -0.0320  -0.0320   0.1769   0.1770   0.4465   0.4466
     0.4466   0.4466   0.4553   0.4553   0.4553   0.4553   0.5330   0.5330
     0.5331   0.5331   0.5929   0.5930   0.6493   0.6493   0.6493   0.6493
     6.0747   6.0748   6.3262   6.3262   6.3263   6.3263   6.6002   6.6003
     6.9071   6.9071   6.9072   6.9072   7.1621   7.1622   7.1727   7.1727
     7.1728   7.1728   7.2060   7.2061   7.3871   7.3872   7.5591   7.5591
     7.5593   7.5593   7.8453   7.8453   7.8453   7.8453   7.9008   7.9008
     7.9009   7.9009   8.1357   8.1357   8.1359   8.1359   8.6215   8.6215
     8.6216   8.6216   8.8102   8.8104   8.9697   8.9697   8.9697   8.9697
     8.9933   8.9934   8.9935   8.9935   9.0935   9.0935   9.2011   9.2011
     9.2012   9.2012   9.7309   9.7309   9.7309   9.7309   9.7836   9.7836
     9.7837   9.7837   9.8840   9.8840   9.8841   9.8841  10.3798  10.3800
    12.3221  12.3222  13.3423  13.3423  13.3424  13.3424  13.3947  13.3947
    13.3948  13.3948  13.9848  13.9848  13.9849  13.9849  14.1296  14.1296
    14.1296  14.1296  14.3218  14.3218  14.3218  14.3218  14.4880  14.4880
    14.5312  14.5312  15.1763  15.1763  15.1763  15.1763  15.7385  15.7386
    16.3213  16.3215  16.4446  16.4448  16.5439  16.5441  17.1100  17.1100

          k = 0.0000 0.1667 0.0000 ( 14857 PWs)   bands (ev):

   -46.1463 -46.1454 -46.1454 -46.1452 -46.1444 -46.1442 -46.1442 -46.1434
   -22.4755 -22.4724 -22.4720 -22.4697 -22.4274 -22.4255 -22.4252 -22.4235
   -22.4206 -22.4177 -22.4175 -22.4173 -22.4153 -22.4142 -22.4139 -22.4117
   -22.3707 -22.3687 -22.3685 -22.3669 -22.3667 -22.3651 -22.3650 -22.3634
   -14.4435 -14.3386 -14.3345 -14.3251 -14.2660 -14.2580 -14.2561 -14.1969
    -6.7556  -6.7475  -6.6930  -6.5404  -6.2990  -6.1946  -6.1101  -5.9052
    -5.9006  -5.8966  -5.8522  -5.8411  -5.8122  -5.7771  -5.7538  -5.7519
    -5.7439  -5.7410  -5.7330  -5.6909  -5.6216  -5.5935  -5.5515  -5.5347
    -0.3062  -0.2932  -0.2384   0.2725   0.3172   0.3278   0.3316   0.3321
     0.3814   0.3916   0.4022   0.4071   0.5161   0.5264   0.5268   0.5432
     0.5473   0.5602   0.6589   0.7304   0.7334   0.7337   0.7424   0.7797
     5.9658   6.1035   6.1379   6.1539   6.3256   6.3452   6.3977   6.4250
     6.4261   6.5189   6.5666   6.5701   6.6481   6.6567   6.6721   7.5657
     7.5661   7.5766   7.5785   7.6244   7.6310   7.6377   7.6384   7.6643
     7.6932   7.7379   7.7712   7.8284   7.9198   7.9244   7.9255   7.9556
     7.9634   8.0401   8.0676   8.1481   8.1734   8.3299   8.5015   8.5314
     8.5330   8.5679   8.6530   8.6883   8.7469   8.7567   8.9444   8.9461
     8.9925   9.0621   9.1172   9.1965   9.3190   9.3446   9.3848   9.4078
     9.4704   9.5164   9.5195   9.5487   9.5505   9.5935   9.6230   9.8327
     9.9954  10.0646  10.1432  10.1789  10.1888  10.2446  10.3023  10.3354
    12.3938  12.5273  12.5750  12.6216  12.6733  12.7369  13.8687  13.9021
    13.9121  13.9358  13.9768  14.0134  14.0272  14.0303  14.0379  14.0451
    14.0452  14.0656  14.3398  14.3705  14.4124  14.5766  14.5778  14.5784
    14.5837  14.6174  14.6410  14.7107  14.7581  15.1321  15.3089  15.4847
    15.5441  15.6288  16.2509  16.4219  16.6055  16.9631  17.2149  17.3277

          k = 0.0000 0.1667 0.1649 ( 14853 PWs)   bands (ev):

   -46.1463 -46.1455 -46.1453 -46.1452 -46.1445 -46.1443 -46.1441 -46.1434
   -22.4723 -22.4693 -22.4689 -22.4666 -22.4306 -22.4287 -22.4284 -22.4266
   -22.4204 -22.4177 -22.4175 -22.4171 -22.4154 -22.4144 -22.4138 -22.4118
   -22.3705 -22.3689 -22.3684 -22.3668 -22.3667 -22.3651 -22.3649 -22.3635
   -14.4364 -14.3420 -14.3338 -14.3206 -14.2710 -14.2608 -14.2539 -14.2010
    -6.7237  -6.7143  -6.6727  -6.5355  -6.2663  -6.2436  -6.1806  -5.9089
    -5.8845  -5.8704  -5.8492  -5.8372  -5.8100  -5.7986  -5.7797  -5.7420
    -5.7303  -5.7268  -5.7241  -5.7180  -5.6250  -5.6033  -5.5660  -5.5481
    -0.2772  -0.2657  -0.1604   0.2663   0.2866   0.3006   0.3301   0.3414
     0.3747   0.4016   0.4241   0.4485   0.4789   0.5031   0.5096   0.5364
     0.5553   0.5985   0.6600   0.6612   0.7000   0.7196   0.7199   0.7593
     6.0154   6.1398   6.1604   6.2181   6.3859   6.4173   6.4311   6.4819
     6.5046   6.5336   6.6216   6.6287   6.6497   6.6865   6.7039   7.5517
     7.5673   7.5809   7.6058   7.6194   7.6225   7.6340   7.6671   7.6709
     7.7189   7.7230   7.7602   7.7885   7.8147   7.8686   7.8687   7.9194
     7.9322   7.9834   7.9930   8.0508   8.1164   8.3531   8.4666   8.5072
     8.5338   8.5827   8.5960   8.7787   8.8310   8.9179   8.9382   8.9677
     9.0200   9.0400   9.0867   9.2003   9.3075   9.3282   9.3646   9.3780
     9.4338   9.4611   9.4683   9.4697   9.4908   9.6235   9.6452   9.7277
     9.9664  10.0045  10.1023  10.1103  10.1463  10.1634  10.3050  10.3405
    12.4033  12.5185  12.6869  12.7224  12.7777  12.8347  13.8724  13.8966
    13.9191  13.9192  13.9403  13.9601  13.9786  13.9803  13.9803  14.0317
    14.0336  14.0796  14.2889  14.3654  14.3863  14.5312  14.5627  14.5792
    14.6147  14.6396  14.7101  14.8545  14.9007  15.2978  15.3478  15.5377
    15.6100  15.7573  16.3316  16.4854  16.5131  16.9897  17.2754  17.3341

          k = 0.0000 0.1667 0.3297 ( 14821 PWs)   bands (ev):

   -46.1461 -46.1456 -46.1451 -46.1450 -46.1446 -46.1445 -46.1440 -46.1435
   -22.4635 -22.4607 -22.4603 -22.4582 -22.4394 -22.4373 -22.4370 -22.4351
   -22.4199 -22.4183 -22.4170 -22.4165 -22.4158 -22.4150 -22.4133 -22.4122
   -22.3702 -22.3692 -22.3680 -22.3672 -22.3664 -22.3655 -22.3646 -22.3638
   -14.4168 -14.3623 -14.3207 -14.3081 -14.2844 -14.2736 -14.2428 -14.2123
    -6.6342  -6.6213  -6.6204  -6.5354  -6.3620  -6.3243  -6.1752  -5.9085
    -5.9036  -5.8607  -5.8438  -5.8356  -5.8284  -5.8035  -5.7925  -5.7803
    -5.7150  -5.6993  -5.6978  -5.6884  -5.6444  -5.6296  -5.6045  -5.5852
    -0.1889  -0.1538   0.0148   0.1322   0.1645   0.3418   0.3701   0.3795
     0.3901   0.4191   0.4292   0.4661   0.4689   0.4770   0.4851   0.5070
     0.5271   0.5887   0.6101   0.6356   0.6567   0.6635   0.6837   0.7017
     6.0956   6.1416   6.2580   6.3366   6.3576   6.4685   6.6298   6.6533
     6.6542   6.6592   6.7233   6.8172   6.8320   6.8893   6.9144   7.3093
     7.3519   7.4656   7.5281   7.5399   7.5580   7.5710   7.5922   7.5964
     7.6161   7.6873   7.6958   7.7748   7.7916   7.9008   7.9106   7.9132
     7.9271   7.9318   7.9963   8.0424   8.1175   8.1439   8.3459   8.4254
     8.6053   8.6224   8.7321   8.7427   8.7587   8.8743   8.8782   9.0384
     9.0437   9.1262   9.1288   9.1859   9.1963   9.3120   9.3413   9.3547
     9.3856   9.4207   9.4456   9.4857   9.5035   9.5043   9.7019   9.7065
     9.8925   9.9058   9.9099   9.9661  10.0023  10.0115  10.3129  10.3359
    12.4261  12.4947  12.9769  12.9864  13.0435  13.0936  13.6724  13.6914
    13.7169  13.7469  13.8775  13.8989  13.9573  13.9922  14.0244  14.0647
    14.0904  14.1684  14.1764  14.2565  14.4010  14.4239  14.4547  14.5333
    14.6331  14.6378  14.9701  15.1593  15.2625  15.3220  15.5021  15.8778
    15.9492  16.1240  16.2354  16.5973  16.7119  16.8880  16.9001  17.2929

          k = 0.0000 0.1667-0.4946 ( 14826 PWs)   bands (ev):

   -46.1459 -46.1459 -46.1449 -46.1449 -46.1448 -46.1448 -46.1437 -46.1437
   -22.4515 -22.4515 -22.4490 -22.4490 -22.4487 -22.4487 -22.4467 -22.4467
   -22.4191 -22.4191 -22.4165 -22.4164 -22.4157 -22.4157 -22.4128 -22.4128
   -22.3697 -22.3697 -22.3676 -22.3676 -22.3660 -22.3660 -22.3642 -22.3642
   -14.3897 -14.3897 -14.3027 -14.3026 -14.2910 -14.2909 -14.2277 -14.2276
    -6.5654  -6.5653  -6.5045  -6.5044  -6.4821  -6.4819  -6.0459  -6.0458
    -5.8617  -5.8616  -5.8449  -5.8449  -5.8239  -5.8239  -5.7944  -5.7943
    -5.6786  -5.6785  -5.6649  -5.6648  -5.6537  -5.6535  -5.6365  -5.6364
    -0.0379  -0.0379   0.0027   0.0028   0.2423   0.2424   0.3708   0.3709
     0.4144   0.4145   0.4261   0.4261   0.4676   0.4676   0.4920   0.4921
     0.5704   0.5704   0.6183   0.6184   0.6355   0.6356   0.6569   0.6569
     6.1334   6.1335   6.3185   6.3186   6.4167   6.4168   6.6571   6.6571
     6.9360   6.9361   6.9548   6.9549   7.1347   7.1349   7.1773   7.1774
     7.1829   7.1829   7.2190   7.2192   7.3604   7.3606   7.5766   7.5767
     7.6056   7.6057   7.8029   7.8030   7.8572   7.8573   7.8911   7.8911
     7.8988   7.8989   8.0524   8.0525   8.1345   8.1346   8.3635   8.3636
     8.5584   8.5585   8.7411   8.7411   8.9378   8.9379   8.9492   8.9493
     9.0192   9.0193   9.1628   9.1629   9.1828   9.1828   9.2505   9.2505
     9.2670   9.2671   9.6737   9.6737   9.7208   9.7209   9.7686   9.7686
     9.7958   9.7959   9.7961   9.7961   9.8055   9.8055  10.3243  10.3245
    12.4608  12.4609  13.3344  13.3345  13.3472  13.3473  13.3891  13.3892
    13.4235  13.4236  13.8884  13.8885  14.0046  14.0047  14.0401  14.0401
    14.1422  14.1422  14.2421  14.2421  14.3083  14.3083  14.4769  14.4770
    14.6358  14.6358  15.1675  15.1675  15.3935  15.3936  15.8137  15.8138
    16.4158  16.4160  16.4800  16.4802  16.6709  16.6711  17.0337  17.0339

          k = 0.0000 0.3333 0.0000 ( 14826 PWs)   bands (ev):

   -46.1461 -46.1455 -46.1452 -46.1450 -46.1447 -46.1444 -46.1440 -46.1435
   -22.4748 -22.4731 -22.4715 -22.4702 -22.4270 -22.4259 -22.4249 -22.4239
   -22.4200 -22.4183 -22.4170 -22.4157 -22.4075 -22.4047 -22.4044 -22.4022
   -22.3806 -22.3784 -22.3781 -22.3762 -22.3665 -22.3654 -22.3647 -22.3637
   -14.4218 -14.3612 -14.3202 -14.3111 -14.2807 -14.2724 -14.2437 -14.2095
    -6.6944  -6.6600  -6.5995  -6.5640  -6.4029  -6.3164  -6.0127  -5.8894
    -5.8702  -5.8596  -5.8538  -5.8185  -5.7903  -5.7884  -5.7652  -5.7625
    -5.7367  -5.7329  -5.7281  -5.7112  -5.6904  -5.6329  -5.6261  -5.5759
    -0.1890  -0.1511  -0.0902   0.1445   0.1981   0.3547   0.3644   0.4108
     0.4110   0.4225   0.4310   0.4705   0.4758   0.4761   0.4792   0.4949
     0.5100   0.5849   0.5936   0.6427   0.6727   0.6923   0.6926   0.6942
     6.0467   6.1025   6.2282   6.2431   6.3002   6.3615   6.5272   6.5677
     6.5720   6.6415   6.7533   6.8137   6.8590   6.9255   6.9371   7.2729
     7.4263   7.4836   7.5589   7.6097   7.6266   7.6282   7.6294   7.6438
     7.6467   7.6633   7.7448   7.7662   7.7763   7.8319   7.8391   7.8943
     7.9410   7.9866   8.0067   8.0655   8.1504   8.1698   8.2868   8.6091
     8.6890   8.7170   8.7219   8.7321   8.7365   8.8451   8.8640   8.8881
     8.9016   9.0676   9.1473   9.2260   9.2779   9.3738   9.3775   9.3935
     9.4088   9.4665   9.4896   9.5179   9.5373   9.6186   9.6205   9.6764
     9.8265   9.9362   9.9998  10.0114  10.1300  10.1642  10.2008  10.2370
    12.5804  12.6490  12.7753  12.8604  12.8611  12.9423  13.5977  13.6185
    13.6382  13.6489  14.0113  14.0144  14.0345  14.0379  14.0385  14.0405
    14.1417  14.1451  14.2099  14.2457  14.4479  14.4552  14.4577  14.5746
    14.5898  14.5950  14.9289  14.9527  15.1457  15.1966  15.2629  15.8674
    16.0009  16.0314  16.0791  16.7344  16.8627  16.9332  16.9685  17.1895

          k = 0.0000 0.3333 0.1649 ( 14829 PWs)   bands (ev):

   -46.1461 -46.1455 -46.1453 -46.1449 -46.1447 -46.1444 -46.1441 -46.1436
   -22.4716 -22.4699 -22.4684 -22.4671 -22.4302 -22.4291 -22.4280 -22.4270
   -22.4198 -22.4181 -22.4172 -22.4159 -22.4073 -22.4048 -22.4042 -22.4023
   -22.3804 -22.3785 -22.3780 -22.3764 -22.3664 -22.3653 -22.3648 -22.3638
   -14.4151 -14.3559 -14.3272 -14.3067 -14.2862 -14.2682 -14.2483 -14.2138
    -6.6666  -6.6267  -6.5846  -6.5516  -6.3699  -6.3338  -6.0905  -5.8950
    -5.8660  -5.8625  -5.8588  -5.8341  -5.8135  -5.7897  -5.7754  -5.7569
    -5.7475  -5.7277  -5.7015  -5.7002  -5.6859  -5.6444  -5.6302  -5.5843
    -0.1710  -0.1513   0.0083   0.1750   0.1857   0.2940   0.3565   0.3677
     0.3868   0.4091   0.4329   0.4537   0.4703   0.4720   0.5044   0.5216
     0.5232   0.5735   0.6064   0.6297   0.6581   0.6741   0.6794   0.6940
     6.1027   6.1593   6.2419   6.3118   6.3529   6.4015   6.5900   6.6226
     6.6295   6.7093   6.7761   6.7936   6.8605   6.9361   6.9625   7.3125
     7.3758   7.4794   7.5075   7.5953   7.6088   7.6312   7.6437   7.6545
     7.6803   7.6827   7.6850   7.7428   7.8160   7.8376   7.8630   7.8964
     7.9073   7.9290   7.9959   8.0244   8.0598   8.1106   8.1906   8.5430
     8.5666   8.5717   8.7499   8.7554   8.7666   8.7715   8.9328   8.9725
     9.0594   9.1276   9.1453   9.2250   9.2953   9.3034   9.3955   9.4118
     9.4177   9.4388   9.4505   9.5184   9.5237   9.5621   9.5663   9.6450
     9.7932   9.8859   9.9279   9.9986  10.0998  10.1521  10.1605  10.2018
    12.6737  12.7528  12.7982  12.8500  12.9230  13.0304  13.6033  13.6342
    13.6343  13.7018  13.9277  13.9431  13.9561  14.0242  14.0500  14.0610
    14.0689  14.1335  14.1483  14.2576  14.3864  14.4086  14.4414  14.5304
    14.7044  14.7184  14.9272  15.1320  15.2541  15.2783  15.3581  15.9751
    16.0776  16.1120  16.1274  16.7623  16.7688  16.9967  17.0316  17.3222

          k = 0.0000 0.3333 0.3297 ( 14846 PWs)   bands (ev):

   -46.1459 -46.1454 -46.1453 -46.1449 -46.1448 -46.1443 -46.1442 -46.1437
   -22.4629 -22.4613 -22.4599 -22.4586 -22.4390 -22.4378 -22.4366 -22.4355
   -22.4193 -22.4178 -22.4177 -22.4164 -22.4067 -22.4054 -22.4038 -22.4027
   -22.3800 -22.3789 -22.3777 -22.3767 -22.3660 -22.3651 -22.3650 -22.3642
   -14.3968 -14.3461 -14.3414 -14.3012 -14.2945 -14.2608 -14.2568 -14.2254
    -6.5905  -6.5504  -6.5327  -6.5280  -6.3924  -6.2773  -6.2366  -5.9950
    -5.9010  -5.8766  -5.8601  -5.8266  -5.8021  -5.8005  -5.7851  -5.7631
    -5.7351  -5.7133  -5.6920  -5.6755  -5.6737  -5.6714  -5.6415  -5.6078
    -0.1270  -0.0468   0.1495   0.1833   0.1841   0.2524   0.2606   0.3053
     0.3549   0.3713   0.4170   0.4203   0.4616   0.5096   0.5428   0.5498
     0.5529   0.5537   0.5631   0.5919   0.6448   0.6507   0.6617   0.6835
     6.1910   6.2402   6.2527   6.3311   6.5001   6.6783   6.7390   6.7713
     6.8180   6.8392   6.8544   6.8680   6.8916   6.9739   7.1061   7.2049
     7.3553   7.4019   7.4126   7.4206   7.4443   7.5730   7.5768   7.6091
     7.7051   7.7087   7.7315   7.7355   7.7812   7.7969   7.8536   7.9030
     7.9121   7.9390   7.9467   7.9479   7.9591   8.1983   8.2220   8.2617
     8.3106   8.3706   8.5458   8.5942   8.8295   8.8337   8.9750   9.0224
     9.1619   9.1982   9.2691   9.2919   9.3005   9.3106   9.3703   9.3730
     9.4027   9.4330   9.4365   9.4879   9.5034   9.5723   9.6298   9.6497
     9.7052   9.7454   9.8264   9.9422   9.9525  10.0010  10.1550  10.1655
    12.7690  12.8295  13.0053  13.0221  13.1065  13.2547  13.6096  13.6139
    13.6935  13.6952  13.7001  13.7314  13.8416  13.8444  13.9896  14.0475
    14.0935  14.1098  14.1518  14.2305  14.2960  14.2994  14.3905  14.4222
    14.8438  14.9193  14.9631  15.2227  15.5394  15.5949  15.8869  16.0460
    16.2647  16.3771  16.4882  16.4933  16.8767  16.9637  17.1118  17.2537

          k = 0.0000 0.3333-0.4946 ( 14820 PWs)   bands (ev):

   -46.1457 -46.1457 -46.1451 -46.1451 -46.1445 -46.1445 -46.1440 -46.1440
   -22.4510 -22.4510 -22.4495 -22.4495 -22.4483 -22.4482 -22.4471 -22.4471
   -22.4185 -22.4185 -22.4170 -22.4170 -22.4060 -22.4060 -22.4033 -22.4033
   -22.3795 -22.3795 -22.3772 -22.3772 -22.3656 -22.3656 -22.3646 -22.3646
   -14.3717 -14.3716 -14.3214 -14.3213 -14.2778 -14.2777 -14.2412 -14.2411
    -6.5239  -6.5238  -6.4881  -6.4880  -6.3944  -6.3943  -6.1434  -6.1432
    -5.8806  -5.8805  -5.8691  -5.8690  -5.7933  -5.7932  -5.7755  -5.7753
    -5.7089  -5.7088  -5.6969  -5.6968  -5.6574  -5.6573  -5.6411  -5.6409
    -0.0094  -0.0094   0.1001   0.1002   0.2230   0.2230   0.3766   0.3766
     0.3793   0.3794   0.3823   0.3824   0.3837   0.3837   0.5017   0.5017
     0.5986   0.5986   0.6221   0.6221   0.6221   0.6221   0.6496   0.6496
     6.2302   6.2303   6.3041   6.3042   6.6512   6.6513   6.8744   6.8745
     7.0024   7.0024   7.0531   7.0533   7.0687   7.0688   7.1312   7.1312
     7.1936   7.1937   7.3101   7.3102   7.3953   7.3955   7.5454   7.5455
     7.5477   7.5478   7.7227   7.7228   7.8768   7.8768   7.8867   7.8868
     7.9413   7.9413   7.9939   7.9940   8.0332   8.0333   8.1506   8.1507
     8.3630   8.3630   8.4004   8.4005   8.8698   8.8699   8.9690   8.9691
     9.1577   9.1577   9.2730   9.2730   9.3117   9.3117   9.3160   9.3161
     9.5102   9.5103   9.5340   9.5340   9.5913   9.5913   9.7035   9.7035
     9.7384   9.7384   9.7577   9.7577   9.8171   9.8171  10.1547  10.1549
    12.8008  12.8009  13.3577  13.3578  13.3657  13.3657  13.3861  13.3862
    13.5543  13.5544  13.6314  13.6315  13.8214  13.8215  14.0345  14.0346
    14.0809  14.0809  14.1806  14.1806  14.2728  14.2729  14.3498  14.3498
    14.8994  14.8995  15.1395  15.1395  15.8936  15.8937  16.0621  16.0622
    16.5092  16.5093  16.6708  16.6710  16.8095  16.8097  17.0407  17.0409

          k = 0.0000-0.5000 0.0000 ( 14814 PWs)   bands (ev):

   -46.1458 -46.1458 -46.1449 -46.1449 -46.1447 -46.1447 -46.1438 -46.1438
   -22.4740 -22.4740 -22.4708 -22.4708 -22.4265 -22.4265 -22.4244 -22.4244
   -22.4191 -22.4191 -22.4164 -22.4164 -22.3941 -22.3941 -22.3915 -22.3915
   -22.3913 -22.3913 -22.3892 -22.3892 -22.3659 -22.3659 -22.3642 -22.3642
   -14.3917 -14.3917 -14.3006 -14.3006 -14.2919 -14.2918 -14.2267 -14.2267
    -6.6202  -6.6202  -6.5353  -6.5353  -6.4643  -6.4643  -5.8774  -5.8774
    -5.8718  -5.8718  -5.8256  -5.8256  -5.7949  -5.7948  -5.7897  -5.7897
    -5.7432  -5.7432  -5.7267  -5.7267  -5.6693  -5.6693  -5.6328  -5.6328
    -0.0250  -0.0249   0.0244   0.0245   0.1532   0.1532   0.4118   0.4118
     0.4142   0.4142   0.4523   0.4524   0.4656   0.4656   0.5236   0.5237
     0.5764   0.5765   0.5823   0.5823   0.6377   0.6377   0.6423   0.6423
     6.0899   6.0899   6.2692   6.2692   6.3147   6.3147   6.5697   6.5697
     6.8585   6.8586   6.9828   6.9829   7.1704   7.1704   7.2035   7.2036
     7.2227   7.2228   7.2958   7.2958   7.3776   7.3776   7.6222   7.6223
     7.6609   7.6609   7.8566   7.8566   7.8898   7.8898   7.8924   7.8924
     7.9029   7.9029   7.9599   7.9599   8.0130   8.0131   8.4826   8.4827
     8.6995   8.6996   8.7829   8.7829   8.8823   8.8823   8.9187   8.9187
     8.9767   8.9767   9.1305   9.1305   9.1606   9.1606   9.3017   9.3017
     9.3162   9.3163   9.6448   9.6449   9.7660   9.7660   9.7696   9.7696
     9.7899   9.7899   9.8852   9.8852   9.9110   9.9110  10.2175  10.2175
    12.6163  12.6163  13.2071  13.2071  13.2338  13.2338  13.2648  13.2648
    13.2850  13.2850  14.0339  14.0339  14.0355  14.0355  14.0855  14.0855
    14.1143  14.1143  14.2826  14.2826  14.2939  14.2939  14.5130  14.5130
    14.5962  14.5962  15.1051  15.1051  15.1478  15.1478  15.6665  15.6665
    16.4027  16.4028  16.5464  16.5464  16.6512  16.6513  17.2078  17.2079

          k = 0.0000-0.5000 0.1649 ( 14828 PWs)   bands (ev):

   -46.1458 -46.1458 -46.1450 -46.1450 -46.1447 -46.1447 -46.1438 -46.1438
   -22.4708 -22.4708 -22.4677 -22.4677 -22.4296 -22.4296 -22.4275 -22.4275
   -22.4190 -22.4190 -22.4165 -22.4165 -22.3939 -22.3939 -22.3917 -22.3917
   -22.3912 -22.3912 -22.3893 -22.3893 -22.3658 -22.3658 -22.3643 -22.3643
   -14.3857 -14.3857 -14.3068 -14.3068 -14.2876 -14.2876 -14.2311 -14.2311
    -6.5991  -6.5991  -6.5021  -6.5021  -6.4607  -6.4607  -5.9703  -5.9703
    -5.8747  -5.8747  -5.8203  -5.8203  -5.7833  -5.7833  -5.7765  -5.7765
    -5.7380  -5.7380  -5.7324  -5.7324  -5.6662  -5.6662  -5.6346  -5.6346
    -0.0011  -0.0011   0.0091   0.0091   0.2343   0.2343   0.3430   0.3431
     0.3979   0.3979   0.4235   0.4235   0.4766   0.4766   0.4840   0.4840
     0.6017   0.6017   0.6043   0.6043   0.6256   0.6256   0.6492   0.6492
     6.1472   6.1472   6.3086   6.3086   6.3645   6.3645   6.6262   6.6262
     6.9115   6.9115   6.9979   6.9979   7.1526   7.1527   7.1912   7.1912
     7.2079   7.2079   7.3293   7.3294   7.3590   7.3590   7.6246   7.6247
     7.6972   7.6972   7.7912   7.7912   7.8869   7.8870   7.8956   7.8957
     7.9057   7.9057   7.9613   7.9613   7.9819   7.9819   8.3059   8.3059
     8.6284   8.6284   8.6501   8.6502   8.9381   8.9381   8.9775   8.9776
     9.0635   9.0635   9.1586   9.1586   9.1874   9.1874   9.2879   9.2879
     9.3234   9.3234   9.6027   9.6027   9.7258   9.7258   9.7262   9.7262
     9.7866   9.7866   9.8740   9.8740   9.9000   9.9000  10.1653  10.1653
    12.7212  12.7212  13.2121  13.2121  13.2588  13.2589  13.2654  13.2654
    13.3487  13.3488  13.9498  13.9498  14.0060  14.0060  14.0518  14.0518
    14.1256  14.1256  14.2126  14.2126  14.2838  14.2838  14.4695  14.4695
    14.7180  14.7180  15.1439  15.1439  15.3054  15.3054  15.7453  15.7453
    16.4828  16.4829  16.6713  16.6713  16.6776  16.6776  17.1656  17.1656

          k = 0.0000-0.5000 0.3297 ( 14820 PWs)   bands (ev):

   -46.1456 -46.1456 -46.1451 -46.1451 -46.1445 -46.1445 -46.1440 -46.1440
   -22.4621 -22.4621 -22.4592 -22.4592 -22.4384 -22.4384 -22.4361 -22.4361
   -22.4185 -22.4185 -22.4170 -22.4170 -22.3934 -22.3934 -22.3922 -22.3922
   -22.3908 -22.3908 -22.3897 -22.3897 -22.3655 -22.3655 -22.3647 -22.3647
   -14.3693 -14.3693 -14.3238 -14.3237 -14.2758 -14.2758 -14.2432 -14.2432
    -6.5462  -6.5462  -6.4617  -6.4617  -6.4084  -6.4083  -6.1157  -6.1157
    -5.8837  -5.8837  -5.8638  -5.8638  -5.7672  -5.7672  -5.7491  -5.7491
    -5.7411  -5.7411  -5.7375  -5.7375  -5.6582  -5.6582  -5.6400  -5.6400
     0.0075   0.0075   0.1040   0.1040   0.2077   0.2077   0.3725   0.3725
     0.3779   0.3779   0.3797   0.3797   0.3831   0.3831   0.5070   0.5070
     0.5930   0.5930   0.6178   0.6179   0.6349   0.6349   0.6408   0.6408
     6.2378   6.2378   6.2978   6.2978   6.6132   6.6132   6.8481   6.8481
     7.0318   7.0318   7.0515   7.0515   7.0927   7.0927   7.1129   7.1129
     7.2216   7.2216   7.3220   7.3220   7.4536   7.4536   7.5360   7.5360
     7.5538   7.5538   7.7754   7.7754   7.8707   7.8707   7.9008   7.9008
     7.9045   7.9045   7.9906   7.9906   8.0092   8.0092   8.0649   8.0649
     8.3471   8.3471   8.4488   8.4488   8.8779   8.8779   8.9736   8.9736
     9.2381   9.2381   9.2393   9.2393   9.2913   9.2913   9.3465   9.3465
     9.3781   9.3781   9.4936   9.4936   9.5681   9.5681   9.7450   9.7450
     9.8130   9.8130   9.8450   9.8450   9.8800   9.8800  10.0105  10.0105
    12.9880  12.9880  13.2356  13.2356  13.2416  13.2416  13.3716  13.3716
    13.5320  13.5321  13.7113  13.7113  13.8076  13.8076  14.0252  14.0252
    14.1164  14.1164  14.1638  14.1638  14.2489  14.2489  14.3586  14.3586
    14.9330  14.9330  15.1198  15.1198  15.8065  15.8065  16.0139  16.0139
    16.6403  16.6403  16.7052  16.7053  16.8762  16.8763  17.0511  17.0511

          k = 0.0000-0.5000-0.4946 ( 14836 PWs)   bands (ev):

   -46.1454 -46.1454 -46.1454 -46.1454 -46.1442 -46.1442 -46.1442 -46.1442
   -22.4503 -22.4503 -22.4503 -22.4503 -22.4477 -22.4477 -22.4477 -22.4477
   -22.4178 -22.4178 -22.4177 -22.4177 -22.3928 -22.3928 -22.3928 -22.3928
   -22.3902 -22.3902 -22.3902 -22.3902 -22.3651 -22.3651 -22.3651 -22.3651
   -14.3467 -14.3467 -14.3466 -14.3466 -14.2596 -14.2596 -14.2595 -14.2595
    -6.4904  -6.4904  -6.4903  -6.4903  -6.2712  -6.2712  -6.2711  -6.2711
    -5.8872  -5.8872  -5.8871  -5.8871  -5.7511  -5.7511  -5.7510  -5.7510
    -5.7417  -5.7417  -5.7416  -5.7416  -5.6485  -5.6485  -5.6484  -5.6484
     0.0822   0.0822   0.0823   0.0823   0.2381   0.2381   0.2382   0.2382
     0.3643   0.3644   0.3644   0.3644   0.5209   0.5210   0.5210   0.5210
     0.5494   0.5494   0.5494   0.5495   0.6523   0.6523   0.6523   0.6523
     6.2806   6.2806   6.2806   6.2807   6.9018   6.9018   6.9019   6.9019
     7.0704   7.0704   7.0704   7.0704   7.1790   7.1790   7.1792   7.1792
     7.2527   7.2527   7.2528   7.2528   7.3284   7.3284   7.3285   7.3286
     7.6995   7.6995   7.6996   7.6996   7.8371   7.8371   7.8372   7.8372
     7.8926   7.8926   7.8926   7.8926   8.1203   8.1203   8.1204   8.1204
     8.2339   8.2340   8.2340   8.2341   8.8780   8.8780   8.8780   8.8780
     9.3198   9.3198   9.3198   9.3198   9.3599   9.3599   9.3600   9.3600
     9.3938   9.3938   9.3938   9.3938   9.7011   9.7011   9.7011   9.7011
     9.8031   9.8031   9.8031   9.8031   9.8786   9.8787   9.8788   9.8788
    13.2013  13.2013  13.2014  13.2014  13.3908  13.3908  13.3909  13.3909
    13.5653  13.5653  13.5653  13.5653  13.7769  13.7769  13.7769  13.7770
    14.1965  14.1965  14.1965  14.1965  14.2365  14.2366  14.2366  14.2366
    15.0639  15.0639  15.0639  15.0639  16.3481  16.3482  16.3483  16.3483
    16.4473  16.4474  16.4475  16.4475  17.0295  17.0295  17.0297  17.0297

          k = 0.1667 0.1667 0.0000 ( 14879 PWs)   bands (ev):

   -46.1463 -46.1453 -46.1453 -46.1453 -46.1443 -46.1443 -46.1443 -46.1434
   -22.4753 -22.4722 -22.4722 -22.4699 -22.4273 -22.4254 -22.4254 -22.4237
   -22.4171 -22.4171 -22.4142 -22.4140 -22.4140 -22.4140 -22.4118 -22.4118
   -22.3706 -22.3704 -22.3687 -22.3686 -22.3686 -22.3685 -22.3669 -22.3669
   -14.4358 -14.3333 -14.3333 -14.3293 -14.2635 -14.2615 -14.2615 -14.2016
    -6.7259  -6.7259  -6.6596  -6.5416  -6.3293  -6.1599  -6.1599  -5.8989
    -5.8873  -5.8873  -5.8437  -5.8437  -5.8114  -5.7706  -5.7641  -5.7537
    -5.7333  -5.7333  -5.7276  -5.7046  -5.6707  -5.5958  -5.5661  -5.5661
    -0.2966  -0.2232  -0.1790   0.2786   0.2786   0.3096   0.3552   0.3552
     0.3761   0.3765   0.3924   0.4546   0.4661   0.5116   0.5116   0.5460
     0.5461   0.5853   0.6590   0.6590   0.7166   0.7198   0.7198   0.7466
     6.0165   6.1549   6.1549   6.2016   6.3166   6.4453   6.4453   6.5019
     6.5019   6.5062   6.6095   6.6662   6.6662   6.6942   6.7047   7.5263
     7.5969   7.5969   7.6067   7.6068   7.6318   7.6635   7.6693   7.6693
     7.7168   7.7392   7.7634   7.7634   7.8008   7.8820   7.9178   7.9569
     8.0043   8.0043   8.0168   8.0250   8.1146   8.2081   8.2081   8.5576
     8.5576   8.6802   8.7122   8.7122   8.8302   8.8705   8.9186   8.9986
     8.9994   8.9994   9.2100   9.2267   9.2429   9.2429   9.3609   9.4205
     9.4526   9.4526   9.5133   9.5133   9.5816   9.5816   9.5876   9.6216
    10.0101  10.0301  10.1451  10.1451  10.1472  10.2043  10.2626  10.2654
    12.5007  12.6214  12.6460  12.6562  12.7259  12.7259  13.8770  13.8770
    13.9036  13.9142  13.9142  13.9412  13.9412  13.9646  14.0029  14.0269
    14.0600  14.0600  14.3136  14.3556  14.3556  14.5277  14.5603  14.5694
    14.7158  14.7158  14.7287  14.8012  14.8116  15.1456  15.5346  15.5346
    15.6217  15.7541  16.3466  16.3466  16.6726  17.0726  17.2421  17.4057

          k = 0.1667 0.1667 0.1649 ( 14837 PWs)   bands (ev):

   -46.1462 -46.1454 -46.1452 -46.1452 -46.1444 -46.1444 -46.1442 -46.1435
   -22.4720 -22.4691 -22.4691 -22.4668 -22.4305 -22.4286 -22.4286 -22.4268
   -22.4169 -22.4169 -22.4142 -22.4142 -22.4141 -22.4139 -22.4120 -22.4119
   -22.3705 -22.3703 -22.3688 -22.3687 -22.3685 -22.3685 -22.3670 -22.3670
   -14.4288 -14.3366 -14.3286 -14.3285 -14.2664 -14.2664 -14.2594 -14.2058
    -6.6939  -6.6939  -6.6409  -6.5342  -6.2967  -6.2103  -6.2103  -5.9040
    -5.8738  -5.8738  -5.8404  -5.8404  -5.8178  -5.8087  -5.7734  -5.7437
    -5.7313  -5.7215  -5.7215  -5.7208  -5.6610  -5.6070  -5.5788  -5.5788
    -0.2578  -0.2259  -0.0869   0.2668   0.2950   0.2950   0.3171   0.3625
     0.3625   0.3815   0.3821   0.4600   0.4716   0.4716   0.4988   0.5581
     0.5619   0.5619   0.6625   0.6641   0.6641   0.7077   0.7077   0.7422
     6.0722   6.2035   6.2194   6.2194   6.4206   6.4890   6.4890   6.5030
     6.5030   6.5983   6.6722   6.6950   6.7048   6.7143   6.7143   7.5444
     7.5572   7.5572   7.6101   7.6101   7.6517   7.6517   7.6626   7.6862
     7.6872   7.7426   7.7952   7.8079   7.8079   7.8368   7.8368   7.8831
     7.9133   7.9323   7.9687   7.9994   8.1431   8.1483   8.1483   8.4983
     8.5848   8.5848   8.7657   8.7892   8.9043   8.9380   8.9380   8.9706
     8.9706   8.9968   9.2307   9.2307   9.2443   9.2697   9.3630   9.3630
     9.4024   9.4669   9.4994   9.4994   9.5176   9.5176   9.5506   9.6116
     9.9534   9.9749  10.0744  10.1107  10.1107  10.1188  10.2664  10.2794
    12.5151  12.6369  12.7221  12.7458  12.8264  12.8264  13.8848  13.8848
    13.9130  13.9243  13.9243  13.9338  13.9338  13.9387  13.9464  13.9818
    13.9818  14.0006  14.3064  14.3064  14.3262  14.5037  14.5117  14.5300
    14.8048  14.8095  14.8634  14.8634  14.9164  15.3601  15.5285  15.5285
    15.7402  15.8793  16.4114  16.4114  16.5803  17.0829  17.3504  17.3755

          k = 0.1667 0.1667 0.3297 ( 14814 PWs)   bands (ev):

   -46.1460 -46.1456 -46.1450 -46.1450 -46.1446 -46.1446 -46.1440 -46.1436
   -22.4633 -22.4606 -22.4606 -22.4584 -22.4393 -22.4372 -22.4372 -22.4353
   -22.4163 -22.4163 -22.4148 -22.4148 -22.4137 -22.4135 -22.4125 -22.4123
   -22.3701 -22.3699 -22.3691 -22.3690 -22.3682 -22.3682 -22.3673 -22.3673
   -14.4097 -14.3565 -14.3156 -14.3156 -14.2797 -14.2797 -14.2482 -14.2172
    -6.6041  -6.6041  -6.5944  -6.5267  -6.3306  -6.3306  -6.2054  -5.9350
    -5.9031  -5.8492  -5.8492  -5.8340  -5.8340  -5.8013  -5.7975  -5.7809
    -5.7160  -5.7026  -5.6937  -5.6936  -5.6623  -5.6372  -5.6126  -5.6126
    -0.1539  -0.1507   0.0917   0.1517   0.1676   0.3280   0.3280   0.3916
     0.3984   0.4004   0.4004   0.4138   0.4138   0.4433   0.4972   0.5136
     0.5413   0.5414   0.5792   0.6745   0.6745   0.6899   0.6899   0.7161
     6.1617   6.2070   6.3339   6.3339   6.4557   6.4557   6.6843   6.6843
     6.6970   6.7019   6.7063   6.8448   6.8971   6.8971   6.9115   7.3138
     7.3138   7.4931   7.5093   7.5371   7.5371   7.6159   7.6159   7.6163
     7.6497   7.6497   7.6871   7.7454   7.8011   7.8662   7.8961   7.9104
     7.9233   7.9233   7.9461   8.0889   8.0924   8.1393   8.1393   8.2241
     8.5627   8.5936   8.6523   8.6523   8.8266   8.8266   8.9983   9.0190
     9.1158   9.1158   9.2254   9.2254   9.2256   9.3163   9.3163   9.3374
     9.4060   9.4459   9.4459   9.4885   9.4885   9.5259   9.5781   9.6801
     9.8298   9.8778   9.8875   9.9366   9.9945   9.9945  10.2697  10.2822
    12.5456  12.6114  12.9974  12.9977  13.0858  13.0858  13.6665  13.6920
    13.7383  13.7383  13.8982  13.8982  13.9315  13.9315  13.9680  13.9680
    14.0610  14.0998  14.1841  14.1841  14.3659  14.3807  14.3880  14.4760
    14.8057  14.8099  15.1633  15.1633  15.3645  15.4932  15.4932  15.8908
    16.0630  16.2384  16.2989  16.6375  16.6375  16.9507  16.9800  17.3918

          k = 0.1667 0.1667-0.4946 ( 14824 PWs)   bands (ev):

   -46.1458 -46.1458 -46.1448 -46.1448 -46.1448 -46.1448 -46.1438 -46.1438
   -22.4513 -22.4513 -22.4489 -22.4489 -22.4489 -22.4489 -22.4468 -22.4468
   -22.4155 -22.4155 -22.4155 -22.4155 -22.4131 -22.4130 -22.4129 -22.4129
   -22.3696 -22.3696 -22.3695 -22.3695 -22.3678 -22.3678 -22.3677 -22.3677
   -14.3833 -14.3832 -14.2978 -14.2977 -14.2977 -14.2977 -14.2328 -14.2327
    -6.5467  -6.5466  -6.4739  -6.4739  -6.4738  -6.4738  -6.0752  -6.0751
    -5.8670  -5.8669  -5.8341  -5.8341  -5.8340  -5.8340  -5.7912  -5.7911
    -5.6798  -5.6796  -5.6773  -5.6771  -5.6556  -5.6556  -5.6555  -5.6554
    -0.0094  -0.0094  -0.0016  -0.0015   0.3072   0.3072   0.3642   0.3643
     0.3643   0.3643   0.4207   0.4208   0.4342   0.4343   0.4734   0.4734
     0.4735   0.4735   0.6586   0.6587   0.6825   0.6825   0.6825   0.6825
     6.2013   6.2014   6.4080   6.4080   6.4081   6.4081   6.6996   6.6997
     6.9683   6.9683   6.9684   6.9684   7.1047   7.1049   7.1508   7.1508
     7.2268   7.2268   7.2270   7.2270   7.3778   7.3780   7.6250   7.6250
     7.6251   7.6251   7.7381   7.7382   7.8535   7.8536   7.8595   7.8595
     7.9164   7.9164   8.0586   8.0586   8.0587   8.0587   8.3496   8.3497
     8.3619   8.3620   8.7265   8.7265   8.7265   8.7265   9.1239   9.1239
     9.1240   9.1240   9.1529   9.1529   9.1530   9.1530   9.3287   9.3287
     9.3287   9.3287   9.6273   9.6273   9.7068   9.7068   9.7186   9.7186
     9.7780   9.7781   9.7795   9.7795   9.7795   9.7796  10.2763  10.2765
    12.5771  12.5772  13.3329  13.3329  13.3498  13.3499  13.4165  13.4165
    13.4166  13.4166  13.9137  13.9137  13.9137  13.9137  14.0553  14.0553
    14.0553  14.0553  14.2221  14.2222  14.2377  14.2377  14.4231  14.4231
    14.8069  14.8069  15.3885  15.3885  15.3885  15.3885  15.8688  15.8689
    16.5068  16.5070  16.5102  16.5104  16.7772  16.7774  17.0411  17.0411

          k = 0.1667 0.3333 0.0000 ( 14830 PWs)   bands (ev):

   -46.1460 -46.1455 -46.1451 -46.1451 -46.1446 -46.1445 -46.1441 -46.1436
   -22.4746 -22.4729 -22.4717 -22.4704 -22.4268 -22.4258 -22.4250 -22.4241
   -22.4164 -22.4148 -22.4135 -22.4123 -22.4073 -22.4046 -22.4045 -22.4023
   -22.3804 -22.3783 -22.3782 -22.3764 -22.3701 -22.3690 -22.3682 -22.3672
   -14.4145 -14.3554 -14.3187 -14.3152 -14.2784 -14.2760 -14.2489 -14.2144
    -6.6698  -6.6438  -6.5659  -6.5574  -6.4139  -6.2823  -6.0635  -5.8806
    -5.8616  -5.8508  -5.8489  -5.8207  -5.7975  -5.7957  -5.7768  -5.7657
    -5.7554  -5.7413  -5.7270  -5.7039  -5.7029  -5.6461  -5.6221  -5.6054
    -0.2021  -0.1000  -0.0079   0.1382   0.2294   0.3000   0.3321   0.3876
     0.3996   0.4226   0.4321   0.4525   0.4584   0.4671   0.4725   0.5103
     0.5301   0.5777   0.6210   0.6560   0.6563   0.6589   0.6776   0.6795
     6.0996   6.1538   6.2323   6.2959   6.3205   6.4610   6.5819   6.6039
     6.6330   6.7264   6.7902   6.7987   6.8825   6.9337   6.9357   7.2358
     7.4332   7.4967   7.5683   7.5890   7.5922   7.6348   7.6367   7.6651
     7.6675   7.6700   7.6849   7.7685   7.8003   7.8146   7.8474   7.8991
     7.9307   7.9570   7.9784   8.0499   8.1503   8.1797   8.2034   8.3105
     8.6151   8.6692   8.7059   8.7142   8.7391   8.7956   8.9572   8.9679
     8.9974   9.1249   9.1357   9.1591   9.2889   9.2973   9.3086   9.3981
     9.4232   9.4371   9.4479   9.4617   9.5810   9.6006   9.6335   9.6691
     9.8800   9.9265   9.9891  10.0089  10.0614  10.1456  10.1539  10.1853
    12.6273  12.7027  12.8385  12.8808  12.9351  12.9474  13.6068  13.6294
    13.6381  13.6866  13.9082  13.9373  13.9374  14.0105  14.0404  14.0513
    14.0569  14.1401  14.1767  14.2295  14.3886  14.4024  14.4358  14.5233
    14.7323  14.7457  14.9633  15.1224  15.1554  15.2623  15.4901  16.0039
    16.0756  16.1042  16.1221  16.6535  16.8966  17.0230  17.0687  17.2986

          k = 0.1667 0.3333 0.1649 ( 14841 PWs)   bands (ev):

   -46.1460 -46.1454 -46.1452 -46.1450 -46.1446 -46.1444 -46.1442 -46.1437
   -22.4714 -22.4697 -22.4686 -22.4673 -22.4301 -22.4290 -22.4282 -22.4272
   -22.4162 -22.4146 -22.4137 -22.4124 -22.4071 -22.4047 -22.4044 -22.4025
   -22.3803 -22.3784 -22.3782 -22.3765 -22.3700 -22.3689 -22.3683 -22.3674
   -14.4080 -14.3501 -14.3220 -14.3141 -14.2814 -14.2742 -14.2537 -14.2187
    -6.6416  -6.6116  -6.5524  -6.5434  -6.3812  -6.3006  -6.1192  -5.8873
    -5.8828  -5.8596  -5.8498  -5.8433  -5.8165  -5.7939  -5.7730  -5.7574
    -5.7511  -5.7319  -5.7203  -5.6999  -5.6972  -5.6562  -5.6298  -5.6135
    -0.1701  -0.1149   0.0854   0.1646   0.2131   0.2885   0.3053   0.3850
     0.3850   0.3963   0.4010   0.4028   0.4295   0.4515   0.4923   0.5114
     0.5380   0.5572   0.5788   0.6678   0.6707   0.6859   0.6975   0.7052
     6.1654   6.2194   6.3140   6.3196   6.3951   6.4503   6.6320   6.6420
     6.6761   6.7694   6.7772   6.8306   6.8880   6.9314   6.9718   7.2657
     7.3680   7.4708   7.5342   7.5657   7.6146   7.6190   7.6292   7.6803
     7.6815   7.6855   7.6987   7.7363   7.8314   7.8411   7.8519   7.8756
     7.9005   7.9361   7.9371   8.0510   8.0744   8.0760   8.1765   8.2403
     8.5347   8.5570   8.6376   8.7021   8.7120   8.8975   8.9352   9.0434
     9.0575   9.1666   9.1715   9.2104   9.2232   9.2561   9.3493   9.4029
     9.4192   9.4248   9.4671   9.5014   9.5059   9.5773   9.6014   9.6485
     9.8342   9.8735   9.9184   9.9920  10.0390  10.1120  10.1408  10.1590
    12.7181  12.8016  12.8620  12.9389  12.9395  13.0202  13.6149  13.6451
    13.6795  13.6919  13.9221  13.9231  13.9504  13.9551  13.9668  13.9695
    14.0338  14.0683  14.1656  14.1895  14.3515  14.3601  14.3831  14.4717
    14.8749  14.8887  15.1240  15.1401  15.3112  15.3678  15.4837  16.0732
    16.1033  16.1831  16.2243  16.6807  16.8017  17.0864  17.1080  17.4047

          k = 0.1667 0.3333 0.3297 ( 14825 PWs)   bands (ev):

   -46.1458 -46.1454 -46.1453 -46.1448 -46.1448 -46.1444 -46.1443 -46.1438
   -22.4627 -22.4611 -22.4601 -22.4588 -22.4389 -22.4376 -22.4368 -22.4357
   -22.4157 -22.4143 -22.4141 -22.4129 -22.4066 -22.4052 -22.4040 -22.4029
   -22.3799 -22.3788 -22.3778 -22.3769 -22.3696 -22.3687 -22.3686 -22.3677
   -14.3901 -14.3405 -14.3358 -14.3015 -14.2962 -14.2666 -14.2626 -14.2306
    -6.5645  -6.5225  -6.5210  -6.5148  -6.3619  -6.2898  -6.2442  -6.0128
    -5.8964  -5.8680  -5.8506  -5.8280  -5.8164  -5.8073  -5.7870  -5.7624
    -5.7362  -5.7109  -5.7104  -5.6910  -5.6822  -5.6792  -5.6506  -5.6348
    -0.0977  -0.0519   0.1668   0.2014   0.2380   0.2412   0.2581   0.3100
     0.3204   0.3670   0.3861   0.3968   0.4077   0.4331   0.4532   0.4717
     0.4832   0.5924   0.5975   0.6557   0.7001   0.7028   0.7213   0.7309
     6.2719   6.3190   6.3294   6.4240   6.4912   6.6628   6.7143   6.7949
     6.7965   6.8355   6.8621   6.9549   6.9560   6.9626   7.1094   7.1981
     7.3396   7.3602   7.3774   7.3795   7.5359   7.6092   7.6113   7.6430
     7.6557   7.6886   7.6988   7.7188   7.8303   7.8635   7.8660   7.8821
     7.9017   7.9046   7.9183   7.9376   7.9641   8.1505   8.1914   8.2050
     8.2424   8.3196   8.4766   8.5185   8.7065   8.7782   8.8924   9.0583
     9.1680   9.2223   9.2356   9.3114   9.3118   9.3206   9.3880   9.3935
     9.4072   9.4730   9.4859   9.4916   9.5499   9.6116   9.6118   9.6199
     9.7204   9.7488   9.8048   9.9131   9.9290   9.9786  10.1312  10.1322
    12.8368  12.9164  13.0322  13.0605  13.1224  13.2451  13.6327  13.6447
    13.6839  13.7085  13.7204  13.7536  13.8294  13.8345  13.9552  13.9985
    14.0096  14.0281  14.0603  14.2157  14.2283  14.2289  14.3235  14.3587
    15.0659  15.1230  15.1626  15.4540  15.5471  15.5940  15.8976  16.0419
    16.3763  16.4060  16.5146  16.5724  16.7970  17.0027  17.1935  17.2471

          k = 0.1667 0.3333-0.4946 ( 14804 PWs)   bands (ev):

   -46.1456 -46.1456 -46.1450 -46.1450 -46.1446 -46.1446 -46.1440 -46.1440
   -22.4508 -22.4508 -22.4494 -22.4494 -22.4484 -22.4484 -22.4473 -22.4473
   -22.4150 -22.4150 -22.4135 -22.4135 -22.4059 -22.4058 -22.4035 -22.4035
   -22.3793 -22.3793 -22.3774 -22.3773 -22.3692 -22.3691 -22.3681 -22.3681
   -14.3655 -14.3654 -14.3161 -14.3160 -14.2842 -14.2841 -14.2467 -14.2466
    -6.5030  -6.5029  -6.4602  -6.4601  -6.3897  -6.3896  -6.1580  -6.1579
    -5.8798  -5.8797  -5.8595  -5.8594  -5.8037  -5.8036  -5.7754  -5.7752
    -5.7147  -5.7146  -5.6994  -5.6992  -5.6751  -5.6750  -5.6610  -5.6609
     0.0165   0.0165   0.0839   0.0839   0.2345   0.2346   0.3450   0.3451
     0.3489   0.3490   0.3712   0.3713   0.4329   0.4330   0.4434   0.4434
     0.4502   0.4502   0.6709   0.6710   0.7130   0.7130   0.7217   0.7218
     6.3130   6.3132   6.3886   6.3887   6.6288   6.6289   6.8780   6.8781
     6.9962   6.9963   7.0163   7.0164   7.0682   7.0683   7.1147   7.1147
     7.2567   7.2568   7.3796   7.3797   7.3831   7.3832   7.5127   7.5128
     7.5950   7.5951   7.7502   7.7503   7.7934   7.7935   7.8805   7.8806
     7.9489   7.9489   7.9717   7.9717   8.0854   8.0855   8.0895   8.0896
     8.2919   8.2920   8.3452   8.3453   8.6956   8.6956   8.9175   8.9175
     9.2180   9.2180   9.3001   9.3002   9.3159   9.3160   9.4075   9.4076
     9.5305   9.5305   9.5517   9.5518   9.6001   9.6002   9.7002   9.7002
     9.7268   9.7269   9.7428   9.7428   9.7949   9.7949  10.1256  10.1258
    12.8818  12.8819  13.3628  13.3629  13.3930  13.3931  13.4062  13.4063
    13.5424  13.5425  13.6612  13.6612  13.8376  13.8376  13.9913  13.9914
    14.0190  14.0190  14.0973  14.0973  14.1910  14.1911  14.2846  14.2846
    15.1121  15.1121  15.3684  15.3684  15.8937  15.8938  16.0775  16.0777
    16.5245  16.5247  16.7655  16.7656  16.8095  16.8096  17.0765  17.0766

          k = 0.1667-0.5000 0.0000 ( 14820 PWs)   bands (ev):

   -46.1458 -46.1458 -46.1449 -46.1449 -46.1448 -46.1448 -46.1439 -46.1439
   -22.4737 -22.4737 -22.4711 -22.4711 -22.4263 -22.4263 -22.4245 -22.4245
   -22.4156 -22.4156 -22.4129 -22.4129 -22.3939 -22.3939 -22.3915 -22.3914
   -22.3914 -22.3914 -22.3894 -22.3894 -22.3696 -22.3696 -22.3677 -22.3677
   -14.3852 -14.3851 -14.2987 -14.2987 -14.2957 -14.2957 -14.2317 -14.2317
    -6.6038  -6.6038  -6.5296  -6.5296  -6.4304  -6.4304  -5.9278  -5.9277
    -5.8623  -5.8623  -5.8255  -5.8255  -5.7959  -5.7959  -5.7911  -5.7911
    -5.7374  -5.7373  -5.7353  -5.7353  -5.6630  -5.6630  -5.6569  -5.6569
    -0.0415  -0.0414   0.0626   0.0626   0.2242   0.2242   0.3409   0.3409
     0.3845   0.3845   0.4247   0.4247   0.4652   0.4652   0.5419   0.5420
     0.5560   0.5560   0.6104   0.6104   0.6317   0.6317   0.6454   0.6454
     6.1416   6.1416   6.2709   6.2709   6.4049   6.4049   6.6298   6.6298
     6.8664   6.8664   7.0492   7.0492   7.1387   7.1387   7.1871   7.1871
     7.2319   7.2319   7.2962   7.2962   7.3692   7.3692   7.6517   7.6517
     7.6647   7.6648   7.8102   7.8102   7.8585   7.8585   7.8897   7.8898
     7.9387   7.9387   7.9605   7.9605   8.0333   8.0333   8.4154   8.4154
     8.5032   8.5032   8.6742   8.6742   8.9023   8.9023   8.9724   8.9724
     9.0407   9.0407   9.0763   9.0763   9.1102   9.1102   9.3282   9.3282
     9.3679   9.3679   9.6609   9.6609   9.7606   9.7606   9.7749   9.7750
     9.7933   9.7933   9.8277   9.8277   9.9206   9.9206  10.1672  10.1672
    12.6689  12.6689  13.2258  13.2258  13.2518  13.2518  13.2762  13.2763
    13.3269  13.3270  13.9263  13.9263  14.0316  14.0316  14.0358  14.0358
    14.1038  14.1038  14.2134  14.2135  14.2754  14.2755  14.4625  14.4625
    14.7417  14.7417  15.1132  15.1133  15.3674  15.3674  15.7473  15.7473
    16.5207  16.5208  16.6432  16.6432  16.6745  16.6745  17.1201  17.1201

          k = 0.1667-0.5000 0.1649 ( 14830 PWs)   bands (ev):

   -46.1457 -46.1457 -46.1449 -46.1449 -46.1447 -46.1447 -46.1439 -46.1439
   -22.4706 -22.4706 -22.4679 -22.4679 -22.4295 -22.4295 -22.4277 -22.4277
   -22.4154 -22.4154 -22.4131 -22.4131 -22.3937 -22.3937 -22.3916 -22.3916
   -22.3913 -22.3913 -22.3895 -22.3895 -22.3694 -22.3694 -22.3679 -22.3679
   -14.3793 -14.3793 -14.3018 -14.3018 -14.2943 -14.2943 -14.2363 -14.2363
    -6.5819  -6.5819  -6.4972  -6.4972  -6.4280  -6.4280  -5.9958  -5.9958
    -5.8655  -5.8655  -5.8190  -5.8190  -5.7959  -5.7959  -5.7852  -5.7852
    -5.7418  -5.7418  -5.7330  -5.7330  -5.6636  -5.6636  -5.6591  -5.6591
    -0.0138  -0.0138   0.0420   0.0421   0.3015   0.3015   0.3359   0.3360
     0.3403   0.3404   0.4205   0.4205   0.4315   0.4315   0.4692   0.4692
     0.5067   0.5067   0.6517   0.6517   0.6741   0.6741   0.6807   0.6808
     6.2093   6.2093   6.3632   6.3632   6.3985   6.3985   6.6687   6.6687
     6.9099   6.9100   7.0445   7.0445   7.1222   7.1222   7.1520   7.1520
     7.2443   7.2443   7.3278   7.3278   7.3781   7.3781   7.6697   7.6698
     7.6915   7.6915   7.7429   7.7429   7.8474   7.8474   7.8708   7.8708
     7.9591   7.9591   7.9644   7.9644   7.9819   7.9819   8.3183   8.3183
     8.4215   8.4215   8.5901   8.5901   8.8475   8.8475   8.9764   8.9764
     9.1270   9.1270   9.1487   9.1487   9.1514   9.1514   9.3104   9.3104
     9.3961   9.3961   9.6366   9.6366   9.7014   9.7014   9.7388   9.7388
     9.7729   9.7729   9.8433   9.8433   9.9086   9.9086  10.1206  10.1206
    12.7672  12.7672  13.2405  13.2405  13.2794  13.2794  13.3186  13.3186
    13.3417  13.3417  13.9491  13.9491  13.9520  13.9520  14.0270  14.0270
    14.0455  14.0455  14.1862  14.1862  14.2150  14.2150  14.4107  14.4107
    14.8852  14.8852  15.3152  15.3152  15.3653  15.3653  15.8031  15.8032
    16.5954  16.5955  16.6841  16.6841  16.7605  16.7606  17.1247  17.1247

          k = 0.1667-0.5000 0.3297 ( 14826 PWs)   bands (ev):

   -46.1456 -46.1456 -46.1451 -46.1451 -46.1446 -46.1446 -46.1441 -46.1441
   -22.4619 -22.4619 -22.4594 -22.4594 -22.4383 -22.4383 -22.4362 -22.4362
   -22.4149 -22.4149 -22.4136 -22.4136 -22.3933 -22.3933 -22.3920 -22.3920
   -22.3909 -22.3909 -22.3899 -22.3899 -22.3691 -22.3691 -22.3682 -22.3682
   -14.3632 -14.3631 -14.3185 -14.3184 -14.2822 -14.2822 -14.2487 -14.2487
    -6.5264  -6.5264  -6.4325  -6.4325  -6.4060  -6.4059  -6.1268  -6.1267
    -5.8755  -5.8755  -5.8600  -5.8600  -5.7711  -5.7711  -5.7675  -5.7675
    -5.7470  -5.7470  -5.7358  -5.7358  -5.6666  -5.6666  -5.6644  -5.6644
     0.0301   0.0301   0.0891   0.0892   0.2183   0.2183   0.3391   0.3392
     0.3436   0.3436   0.3728   0.3728   0.4299   0.4299   0.4447   0.4447
     0.4623   0.4623   0.6660   0.6660   0.7090   0.7090   0.7240   0.7240
     6.3184   6.3184   6.3834   6.3834   6.5988   6.5988   6.8456   6.8456
     7.0338   7.0338   7.0399   7.0399   7.0458   7.0459   7.1097   7.1097
     7.2774   7.2775   7.3813   7.3813   7.4340   7.4340   7.5173   7.5173
     7.6022   7.6023   7.7835   7.7835   7.7865   7.7866   7.8968   7.8968
     7.9142   7.9142   7.9887   7.9887   8.0337   8.0337   8.0722   8.0723
     8.3115   8.3115   8.3290   8.3290   8.7579   8.7579   8.8328   8.8328
     9.2370   9.2370   9.2973   9.2973   9.2998   9.2998   9.4213   9.4213
     9.4400   9.4400   9.5506   9.5506   9.5666   9.5667   9.7246   9.7246
     9.7906   9.7906   9.8305   9.8305   9.8834   9.8834   9.9864   9.9864
    13.0198  13.0198  13.2722  13.2722  13.2985  13.2985  13.3853  13.3853
    13.5231  13.5231  13.7166  13.7166  13.8258  13.8259  14.0090  14.0091
    14.0209  14.0209  14.0817  14.0817  14.1682  14.1682  14.2887  14.2887
    15.1460  15.1460  15.3504  15.3505  15.8154  15.8154  16.0253  16.0254
    16.6490  16.6491  16.8057  16.8058  16.8760  16.8760  17.1007  17.1008

          k = 0.1667-0.5000-0.4946 ( 14832 PWs)   bands (ev):

   -46.1453 -46.1453 -46.1453 -46.1453 -46.1443 -46.1443 -46.1443 -46.1443
   -22.4501 -22.4501 -22.4501 -22.4501 -22.4479 -22.4479 -22.4479 -22.4479
   -22.4143 -22.4143 -22.4142 -22.4142 -22.3927 -22.3927 -22.3926 -22.3926
   -22.3904 -22.3904 -22.3904 -22.3904 -22.3686 -22.3686 -22.3686 -22.3686
   -14.3410 -14.3410 -14.3409 -14.3409 -14.2655 -14.2655 -14.2655 -14.2654
    -6.4662  -6.4662  -6.4661  -6.4661  -6.2738  -6.2738  -6.2736  -6.2736
    -5.8811  -5.8811  -5.8810  -5.8810  -5.7605  -5.7605  -5.7604  -5.7604
    -5.7436  -5.7436  -5.7435  -5.7434  -5.6685  -5.6685  -5.6684  -5.6684
     0.1009   0.1009   0.1010   0.1010   0.2097   0.2097   0.2098   0.2098
     0.3450   0.3450   0.3450   0.3450   0.4387   0.4387   0.4387   0.4387
     0.5808   0.5808   0.5809   0.5809   0.7363   0.7363   0.7363   0.7363
     6.3644   6.3644   6.3645   6.3645   6.8608   6.8608   6.8609   6.8609
     7.0125   7.0125   7.0125   7.0125   7.2513   7.2513   7.2514   7.2514
     7.2518   7.2518   7.2519   7.2519   7.3935   7.3935   7.3936   7.3936
     7.6231   7.6231   7.6232   7.6232   7.8949   7.8949   7.8949   7.8949
     7.8966   7.8967   7.8967   7.8967   8.0887   8.0887   8.0887   8.0887
     8.1760   8.1760   8.1761   8.1761   8.7305   8.7305   8.7305   8.7305
     9.3286   9.3286   9.3286   9.3287   9.4170   9.4170   9.4170   9.4170
     9.4655   9.4655   9.4656   9.4656   9.6988   9.6988   9.6989   9.6989
     9.7757   9.7757   9.7758   9.7758   9.8762   9.8763   9.8764   9.8764
    13.2494  13.2494  13.2494  13.2495  13.4130  13.4130  13.4130  13.4130
    13.5838  13.5839  13.5839  13.5839  13.7625  13.7625  13.7626  13.7626
    14.1097  14.1097  14.1097  14.1098  14.1563  14.1563  14.1563  14.1563
    15.2959  15.2959  15.2959  15.2959  16.3591  16.3591  16.3592  16.3592
    16.4439  16.4440  16.4440  16.4441  17.2156  17.2157  17.2157  17.2158

          k = 0.3333 0.3333 0.0000 ( 14828 PWs)   bands (ev):

   -46.1459 -46.1453 -46.1453 -46.1450 -46.1447 -46.1443 -46.1443 -46.1438
   -22.4740 -22.4723 -22.4723 -22.4709 -22.4265 -22.4254 -22.4254 -22.4244
   -22.4067 -22.4067 -22.4054 -22.4049 -22.4040 -22.4040 -22.4029 -22.4026
   -22.3803 -22.3797 -22.3787 -22.3787 -22.3781 -22.3777 -22.3768 -22.3768
   -14.3946 -14.3394 -14.3393 -14.3014 -14.2950 -14.2632 -14.2631 -14.2275
    -6.6043  -6.6043  -6.5503  -6.4717  -6.4525  -6.1869  -6.1869  -5.9054
    -5.8540  -5.8357  -5.8357  -5.8262  -5.8262  -5.8015  -5.8003  -5.7669
    -5.7663  -5.7354  -5.7270  -5.7006  -5.7005  -5.6798  -5.6797  -5.6346
    -0.1501   0.0092   0.1466   0.1467   0.1668   0.2885   0.3145   0.3146
     0.3245   0.3635   0.4072   0.4072   0.4534   0.5347   0.5419   0.5419
     0.5431   0.5432   0.5612   0.5985   0.6422   0.6455   0.6659   0.6659
     6.1831   6.2341   6.2341   6.2855   6.4911   6.7170   6.7170   6.7298
     6.7298   6.8120   6.9714   6.9781   6.9803   6.9803   6.9863   7.0910
     7.3388   7.4015   7.4930   7.4930   7.5505   7.5557   7.6108   7.6108
     7.7338   7.7567   7.7567   7.7697   7.8009   7.8009   7.8504   7.8504
     7.9009   7.9311   7.9491   7.9731   7.9959   8.2658   8.2658   8.3163
     8.3163   8.3638   8.5983   8.6225   8.6225   8.6309   8.7837   8.9205
     9.0953   9.0953   9.1780   9.2234   9.3102   9.3500   9.4049   9.4207
     9.4814   9.4814   9.5177   9.5177   9.5351   9.5351   9.7149   9.7149
     9.8187   9.8875   9.8901   9.9330  10.0048  10.0048  10.0648  10.0769
    12.7822  12.9109  12.9109  12.9596  13.0485  13.1820  13.5561  13.6315
    13.6315  13.6848  13.6848  13.7232  13.8210  13.8210  14.0049  14.0312
    14.0700  14.1157  14.1157  14.2209  14.2760  14.2760  14.3797  14.4017
    14.9249  14.9791  14.9791  15.1622  15.5322  15.5710  16.0349  16.0349
    16.3903  16.3933  16.4187  16.4187  17.0221  17.1162  17.2433  17.2956

          k = 0.3333 0.3333 0.1649 ( 14842 PWs)   bands (ev):

   -46.1458 -46.1452 -46.1452 -46.1450 -46.1446 -46.1444 -46.1444 -46.1439
   -22.4708 -22.4692 -22.4692 -22.4678 -22.4297 -22.4286 -22.4286 -22.4275
   -22.4065 -22.4065 -22.4052 -22.4047 -22.4042 -22.4042 -22.4031 -22.4028
   -22.3801 -22.3795 -22.3786 -22.3786 -22.3782 -22.3778 -22.3769 -22.3769
   -14.3885 -14.3344 -14.3343 -14.3078 -14.2905 -14.2684 -14.2683 -14.2321
    -6.5753  -6.5753  -6.5318  -6.4630  -6.4208  -6.2090  -6.2090  -5.9582
    -5.8633  -5.8419  -5.8419  -5.8242  -5.8242  -5.7960  -5.7882  -5.7817
    -5.7585  -5.7398  -5.7282  -5.6997  -5.6997  -5.6862  -5.6862  -5.6439
    -0.1192  -0.0136   0.1660   0.1660   0.2528   0.2858   0.2858   0.2917
     0.2940   0.3588   0.3839   0.3839   0.4080   0.4184   0.4715   0.4715
     0.4880   0.5938   0.5939   0.6568   0.6913   0.7080   0.7195   0.7195
     6.2650   6.3151   6.3151   6.3799   6.4836   6.7081   6.7081   6.7357
     6.7357   6.8204   6.9703   6.9763   7.0115   7.0163   7.0163   7.1126
     7.3394   7.3617   7.4328   7.4328   7.5694   7.6252   7.6355   7.6355
     7.6825   7.6825   7.7429   7.7578   7.8641   7.8648   7.8648   7.8697
     7.8697   7.9008   7.9254   7.9608   7.9923   8.1323   8.1323   8.3082
     8.3082   8.3477   8.4889   8.5121   8.6296   8.6296   8.7379   8.8700
     9.1838   9.1903   9.1903   9.3026   9.3673   9.3695   9.4065   9.4065
     9.4536   9.4579   9.4686   9.4686   9.5981   9.5981   9.6874   9.6874
     9.7600   9.8564   9.8680   9.8866   9.9804   9.9804  10.0543  10.0680
    12.8661  12.9945  12.9945  13.0129  13.0670  13.1752  13.6138  13.6522
    13.6522  13.6972  13.6972  13.7618  13.8078  13.8078  13.9474  13.9912
    14.0215  14.0336  14.0336  14.2040  14.2103  14.2104  14.3183  14.3413
    15.1205  15.1565  15.1565  15.3733  15.5385  15.5681  16.0322  16.0322
    16.4397  16.4397  16.4722  16.4962  16.9235  17.1409  17.2944  17.5237

          k = 0.3333 0.3333 0.3297 ( 14833 PWs)   bands (ev):

   -46.1456 -46.1452 -46.1451 -46.1451 -46.1446 -46.1446 -46.1445 -46.1440
   -22.4622 -22.4607 -22.4607 -22.4593 -22.4384 -22.4372 -22.4372 -22.4361
   -22.4060 -22.4060 -22.4048 -22.4047 -22.4047 -22.4043 -22.4036 -22.4032
   -22.3797 -22.3792 -22.3786 -22.3783 -22.3783 -22.3782 -22.3773 -22.3773
   -14.3717 -14.3251 -14.3206 -14.3206 -14.2825 -14.2825 -14.2783 -14.2446
    -6.4953  -6.4953  -6.4887  -6.4480  -6.3325  -6.2790  -6.2790  -6.0715
    -5.8800  -5.8437  -5.8437  -5.8379  -5.8232  -5.8232  -5.7843  -5.7575
    -5.7519  -5.7351  -5.7326  -5.7017  -5.7017  -5.6992  -5.6992  -5.6689
    -0.0341   0.0014   0.2029   0.2184   0.2185   0.2422   0.2565   0.2565
     0.3085   0.3220   0.3220   0.3459   0.3602   0.3789   0.3790   0.4042
     0.4140   0.6766   0.6835   0.6835   0.7377   0.7635   0.7635   0.7697
     6.4127   6.4713   6.4760   6.4760   6.6209   6.6538   6.6538   6.8515
     6.8515   6.9280   6.9699   6.9728   7.0823   7.1336   7.1336   7.1625
     7.2089   7.2717   7.2717   7.4004   7.6031   7.6031   7.6079   7.6668
     7.6852   7.6852   7.7033   7.7222   7.8140   7.8231   7.8231   7.9013
     7.9027   7.9136   7.9183   7.9183   8.0159   8.0159   8.0457   8.1719
     8.2612   8.2878   8.2878   8.2985   8.4656   8.4656   8.6515   8.7129
     9.3067   9.3554   9.3554   9.3653   9.3653   9.4097   9.4119   9.4848
     9.4848   9.5093   9.5378   9.5577   9.6297   9.6297   9.6467   9.6467
     9.6853   9.7470   9.7685   9.8029   9.8982   9.8982  10.0338  10.0460
    13.0335  13.1468  13.1690  13.1766  13.2170  13.2170  13.7048  13.7048
    13.7153  13.7516  13.7516  13.7578  13.7578  13.7623  13.7639  13.8407
    13.8407  13.8553  14.0564  14.0564  14.0609  14.1411  14.1712  14.2055
    15.5448  15.5622  15.5640  15.5640  15.5973  15.9001  16.0073  16.0073
    16.5406  16.5406  16.6209  16.6966  16.8080  17.0702  17.2000  17.2251

          k = 0.3333 0.3333-0.4946 ( 14858 PWs)   bands (ev):

   -46.1454 -46.1454 -46.1448 -46.1448 -46.1448 -46.1448 -46.1443 -46.1443
   -22.4503 -22.4503 -22.4490 -22.4490 -22.4489 -22.4489 -22.4478 -22.4477
   -22.4054 -22.4054 -22.4053 -22.4053 -22.4042 -22.4042 -22.4038 -22.4038
   -22.3792 -22.3791 -22.3787 -22.3787 -22.3778 -22.3778 -22.3778 -22.3778
   -14.3486 -14.3485 -14.3017 -14.3016 -14.3016 -14.3016 -14.2616 -14.2615
    -6.4526  -6.4525  -6.3857  -6.3856  -6.3855  -6.3855  -6.2067  -6.2066
    -5.8768  -5.8767  -5.8320  -5.8320  -5.8319  -5.8319  -5.7683  -5.7681
    -5.7417  -5.7416  -5.7050  -5.7050  -5.7049  -5.7048  -5.7025  -5.7023
     0.0834   0.0835   0.0908   0.0909   0.2651   0.2651   0.2652   0.2652
     0.2970   0.2970   0.2971   0.2971   0.3276   0.3276   0.3574   0.3575
     0.5725   0.5725   0.7498   0.7498   0.7498   0.7498   0.7812   0.7813
     6.4633   6.4635   6.5808   6.5808   6.5809   6.5809   6.9095   6.9095
     6.9698   6.9699   7.0702   7.0702   7.0702   7.0703   7.1149   7.1150
     7.3713   7.3713   7.3713   7.3713   7.4151   7.4152   7.4986   7.4987
     7.6660   7.6661   7.7341   7.7341   7.7342   7.7342   7.9041   7.9041
     7.9294   7.9294   7.9843   7.9843   7.9843   7.9843   8.0594   8.0595
     8.1429   8.1430   8.3094   8.3094   8.3094   8.3094   8.6159   8.6160
     9.3593   9.3593   9.3593   9.3593   9.4417   9.4418   9.5300   9.5300
     9.6103   9.6103   9.6104   9.6104   9.6370   9.6370   9.6523   9.6524
     9.6746   9.6747   9.7405   9.7405   9.7405   9.7405  10.0286  10.0288
    13.1050  13.1051  13.4283  13.4283  13.4566  13.4567  13.5086  13.5086
    13.5087  13.5087  13.7561  13.7561  13.7562  13.7562  13.8815  13.8815
    13.8816  13.8816  13.9564  13.9565  13.9993  13.9993  14.1168  14.1168
    15.5551  15.5552  15.8882  15.8882  15.8882  15.8882  16.1499  16.1501
    16.5339  16.5341  16.8199  16.8199  16.8200  16.8200  17.0303  17.0304

          k = 0.3333-0.5000 0.0000 ( 14852 PWs)   bands (ev):

   -46.1456 -46.1456 -46.1450 -46.1450 -46.1446 -46.1446 -46.1441 -46.1441
   -22.4732 -22.4732 -22.4716 -22.4716 -22.4259 -22.4259 -22.4249 -22.4249
   -22.4059 -22.4059 -22.4034 -22.4034 -22.3934 -22.3934 -22.3920 -22.3920
   -22.3910 -22.3910 -22.3898 -22.3898 -22.3794 -22.3794 -22.3773 -22.3773
   -14.3672 -14.3672 -14.3173 -14.3173 -14.2824 -14.2824 -14.2454 -14.2454
    -6.5654  -6.5654  -6.5219  -6.5219  -6.3356  -6.3356  -6.0510  -6.0510
    -5.8331  -5.8330  -5.8184  -5.8184  -5.8004  -5.8004  -5.7919  -5.7919
    -5.7618  -5.7618  -5.7165  -5.7165  -5.7135  -5.7135  -5.6654  -5.6654
    -0.0229  -0.0229   0.1594   0.1594   0.1968   0.1968   0.3511   0.3511
     0.3666   0.3666   0.3717   0.3717   0.4352   0.4352   0.4967   0.4967
     0.5786   0.5786   0.6117   0.6117   0.6275   0.6275   0.6477   0.6477
     6.2223   6.2223   6.2709   6.2709   6.6370   6.6370   6.8227   6.8227
     6.8887   6.8887   7.0808   7.0808   7.1062   7.1062   7.2010   7.2011
     7.2999   7.2999   7.3421   7.3421   7.3754   7.3754   7.5668   7.5669
     7.6094   7.6094   7.7638   7.7639   7.8809   7.8809   7.8864   7.8864
     7.9240   7.9240   8.0722   8.0722   8.0788   8.0788   8.1037   8.1037
     8.4120   8.4120   8.5126   8.5126   8.5552   8.5552   8.6800   8.6800
     9.1951   9.1951   9.2040   9.2040   9.3632   9.3632   9.3913   9.3913
     9.4457   9.4457   9.6540   9.6540   9.6811   9.6811   9.7432   9.7432
     9.7436   9.7436   9.8232   9.8232   9.9311   9.9311  10.0110  10.0110
    12.8679  12.8679  13.2438  13.2438  13.2641  13.2641  13.3530  13.3530
    13.5028  13.5028  13.6560  13.6560  13.8166  13.8166  14.0144  14.0144
    14.0788  14.0788  14.1457  14.1457  14.2352  14.2352  14.3348  14.3348
    14.9732  14.9732  15.1192  15.1192  15.8759  15.8759  16.0306  16.0306
    16.6505  16.6505  16.7985  16.7986  16.8644  16.8644  16.9761  16.9761

          k = 0.3333-0.5000 0.1649 ( 14844 PWs)   bands (ev):

   -46.1455 -46.1455 -46.1449 -46.1449 -46.1447 -46.1447 -46.1441 -46.1441
   -22.4700 -22.4700 -22.4685 -22.4685 -22.4291 -22.4291 -22.4281 -22.4281
   -22.4057 -22.4057 -22.4036 -22.4036 -22.3932 -22.3932 -22.3918 -22.3918
   -22.3911 -22.3911 -22.3899 -22.3899 -22.3792 -22.3792 -22.3775 -22.3775
   -14.3616 -14.3616 -14.3125 -14.3125 -14.2882 -14.2882 -14.2503 -14.2503
    -6.5412  -6.5412  -6.4915  -6.4915  -6.3373  -6.3373  -6.0820  -6.0820
    -5.8369  -5.8368  -5.8180  -5.8180  -5.8164  -5.8164  -5.7876  -5.7876
    -5.7630  -5.7630  -5.7192  -5.7192  -5.7169  -5.7169  -5.6711  -5.6711
     0.0024   0.0024   0.1299   0.1299   0.2088   0.2088   0.3229   0.3229
     0.3608   0.3608   0.3866   0.3866   0.4308   0.4308   0.4405   0.4405
     0.4494   0.4494   0.6693   0.6693   0.7093   0.7093   0.7143   0.7143
     6.3066   6.3066   6.3590   6.3590   6.6180   6.6180   6.8215   6.8215
     6.9097   6.9097   7.0378   7.0378   7.1164   7.1164   7.1798   7.1798
     7.3324   7.3325   7.3714   7.3714   7.3871   7.3871   7.5799   7.5799
     7.6098   7.6098   7.7788   7.7789   7.7894   7.7894   7.8899   7.8899
     7.9376   7.9376   8.0455   8.0455   8.0538   8.0538   8.1191   8.1191
     8.2974   8.2974   8.4755   8.4755   8.4858   8.4858   8.6463   8.6463
     9.2619   9.2619   9.2822   9.2822   9.3525   9.3525   9.3736   9.3736
     9.5087   9.5087   9.6065   9.6065   9.6409   9.6409   9.7465   9.7465
     9.7664   9.7665   9.7922   9.7923   9.9146   9.9146   9.9853   9.9853
    12.9534  12.9535  13.2981  13.2981  13.3107  13.3107  13.3680  13.3680
    13.4923  13.4923  13.6869  13.6870  13.8317  13.8317  13.9966  13.9966
    13.9988  13.9988  14.0711  14.0711  14.1660  14.1660  14.2735  14.2735
    15.1611  15.1611  15.3229  15.3229  15.8781  15.8781  16.0393  16.0393
    16.6562  16.6562  16.8653  16.8653  16.8825  16.8825  17.0384  17.0386

          k = 0.3333-0.5000 0.3297 ( 14854 PWs)   bands (ev):

   -46.1454 -46.1454 -46.1449 -46.1449 -46.1448 -46.1448 -46.1443 -46.1443
   -22.4614 -22.4614 -22.4600 -22.4600 -22.4378 -22.4378 -22.4367 -22.4367
   -22.4053 -22.4053 -22.4040 -22.4040 -22.3928 -22.3928 -22.3916 -22.3916
   -22.3914 -22.3914 -22.3904 -22.3904 -22.3789 -22.3789 -22.3778 -22.3778
   -14.3463 -14.3463 -14.3039 -14.3039 -14.2996 -14.2995 -14.2636 -14.2636
    -6.4783  -6.4783  -6.4074  -6.4074  -6.3541  -6.3541  -6.1697  -6.1697
    -5.8505  -5.8505  -5.8503  -5.8503  -5.8060  -5.8060  -5.7819  -5.7819
    -5.7588  -5.7588  -5.7283  -5.7283  -5.7212  -5.7212  -5.6874  -5.6874
     0.0699   0.0699   0.1195   0.1196   0.2414   0.2414   0.2443   0.2443
     0.3036   0.3036   0.3274   0.3274   0.3312   0.3312   0.3475   0.3475
     0.5748   0.5748   0.7450   0.7450   0.7517   0.7517   0.7784   0.7784
     6.4642   6.4643   6.5648   6.5648   6.5762   6.5762   6.9029   6.9029
     6.9206   6.9206   7.0184   7.0184   7.1331   7.1331   7.1509   7.1509
     7.3681   7.3682   7.4081   7.4081   7.4700   7.4700   7.4861   7.4861
     7.6522   7.6522   7.7338   7.7339   7.7471   7.7471   7.9053   7.9053
     7.9657   7.9657   7.9833   7.9833   7.9906   7.9906   8.1002   8.1002
     8.1298   8.1298   8.2300   8.2300   8.3939   8.3939   8.4717   8.4717
     9.3631   9.3631   9.3995   9.3995   9.4245   9.4245   9.4794   9.4794
     9.5785   9.5785   9.5824   9.5824   9.5853   9.5853   9.7281   9.7281
     9.7393   9.7393   9.7654   9.7654   9.8760   9.8760   9.9100   9.9100
    13.1697  13.1697  13.3866  13.3866  13.4376  13.4376  13.4615  13.4615
    13.4887  13.4887  13.7755  13.7755  13.7774  13.7774  13.8725  13.8725
    13.8741  13.8741  13.9368  13.9369  13.9957  13.9957  14.1184  14.1184
    15.5788  15.5788  15.8286  15.8286  15.8750  15.8750  16.1105  16.1105
    16.6386  16.6386  16.8676  16.8676  16.8806  16.8806  17.1792  17.1792

          k = 0.3333-0.5000-0.4946 ( 14860 PWs)   bands (ev):

   -46.1451 -46.1451 -46.1451 -46.1451 -46.1445 -46.1445 -46.1445 -46.1445
   -22.4496 -22.4496 -22.4496 -22.4496 -22.4484 -22.4484 -22.4483 -22.4483
   -22.4047 -22.4047 -22.4047 -22.4047 -22.3922 -22.3922 -22.3922 -22.3922
   -22.3909 -22.3909 -22.3909 -22.3909 -22.3784 -22.3784 -22.3783 -22.3783
   -14.3253 -14.3252 -14.3252 -14.3252 -14.2817 -14.2817 -14.2816 -14.2816
    -6.4045  -6.4045  -6.4044  -6.4044  -6.2899  -6.2899  -6.2898  -6.2898
    -5.8627  -5.8627  -5.8626  -5.8626  -5.7899  -5.7898  -5.7898  -5.7898
    -5.7449  -5.7449  -5.7448  -5.7448  -5.7086  -5.7086  -5.7085  -5.7085
     0.1497   0.1497   0.1497   0.1497   0.1871   0.1871   0.1871   0.1871
     0.2858   0.2858   0.2859   0.2859   0.3111   0.3111   0.3112   0.3112
     0.6912   0.6912   0.6912   0.6912   0.7948   0.7948   0.7949   0.7949
     6.5354   6.5354   6.5355   6.5355   6.7610   6.7611   6.7611   6.7611
     7.0659   7.0659   7.0659   7.0659   7.2550   7.2550   7.2550   7.2551
     7.2764   7.2764   7.2765   7.2765   7.5146   7.5146   7.5146   7.5146
     7.6044   7.6044   7.6044   7.6044   7.9083   7.9083   7.9083   7.9083
     7.9163   7.9163   7.9164   7.9164   8.0193   8.0193   8.0194   8.0194
     8.0695   8.0695   8.0696   8.0696   8.3475   8.3475   8.3476   8.3476
     9.4486   9.4486   9.4486   9.4486   9.4851   9.4851   9.4851   9.4851
     9.6205   9.6205   9.6206   9.6206   9.6716   9.6716   9.6716   9.6716
     9.7052   9.7052   9.7052   9.7052   9.8541   9.8541   9.8543   9.8543
    13.3942  13.3942  13.3943  13.3943  13.5093  13.5093  13.5094  13.5094
    13.6302  13.6302  13.6303  13.6303  13.7242  13.7242  13.7243  13.7243
    13.9000  13.9000  13.9000  13.9001  13.9524  13.9524  13.9524  13.9524
    15.8297  15.8297  15.8297  15.8297  16.3852  16.3852  16.3853  16.3853
    16.4340  16.4340  16.4341  16.4341  16.9188  16.9188  16.9188  16.9188

          k =-0.5000-0.5000 0.0000 ( 14852 PWs)   bands (ev):

   -46.1453 -46.1453 -46.1453 -46.1453 -46.1443 -46.1443 -46.1443 -46.1443
   -22.4724 -22.4724 -22.4724 -22.4724 -22.4254 -22.4254 -22.4254 -22.4254
   -22.3931 -22.3931 -22.3931 -22.3931 -22.3923 -22.3923 -22.3923 -22.3923
   -22.3906 -22.3906 -22.3906 -22.3906 -22.3902 -22.3902 -22.3902 -22.3902
   -14.3424 -14.3424 -14.3424 -14.3424 -14.2640 -14.2640 -14.2640 -14.2640
    -6.5316  -6.5316  -6.5316  -6.5316  -6.1993  -6.1993  -6.1993  -6.1993
    -5.8086  -5.8086  -5.8086  -5.8086  -5.7842  -5.7841  -5.7841  -5.7841
    -5.7819  -5.7819  -5.7819  -5.7818  -5.6859  -5.6859  -5.6859  -5.6859
     0.0615   0.0615   0.0615   0.0615   0.2945   0.2946   0.2946   0.2946
     0.3445   0.3445   0.3445   0.3445   0.5106   0.5106   0.5106   0.5106
     0.5402   0.5402   0.5402   0.5402   0.6521   0.6521   0.6521   0.6521
     6.2603   6.2603   6.2603   6.2603   6.8952   6.8953   6.8953   6.8953
     6.9156   6.9156   6.9156   6.9156   7.3101   7.3102   7.3102   7.3102
     7.3197   7.3198   7.3198   7.3198   7.3750   7.3750   7.3750   7.3750
     7.7001   7.7002   7.7002   7.7002   7.8508   7.8508   7.8508   7.8508
     7.9121   7.9121   7.9121   7.9121   8.2263   8.2263   8.2263   8.2263
     8.2461   8.2462   8.2462   8.2462   8.5252   8.5253   8.5253   8.5253
     9.2609   9.2609   9.2609   9.2609   9.4873   9.4873   9.4873   9.4873
     9.5241   9.5241   9.5241   9.5241   9.6957   9.6957   9.6957   9.6957
     9.7818   9.7818   9.7818   9.7818   9.9041   9.9041   9.9041   9.9041
    13.1422  13.1422  13.1422  13.1422  13.3626  13.3626  13.3626  13.3627
    13.5569  13.5569  13.5569  13.5569  13.7547  13.7548  13.7548  13.7548
    14.1715  14.1715  14.1715  14.1715  14.2115  14.2115  14.2115  14.2115
    15.0887  15.0887  15.0887  15.0887  16.3889  16.3890  16.3890  16.3890
    16.4634  16.4635  16.4635  16.4635  17.1412  17.1412  17.1413  17.1413

          k =-0.5000-0.5000 0.1649 ( 14876 PWs)   bands (ev):

   -46.1452 -46.1452 -46.1452 -46.1452 -46.1444 -46.1444 -46.1444 -46.1444
   -22.4693 -22.4693 -22.4693 -22.4693 -22.4286 -22.4286 -22.4286 -22.4286
   -22.3929 -22.3929 -22.3929 -22.3929 -22.3922 -22.3922 -22.3922 -22.3922
   -22.3908 -22.3908 -22.3908 -22.3908 -22.3903 -22.3903 -22.3903 -22.3903
   -14.3373 -14.3372 -14.3372 -14.3372 -14.2694 -14.2693 -14.2693 -14.2693
    -6.5043  -6.5043  -6.5043  -6.5043  -6.2104  -6.2103  -6.2103  -6.2103
    -5.8195  -5.8195  -5.8195  -5.8195  -5.7899  -5.7899  -5.7899  -5.7899
    -5.7778  -5.7778  -5.7778  -5.7778  -5.6927  -5.6927  -5.6927  -5.6927
     0.0806   0.0806   0.0806   0.0806   0.2539   0.2539   0.2539   0.2539
     0.3256   0.3256   0.3257   0.3257   0.4378   0.4378   0.4378   0.4378
     0.5793   0.5793   0.5793   0.5793   0.7314   0.7314   0.7314   0.7314
     6.3472   6.3472   6.3472   6.3472   6.8557   6.8558   6.8558   6.8558
     6.9084   6.9084   6.9084   6.9084   7.3122   7.3122   7.3122   7.3122
     7.3698   7.3698   7.3698   7.3698   7.3991   7.3991   7.3991   7.3992
     7.6125   7.6125   7.6125   7.6125   7.9050   7.9051   7.9051   7.9051
     7.9184   7.9185   7.9185   7.9185   8.1841   8.1841   8.1841   8.1841
     8.1907   8.1908   8.1908   8.1908   8.4544   8.4544   8.4544   8.4544
     9.3377   9.3377   9.3377   9.3377   9.4514   9.4514   9.4514   9.4514
     9.5390   9.5390   9.5390   9.5390   9.6919   9.6919   9.6919   9.6920
     9.7856   9.7856   9.7856   9.7856   9.8810   9.8810   9.8810   9.8810
    13.2128  13.2128  13.2128  13.2128  13.3993  13.3993  13.3993  13.3993
    13.5740  13.5740  13.5740  13.5740  13.7387  13.7388  13.7388  13.7388
    14.0966  14.0966  14.0967  14.0967  14.1366  14.1366  14.1366  14.1366
    15.2911  15.2911  15.2911  15.2911  16.3963  16.3963  16.3963  16.3963
    16.4598  16.4599  16.4599  16.4599  17.2529  17.2530  17.2530  17.2530

          k =-0.5000-0.5000 0.3297 ( 14852 PWs)   bands (ev):

   -46.1451 -46.1451 -46.1451 -46.1451 -46.1446 -46.1446 -46.1446 -46.1446
   -22.4607 -22.4607 -22.4607 -22.4607 -22.4372 -22.4372 -22.4372 -22.4372
   -22.3925 -22.3925 -22.3925 -22.3925 -22.3918 -22.3918 -22.3918 -22.3918
   -22.3912 -22.3912 -22.3912 -22.3912 -22.3907 -22.3907 -22.3907 -22.3907
   -14.3231 -14.3231 -14.3230 -14.3230 -14.2839 -14.2839 -14.2838 -14.2838
    -6.4306  -6.4306  -6.4306  -6.4306  -6.2535  -6.2535  -6.2535  -6.2534
    -5.8350  -5.8350  -5.8350  -5.8349  -5.8102  -5.8102  -5.8102  -5.8102
    -5.7602  -5.7602  -5.7602  -5.7602  -5.7111  -5.7111  -5.7111  -5.7111
     0.1326   0.1326   0.1326   0.1326   0.2150   0.2150   0.2150   0.2150
     0.2741   0.2741   0.2741   0.2742   0.3124   0.3124   0.3124   0.3124
     0.6935   0.6935   0.6935   0.6935   0.7911   0.7911   0.7911   0.7911
     6.5294   6.5294   6.5294   6.5294   6.7603   6.7603   6.7603   6.7603
     6.9876   6.9876   6.9876   6.9876   7.3213   7.3213   7.3213   7.3213
     7.3549   7.3549   7.3549   7.3549   7.4764   7.4764   7.4764   7.4764
     7.5877   7.5877   7.5877   7.5877   7.9385   7.9386   7.9386   7.9386
     7.9427   7.9427   7.9427   7.9427   8.0842   8.0843   8.0843   8.0843
     8.0851   8.0851   8.0851   8.0851   8.1921   8.1921   8.1921   8.1921
     9.4759   9.4759   9.4759   9.4759   9.4890   9.4890   9.4890   9.4890
     9.5767   9.5767   9.5767   9.5768   9.6640   9.6640   9.6640   9.6641
     9.7825   9.7825   9.7825   9.7825   9.8248   9.8248   9.8248   9.8248
    13.4006  13.4006  13.4006  13.4006  13.5094  13.5094  13.5094  13.5094
    13.6194  13.6194  13.6194  13.6194  13.6997  13.6997  13.6997  13.6997
    13.9051  13.9051  13.9051  13.9051  13.9452  13.9452  13.9452  13.9452
    15.8029  15.8029  15.8029  15.8029  16.4151  16.4151  16.4151  16.4151
    16.4501  16.4501  16.4501  16.4501  16.9293  16.9293  16.9293  16.9293

          k =-0.5000-0.5000-0.4946 ( 14872 PWs)   bands (ev):

   -46.1448 -46.1448 -46.1448 -46.1448 -46.1448 -46.1448 -46.1448 -46.1448
   -22.4490 -22.4490 -22.4490 -22.4490 -22.4490 -22.4490 -22.4490 -22.4490
   -22.3918 -22.3918 -22.3918 -22.3918 -22.3918 -22.3918 -22.3918 -22.3918
   -22.3913 -22.3913 -22.3913 -22.3913 -22.3912 -22.3912 -22.3912 -22.3912
   -14.3036 -14.3036 -14.3036 -14.3036 -14.3036 -14.3035 -14.3035 -14.3035
    -6.3352  -6.3352  -6.3352  -6.3352  -6.3351  -6.3350  -6.3350  -6.3350
    -5.8308  -5.8308  -5.8308  -5.8308  -5.8308  -5.8308  -5.8308  -5.8307
    -5.7359  -5.7359  -5.7359  -5.7359  -5.7358  -5.7358  -5.7358  -5.7358
     0.2034   0.2034   0.2035   0.2035   0.2035   0.2035   0.2035   0.2035
     0.2323   0.2323   0.2324   0.2324   0.2324   0.2324   0.2324   0.2324
     0.7761   0.7761   0.7761   0.7761   0.7761   0.7761   0.7761   0.7761
     6.6565   6.6565   6.6565   6.6565   6.6566   6.6566   6.6566   6.6566
     7.2443   7.2443   7.2443   7.2443   7.2444   7.2444   7.2444   7.2444
     7.3367   7.3367   7.3367   7.3367   7.3367   7.3368   7.3368   7.3368
     7.8495   7.8495   7.8495   7.8495   7.8495   7.8495   7.8495   7.8495
     7.9906   7.9906   7.9906   7.9906   7.9907   7.9907   7.9907   7.9907
     7.9951   7.9951   7.9951   7.9951   7.9952   7.9952   7.9952   7.9952
     9.5813   9.5813   9.5813   9.5813   9.5813   9.5813   9.5813   9.5813
     9.5873   9.5873   9.5873   9.5873   9.5873   9.5873   9.5873   9.5874
     9.7786   9.7786   9.7786   9.7786   9.7787   9.7787   9.7787   9.7787
    13.6143  13.6143  13.6143  13.6144  13.6144  13.6144  13.6144  13.6144
    13.6845  13.6845  13.6845  13.6845  13.6846  13.6846  13.6846  13.6846
    13.7173  13.7173  13.7173  13.7173  13.7173  13.7173  13.7173  13.7173
    16.4076  16.4076  16.4076  16.4076  16.4078  16.4078  16.4078  16.4078
    16.4344  16.4344  16.4344  16.4345  16.4345  16.4345  16.4345  16.4345

     highest occupied, lowest unoccupied level (ev):    10.4130   12.2494

!    total energy              =   -5964.46998639 Ry
     total all-electron energy =   -147448.923559 Ry
     estimated scf accuracy    <          2.1E-11 Ry

     The total energy is the sum of the following terms:
     one-electron contribution =    -550.15647311 Ry
     hartree contribution      =     483.64606827 Ry
     xc contribution           =    -491.48574445 Ry
     ewald contribution        =   -1653.96634398 Ry
     one-center paw contrib.   =   -3752.50749312 Ry

     convergence has been achieved in   3 iterations

     Forces acting on atoms (cartesian axes, Ry/au):

     atom    1 type  1   force =     0.00000000    0.00000000   -0.00098542
     atom    2 type  1   force =     0.00000000    0.00000000   -0.00095437
     atom    3 type  1   force =     0.00000000    0.00000000   -0.00097464
     atom    4 type  1   force =     0.00000000    0.00000000   -0.00096021
     atom    5 type  1   force =     0.00000000    0.00000000   -0.00097464
     atom    6 type  1   force =     0.00000000    0.00000000   -0.00096021
     atom    7 type  1   force =     0.00000000    0.00000000   -0.00098982
     atom    8 type  1   force =     0.00000000    0.00000000   -0.00095207
     atom    9 type  2   force =    -0.00000075   -0.00000075   -0.00061647
     atom   10 type  2   force =    -0.00000123   -0.00000123   -0.00060747
     atom   11 type  2   force =    -0.00000075    0.00000075   -0.00061647
     atom   12 type  2   force =    -0.00000123    0.00000123   -0.00060747
     atom   13 type  2   force =     0.00000075   -0.00000075   -0.00061647
     atom   14 type  2   force =     0.00000123   -0.00000123   -0.00060747
     atom   15 type  2   force =     0.00000075    0.00000075   -0.00061647
     atom   16 type  2   force =     0.00000123    0.00000123   -0.00060747
     atom   17 type  3   force =    -0.00000143   -0.00000143    0.00078485
     atom   18 type  3   force =    -0.00000238   -0.00000238    0.00079458
     atom   19 type  3   force =    -0.00000143    0.00000143    0.00078485
     atom   20 type  3   force =    -0.00000238    0.00000238    0.00079458
     atom   21 type  3   force =     0.00000143   -0.00000143    0.00078485
     atom   22 type  3   force =     0.00000238   -0.00000238    0.00079458
     atom   23 type  3   force =     0.00000143    0.00000143    0.00078485
     atom   24 type  3   force =     0.00000238    0.00000238    0.00079458
     atom   25 type  3   force =    -0.00000192    0.00000000    0.00038944
     atom   26 type  3   force =    -0.00000558    0.00000000    0.00039476
     atom   27 type  3   force =     0.00000077    0.00000000    0.00039407
     atom   28 type  3   force =     0.00000315    0.00000000    0.00040409
     atom   29 type  3   force =     0.00000192    0.00000000    0.00038944
     atom   30 type  3   force =     0.00000558    0.00000000    0.00039476
     atom   31 type  3   force =    -0.00000077    0.00000000    0.00039407
     atom   32 type  3   force =    -0.00000315    0.00000000    0.00040409
     atom   33 type  3   force =     0.00000000   -0.00000192    0.00038944
     atom   34 type  3   force =     0.00000000   -0.00000558    0.00039476
     atom   35 type  3   force =     0.00000000    0.00000192    0.00038944
     atom   36 type  3   force =     0.00000000    0.00000558    0.00039476
     atom   37 type  3   force =     0.00000000    0.00000077    0.00039407
     atom   38 type  3   force =     0.00000000    0.00000315    0.00040409
     atom   39 type  3   force =     0.00000000   -0.00000077    0.00039407
     atom   40 type  3   force =    -0.00000000   -0.00000315    0.00040409

     Total force =     0.004243     Total SCF correction =     0.000005


     Computing stress (Cartesian axis) and pressure

          total   stress  (Ry/bohr**3)                   (kbar)     P=       -2.95
  -0.00005901   0.00000000   0.00000000           -8.68        0.00        0.00
   0.00000000  -0.00005901   0.00000000            0.00       -8.68        0.00
   0.00000000   0.00000000   0.00005794            0.00        0.00        8.52


     Writing all to output data dir ./tmp/40_ecut_6_kmesh_PBE.save/ :
     XML data file, charge density, pseudopotentials, collected wavefunctions

     init_run     :      1.43s CPU      2.33s WALL (       1 calls)
     electrons    :      6.64s CPU      6.99s WALL (       1 calls)
     forces       :      0.37s CPU      0.40s WALL (       1 calls)
     stress       :      1.00s CPU      1.06s WALL (       1 calls)

     Called by init_run:
     wfcinit      :      0.54s CPU      1.31s WALL (       1 calls)
     potinit      :      0.35s CPU      0.39s WALL (       1 calls)
     hinit0       :      0.34s CPU      0.42s WALL (       1 calls)

     Called by electrons:
     c_bands      :      5.54s CPU      5.78s WALL (       4 calls)
     sum_band     :      0.64s CPU      0.69s WALL (       4 calls)
     v_of_rho     :      0.05s CPU      0.06s WALL (       4 calls)
     newd         :      0.03s CPU      0.03s WALL (       4 calls)
     PAW_pot      :      0.20s CPU      0.21s WALL (       4 calls)
     mix_rho      :      0.00s CPU      0.00s WALL (       4 calls)

     Called by c_bands:
     init_us_2    :      0.10s CPU      0.11s WALL (      50 calls)
     cegterg      :      5.21s CPU      5.44s WALL (      20 calls)

     Called by *egterg:
     cdiaghg      :      1.26s CPU      1.35s WALL (      79 calls)
     h_psi        :      2.41s CPU      2.51s WALL (      89 calls)
     s_psi        :      0.35s CPU      0.36s WALL (      89 calls)
     g_psi        :      0.00s CPU      0.00s WALL (      69 calls)

     Called by h_psi:
     h_psi:calbec :      0.54s CPU      0.60s WALL (      89 calls)
     vloc_psi     :      1.50s CPU      1.53s WALL (      89 calls)
                                        0.00s GPU  (      89 calls)
     add_vuspsi   :      0.36s CPU      0.36s WALL (      89 calls)

     General routines
     calbec       :      1.73s CPU      1.90s WALL (     194 calls)
     fft          :      0.33s CPU      0.37s WALL (      76 calls)
     ffts         :      0.25s CPU      0.25s WALL (       8 calls)
     fftw         :      1.71s CPU      1.74s WALL (   22080 calls)
     interpolate  :      0.25s CPU      0.25s WALL (       4 calls)

     Parallel routines

     PWSCF        :     10.68s CPU     13.44s WALL


   This run was terminated on:   0:12:58  21May2026            

=------------------------------------------------------------------------------=
   JOB DONE.
=------------------------------------------------------------------------------=
