
     Program PWSCF v.7.5 starts on 21May2026 at  0:13:46 

     This program is part of the open-source Quantum ESPRESSO suite
     for quantum simulation of materials; please cite
         "P. Giannozzi et al., J. Phys.:Condens. Matter 21 395502 (2009);
         "P. Giannozzi et al., J. Phys.:Condens. Matter 29 465901 (2017);
         "P. Giannozzi et al., J. Chem. Phys. 152 154105 (2020);
          URL http://www.quantum-espresso.org", 
     in publications or presentations arising from this work. More details at
     http://www.quantum-espresso.org/quote

     Parallel version (MPI & OpenMP), running on     192 processor cores
     Number of MPI processes:               192
     Threads/MPI process:                     1

     MPI processes distributed on     1 nodes
     379718 MiB available memory on the printing compute node when the environment starts

     Waiting for input...
     Reading input from standard input

     Current dimensions of program PWSCF are:
     Max number of different atomic species (ntypx) = 10
     Max number of k-points (npk) =  40000
     Max angular momentum in pseudopotentials (lmaxx) =  4
     file Ba.pbe-spn-kjpaw_psl.1.0.0.UPF: wavefunction(s)  5S 6S renormalized
     file Ti.pbe-spn-kjpaw_psl.1.0.0.UPF: wavefunction(s)  3S 3P 3D renormalized
     file O.pbe-n-kjpaw_psl.1.0.0.UPF: wavefunction(s)  2S 2P renormalized

     IMPORTANT: XC functional enforced from input :
     Exchange-correlation= PBE
                           (   1   4   3   4   0   0   0)
     Any further DFT definition will be discarded
     Please, verify this is what you really want

     Found identity + ( -0.5000 -0.5000  0.0000) symmetry
     This is a supercell, fractional translations are disabled

     K-points division:     npool     =       8
     R & G space division:  proc/nbgrp/npool/nimage =      24
     Subspace diagonalization in iterative solution of the eigenvalue problem:
     one sub-group per band group will be used
     ELPA distributed-memory algorithm (size of sub-group:  2*  2 procs)


     Parallelization info
     --------------------
     sticks:   dense  smooth     PW     G-vecs:    dense   smooth      PW
     Min         301     150     41                19547     6905     997
     Max         302     152     42                19550     6908    1002
     Sum        7237    3605    997               469165   165745   23993

     Using Slab Decomposition



     bravais-lattice index     =            6
     lattice parameter (alat)  =      15.0876  a.u.
     unit-cell volume          =    3472.3239 (a.u.)^3
     number of atoms/cell      =           40
     number of atomic types    =            3
     number of electrons       =       320.00
     number of Kohn-Sham states=          200
     kinetic-energy cutoff     =      50.0000  Ry
     charge density cutoff     =     400.0000  Ry
     scf convergence threshold =      1.0E-10
     mixing beta               =       0.3000
     number of iterations used =           16  plain     mixing
     Exchange-correlation= PBE
                           (   1   4   3   4   0   0   0)

     celldm(1)=  15.087600  celldm(2)=   0.000000  celldm(3)=   1.011020
     celldm(4)=   0.000000  celldm(5)=   0.000000  celldm(6)=   0.000000

     crystal axes: (cart. coord. in units of alat)
               a(1) = (   1.000000   0.000000   0.000000 )  
               a(2) = (   0.000000   1.000000   0.000000 )  
               a(3) = (   0.000000   0.000000   1.011020 )  

     reciprocal axes: (cart. coord. in units 2 pi/alat)
               b(1) = (  1.000000  0.000000  0.000000 )  
               b(2) = (  0.000000  1.000000  0.000000 )  
               b(3) = (  0.000000  0.000000  0.989100 )  


     PseudoPot. # 1 for Ba read from file:
     /home/kylay/scratch/BTO/pseuds/Ba.pbe-spn-kjpaw_psl.1.0.0.UPF
     MD5 check sum: 7cfe25f1fe7574a4710541d5a11d6531
     Pseudo is Projector augmented-wave + core cor, Zval = 10.0
     Generated using &quot;atomic&quot; code by A. Dal Corso  v.6.2.2
     Shape of augmentation charge: PSQ
     Using radial grid of 1251 points,  7 beta functions with: 
                l(1) =   0
                l(2) =   0
                l(3) =   0
                l(4) =   1
                l(5) =   1
                l(6) =   2
                l(7) =   2
     Q(r) pseudized with 0 coefficients 


     PseudoPot. # 2 for Ti read from file:
     /home/kylay/scratch/BTO/pseuds/Ti.pbe-spn-kjpaw_psl.1.0.0.UPF
     MD5 check sum: 01f69b0d8ba4438b2e03ac6ea4af1c0b
     Pseudo is Projector augmented-wave + core cor, Zval = 12.0
     Generated using &quot;atomic&quot; code by A. Dal Corso  v.6.2.2
     Shape of augmentation charge: PSQ
     Using radial grid of 1177 points,  6 beta functions with: 
                l(1) =   0
                l(2) =   0
                l(3) =   1
                l(4) =   1
                l(5) =   2
                l(6) =   2
     Q(r) pseudized with 0 coefficients 


     PseudoPot. # 3 for O  read from file:
     /home/kylay/scratch/BTO/pseuds/O.pbe-n-kjpaw_psl.1.0.0.UPF
     MD5 check sum: e99d9cef9b487d1ca56f5b95ecd0fd7a
     Pseudo is Projector augmented-wave + core cor, Zval =  6.0
     Generated using &quot;atomic&quot; code by A. Dal Corso  v.6.3
     Shape of augmentation charge: PSQ
     Using radial grid of 1095 points,  4 beta functions with: 
                l(1) =   0
                l(2) =   0
                l(3) =   1
                l(4) =   1
     Q(r) pseudized with 0 coefficients 


     atomic species   valence    mass     pseudopotential
     Ba               10.00   137.32700     Ba( 1.00)
     Ti               12.00    47.86700     Ti( 1.00)
     O                 6.00    15.99900     O ( 1.00)

      8 Sym. Ops. (no inversion) found



   Cartesian axes

     site n.     atom                  positions (alat units)
         1        Ba     tau(   1) = (   0.0000000   0.0000000  -0.0010787  )
         2        Ba     tau(   2) = (   0.0000000   0.0000000   0.5044220  )
         3        Ba     tau(   3) = (   0.0000000   0.5000000  -0.0010832  )
         4        Ba     tau(   4) = (   0.0000000   0.5000000   0.5044235  )
         5        Ba     tau(   5) = (   0.5000000   0.0000000  -0.0010832  )
         6        Ba     tau(   6) = (   0.5000000   0.0000000   0.5044235  )
         7        Ba     tau(   7) = (   0.5000000   0.5000000  -0.0010766  )
         8        Ba     tau(   8) = (   0.5000000   0.5000000   0.5044202  )
         9        Ti     tau(   9) = (   0.2500002   0.2500002   0.2436990  )
        10        Ti     tau(  10) = (   0.2500007   0.2500007   0.7492042  )
        11        Ti     tau(  11) = (   0.2500002   0.7499998   0.2436990  )
        12        Ti     tau(  12) = (   0.2500007   0.7499993   0.7492042  )
        13        Ti     tau(  13) = (   0.7499998   0.2500002   0.2436990  )
        14        Ti     tau(  14) = (   0.7499993   0.2500007   0.7492042  )
        15        Ti     tau(  15) = (   0.7499998   0.7499998   0.2436990  )
        16        Ti     tau(  16) = (   0.7499993   0.7499993   0.7492042  )
        17        O      tau(  17) = (   0.2500011   0.2500011   0.0113903  )
        18        O      tau(  18) = (   0.2500007   0.2500007   0.5168954  )
        19        O      tau(  19) = (   0.2500011   0.7499989   0.0113903  )
        20        O      tau(  20) = (   0.2500007   0.7499993   0.5168954  )
        21        O      tau(  21) = (   0.7499989   0.2500011   0.0113903  )
        22        O      tau(  22) = (   0.7499993   0.2500007   0.5168954  )
        23        O      tau(  23) = (   0.7499989   0.7499989   0.0113903  )
        24        O      tau(  24) = (   0.7499993   0.7499993   0.5168954  )
        25        O      tau(  25) = (   0.2500005   0.0000000   0.2592128  )
        26        O      tau(  26) = (   0.2500020   0.0000000   0.7647195  )
        27        O      tau(  27) = (   0.2499999   0.5000000   0.2592107  )
        28        O      tau(  28) = (   0.2499998   0.5000000   0.7647148  )
        29        O      tau(  29) = (   0.7499995   0.0000000   0.2592128  )
        30        O      tau(  30) = (   0.7499980   0.0000000   0.7647195  )
        31        O      tau(  31) = (   0.7500001   0.5000000   0.2592107  )
        32        O      tau(  32) = (   0.7500002   0.5000000   0.7647148  )
        33        O      tau(  33) = (   0.0000000   0.2500005   0.2592128  )
        34        O      tau(  34) = (   0.0000000   0.2500020   0.7647195  )
        35        O      tau(  35) = (   0.0000000   0.7499995   0.2592128  )
        36        O      tau(  36) = (   0.0000000   0.7499980   0.7647195  )
        37        O      tau(  37) = (   0.5000000   0.2499999   0.2592107  )
        38        O      tau(  38) = (   0.5000000   0.2499998   0.7647148  )
        39        O      tau(  39) = (   0.5000000   0.7500001   0.2592107  )
        40        O      tau(  40) = (   0.5000000   0.7500002   0.7647148  )

     number of k points=    75
                       cart. coord. in units 2pi/alat
        k(    1) = (   0.0000000   0.0000000   0.0000000), wk =   0.0039062
        k(    2) = (   0.0000000   0.0000000   0.1236375), wk =   0.0078125
        k(    3) = (   0.0000000   0.0000000   0.2472750), wk =   0.0078125
        k(    4) = (   0.0000000   0.0000000   0.3709125), wk =   0.0078125
        k(    5) = (   0.0000000   0.0000000  -0.4945501), wk =   0.0039062
        k(    6) = (   0.0000000   0.1250000   0.0000000), wk =   0.0156250
        k(    7) = (   0.0000000   0.1250000   0.1236375), wk =   0.0312500
        k(    8) = (   0.0000000   0.1250000   0.2472750), wk =   0.0312500
        k(    9) = (   0.0000000   0.1250000   0.3709125), wk =   0.0312500
        k(   10) = (   0.0000000   0.1250000  -0.4945501), wk =   0.0156250
        k(   11) = (   0.0000000   0.2500000   0.0000000), wk =   0.0156250
        k(   12) = (   0.0000000   0.2500000   0.1236375), wk =   0.0312500
        k(   13) = (   0.0000000   0.2500000   0.2472750), wk =   0.0312500
        k(   14) = (   0.0000000   0.2500000   0.3709125), wk =   0.0312500
        k(   15) = (   0.0000000   0.2500000  -0.4945501), wk =   0.0156250
        k(   16) = (   0.0000000   0.3750000   0.0000000), wk =   0.0156250
        k(   17) = (   0.0000000   0.3750000   0.1236375), wk =   0.0312500
        k(   18) = (   0.0000000   0.3750000   0.2472750), wk =   0.0312500
        k(   19) = (   0.0000000   0.3750000   0.3709125), wk =   0.0312500
        k(   20) = (   0.0000000   0.3750000  -0.4945501), wk =   0.0156250
        k(   21) = (   0.0000000  -0.5000000   0.0000000), wk =   0.0078125
        k(   22) = (   0.0000000  -0.5000000   0.1236375), wk =   0.0156250
        k(   23) = (   0.0000000  -0.5000000   0.2472750), wk =   0.0156250
        k(   24) = (   0.0000000  -0.5000000   0.3709125), wk =   0.0156250
        k(   25) = (   0.0000000  -0.5000000  -0.4945501), wk =   0.0078125
        k(   26) = (   0.1250000   0.1250000   0.0000000), wk =   0.0156250
        k(   27) = (   0.1250000   0.1250000   0.1236375), wk =   0.0312500
        k(   28) = (   0.1250000   0.1250000   0.2472750), wk =   0.0312500
        k(   29) = (   0.1250000   0.1250000   0.3709125), wk =   0.0312500
        k(   30) = (   0.1250000   0.1250000  -0.4945501), wk =   0.0156250
        k(   31) = (   0.1250000   0.2500000   0.0000000), wk =   0.0312500
        k(   32) = (   0.1250000   0.2500000   0.1236375), wk =   0.0625000
        k(   33) = (   0.1250000   0.2500000   0.2472750), wk =   0.0625000
        k(   34) = (   0.1250000   0.2500000   0.3709125), wk =   0.0625000
        k(   35) = (   0.1250000   0.2500000  -0.4945501), wk =   0.0312500
        k(   36) = (   0.1250000   0.3750000   0.0000000), wk =   0.0312500
        k(   37) = (   0.1250000   0.3750000   0.1236375), wk =   0.0625000
        k(   38) = (   0.1250000   0.3750000   0.2472750), wk =   0.0625000
        k(   39) = (   0.1250000   0.3750000   0.3709125), wk =   0.0625000
        k(   40) = (   0.1250000   0.3750000  -0.4945501), wk =   0.0312500
        k(   41) = (   0.1250000  -0.5000000   0.0000000), wk =   0.0156250
        k(   42) = (   0.1250000  -0.5000000   0.1236375), wk =   0.0312500
        k(   43) = (   0.1250000  -0.5000000   0.2472750), wk =   0.0312500
        k(   44) = (   0.1250000  -0.5000000   0.3709125), wk =   0.0312500
        k(   45) = (   0.1250000  -0.5000000  -0.4945501), wk =   0.0156250
        k(   46) = (   0.2500000   0.2500000   0.0000000), wk =   0.0156250
        k(   47) = (   0.2500000   0.2500000   0.1236375), wk =   0.0312500
        k(   48) = (   0.2500000   0.2500000   0.2472750), wk =   0.0312500
        k(   49) = (   0.2500000   0.2500000   0.3709125), wk =   0.0312500
        k(   50) = (   0.2500000   0.2500000  -0.4945501), wk =   0.0156250
        k(   51) = (   0.2500000   0.3750000   0.0000000), wk =   0.0312500
        k(   52) = (   0.2500000   0.3750000   0.1236375), wk =   0.0625000
        k(   53) = (   0.2500000   0.3750000   0.2472750), wk =   0.0625000
        k(   54) = (   0.2500000   0.3750000   0.3709125), wk =   0.0625000
        k(   55) = (   0.2500000   0.3750000  -0.4945501), wk =   0.0312500
        k(   56) = (   0.2500000  -0.5000000   0.0000000), wk =   0.0156250
        k(   57) = (   0.2500000  -0.5000000   0.1236375), wk =   0.0312500
        k(   58) = (   0.2500000  -0.5000000   0.2472750), wk =   0.0312500
        k(   59) = (   0.2500000  -0.5000000   0.3709125), wk =   0.0312500
        k(   60) = (   0.2500000  -0.5000000  -0.4945501), wk =   0.0156250
        k(   61) = (   0.3750000   0.3750000   0.0000000), wk =   0.0156250
        k(   62) = (   0.3750000   0.3750000   0.1236375), wk =   0.0312500
        k(   63) = (   0.3750000   0.3750000   0.2472750), wk =   0.0312500
        k(   64) = (   0.3750000   0.3750000   0.3709125), wk =   0.0312500
        k(   65) = (   0.3750000   0.3750000  -0.4945501), wk =   0.0156250
        k(   66) = (   0.3750000  -0.5000000   0.0000000), wk =   0.0156250
        k(   67) = (   0.3750000  -0.5000000   0.1236375), wk =   0.0312500
        k(   68) = (   0.3750000  -0.5000000   0.2472750), wk =   0.0312500
        k(   69) = (   0.3750000  -0.5000000   0.3709125), wk =   0.0312500
        k(   70) = (   0.3750000  -0.5000000  -0.4945501), wk =   0.0156250
        k(   71) = (  -0.5000000  -0.5000000   0.0000000), wk =   0.0039062
        k(   72) = (  -0.5000000  -0.5000000   0.1236375), wk =   0.0078125
        k(   73) = (  -0.5000000  -0.5000000   0.2472750), wk =   0.0078125
        k(   74) = (  -0.5000000  -0.5000000   0.3709125), wk =   0.0078125
        k(   75) = (  -0.5000000  -0.5000000  -0.4945501), wk =   0.0039062

     Dense  grid:   469165 G-vectors     FFT dimensions: ( 100, 100, 100)

     Smooth grid:   165745 G-vectors     FFT dimensions: (  72,  72,  72)

     Estimated max dynamical RAM per process >      78.37 MB

     Estimated total dynamical RAM >      13.13 GB

     Check: negative core charge=   -0.000005

     The initial density is read from file :
     ./tmp/50_ecut_8_kmesh_PBE.save/charge-density

     Starting wfcs from file
     Checking if some PAW data can be deallocated... 

     total cpu time spent up to now is        6.0 secs

     per-process dynamical memory:   135.8 Mb

     Self-consistent Calculation

     iteration #  1     ecut=    50.00 Ry     beta= 0.30
     Davidson diagonalization with overlap
     c_bands:  1 eigenvalues not converged
     ethr =  1.00E-05,  avg # of iterations =  1.5

     Threshold (ethr) on eigenvalues was too large:
     Diagonalizing with lowered threshold

     Davidson diagonalization with overlap
     ethr =  1.38E-11,  avg # of iterations =  2.0

     total cpu time spent up to now is       13.6 secs

     total energy              =   -5964.58031324 Ry
     estimated scf accuracy    <       0.00000005 Ry

     iteration #  2     ecut=    50.00 Ry     beta= 0.30
     Davidson diagonalization with overlap
     ethr =  1.59E-11,  avg # of iterations =  2.0

     total cpu time spent up to now is       17.3 secs

     total energy              =   -5964.58031325 Ry
     estimated scf accuracy    <          9.1E-09 Ry

     iteration #  3     ecut=    50.00 Ry     beta= 0.30
     Davidson diagonalization with overlap
     ethr =  2.86E-12,  avg # of iterations =  2.9

     total cpu time spent up to now is       21.5 secs

     total energy              =   -5964.58031325 Ry
     estimated scf accuracy    <          4.7E-10 Ry

     iteration #  4     ecut=    50.00 Ry     beta= 0.30
     Davidson diagonalization with overlap
     ethr =  1.47E-13,  avg # of iterations =  6.2

     total cpu time spent up to now is       28.5 secs

     total energy              =   -5964.58031325 Ry
     estimated scf accuracy    <          1.8E-10 Ry

     iteration #  5     ecut=    50.00 Ry     beta= 0.30
     Davidson diagonalization with overlap
     ethr =  1.00E-13,  avg # of iterations =  1.3

     total cpu time spent up to now is       32.0 secs

     End of self-consistent calculation

          k = 0.0000 0.0000 0.0000 ( 20651 PWs)   bands (ev):

   -46.1120 -46.1112 -46.1110 -46.1110 -46.1101 -46.1101 -46.1099 -46.1090
   -22.4465 -22.4428 -22.4428 -22.4398 -22.3978 -22.3959 -22.3959 -22.3941
   -22.3920 -22.3920 -22.3887 -22.3887 -22.3884 -22.3884 -22.3859 -22.3859
   -22.3378 -22.3378 -22.3362 -22.3362 -22.3360 -22.3360 -22.3343 -22.3343
   -14.4575 -14.3460 -14.3365 -14.3365 -14.2671 -14.2670 -14.2591 -14.1986
    -6.7750  -6.7750  -6.7227  -6.5323  -6.2540  -6.1410  -6.1410  -5.9067
    -5.9067  -5.9058  -5.8452  -5.8452  -5.8113  -5.7791  -5.7474  -5.7474
    -5.7444  -5.7444  -5.7359  -5.6701  -5.5767  -5.5767  -5.5151  -5.5151
    -0.3535  -0.3535  -0.2914   0.2992   0.2992   0.3153   0.3153   0.3655
     0.3709   0.3709   0.3750   0.3750   0.5281   0.5281   0.5329   0.5330
     0.5498   0.5498   0.7385   0.7428   0.7428   0.7628   0.7628   0.8066
     5.9200   6.0781   6.1031   6.1031   6.2960   6.2960   6.3348   6.3506
     6.4075   6.4075   6.5600   6.5600   6.5604   6.5821   6.5978   7.5269
     7.5269   7.5779   7.5779   7.6251   7.6251   7.6262   7.6262   7.6399
     7.6399   7.7391   7.7391   7.9245   7.9245   7.9540   8.0515   8.0864
     8.0864   8.0919   8.0919   8.3862   8.3862   8.4550   8.4584   8.4708
     8.4708   8.5516   8.5516   8.6155   8.6912   8.6912   8.7160   8.7160
     9.0506   9.0506   9.2292   9.3439   9.3439   9.3769   9.3769   9.4737
     9.4737   9.4822   9.4822   9.5007   9.5007   9.7150   9.7150   9.9953
    10.0601  10.0601  10.1768  10.1768  10.2470  10.2470  10.3384  10.4089
    12.2321  12.3785  12.5502  12.5502  12.6669  12.6669  13.9475  13.9475
    13.9762  13.9762  14.0035  14.0035  14.0096  14.0096  14.0243  14.0243
    14.0262  14.0262  14.3677  14.3678  14.3967  14.4665  14.4671  14.5532
    14.5532  14.6135  14.6135  14.6186  14.6212  15.1017  15.3022  15.3022
    15.3438  15.4902  16.2977  16.2977  16.4940  16.8981  17.1088  17.1089

          k = 0.0000 0.0000 0.1236 ( 20635 PWs)   bands (ev):

   -46.1120 -46.1112 -46.1109 -46.1109 -46.1101 -46.1101 -46.1099 -46.1091
   -22.4445 -22.4409 -22.4409 -22.4381 -22.3998 -22.3977 -22.3977 -22.3957
   -22.3918 -22.3918 -22.3889 -22.3889 -22.3883 -22.3883 -22.3861 -22.3861
   -22.3377 -22.3377 -22.3362 -22.3362 -22.3359 -22.3359 -22.3344 -22.3344
   -14.4534 -14.3503 -14.3339 -14.3339 -14.2697 -14.2697 -14.2568 -14.2009
    -6.7562  -6.7562  -6.7101  -6.5308  -6.2356  -6.1819  -6.1819  -5.9074
    -5.8885  -5.8885  -5.8431  -5.8431  -5.8100  -5.7804  -5.7571  -5.7385
    -5.7385  -5.7384  -5.7384  -5.6862  -5.5835  -5.5835  -5.5238  -5.5238
    -0.3299  -0.3299  -0.2587   0.2728   0.2728   0.3307   0.3307   0.3756
     0.3756   0.3806   0.3806   0.3825   0.5220   0.5220   0.5251   0.5251
     0.5568   0.5568   0.6901   0.7350   0.7350   0.7441   0.7441   0.7900
     5.9466   6.0789   6.1366   6.1366   6.3362   6.3362   6.3957   6.4004
     6.4004   6.4205   6.5827   6.5907   6.5907   6.5972   6.6031   7.5296
     7.5296   7.5765   7.5766   7.6149   7.6149   7.6491   7.6491   7.6603
     7.6603   7.7682   7.7682   7.8974   7.8975   7.8993   7.9210   7.9210
     7.9817   8.0754   8.0754   8.3994   8.3994   8.4801   8.5016   8.5047
     8.5059   8.5059   8.5184   8.5184   8.7097   8.7097   8.9082   8.9082
     9.0072   9.0072   9.1939   9.3100   9.3100   9.3972   9.3972   9.4197
     9.4197   9.4459   9.4459   9.4620   9.4620   9.7266   9.7266   9.9071
    10.0464  10.0464  10.1553  10.1553  10.2011  10.2011  10.3410  10.4062
    12.2375  12.3728  12.6145  12.6145  12.7249  12.7249  13.9488  13.9488
    13.9588  13.9588  13.9751  13.9751  13.9758  13.9758  14.0059  14.0059
    14.0461  14.0461  14.3421  14.3421  14.4049  14.4664  14.4667  14.5863
    14.5863  14.6123  14.6310  14.6310  14.7229  15.2244  15.2972  15.2972
    15.4183  15.5639  16.3427  16.3427  16.4413  16.8959  17.2049  17.2566

          k = 0.0000 0.0000 0.2473 ( 20702 PWs)   bands (ev):

   -46.1119 -46.1113 -46.1109 -46.1109 -46.1102 -46.1102 -46.1098 -46.1092
   -22.4394 -22.4359 -22.4359 -22.4333 -22.4051 -22.4030 -22.4030 -22.4007
   -22.3915 -22.3915 -22.3892 -22.3892 -22.3882 -22.3882 -22.3864 -22.3864
   -22.3376 -22.3376 -22.3365 -22.3365 -22.3358 -22.3358 -22.3345 -22.3345
   -14.4416 -14.3627 -14.3265 -14.3265 -14.2774 -14.2774 -14.2503 -14.2076
    -6.7017  -6.7017  -6.6755  -6.5313  -6.2762  -6.2762  -6.1825  -5.9064
    -5.8585  -5.8585  -5.8377  -5.8377  -5.8166  -5.8066  -5.7839  -5.7302
    -5.7212  -5.7212  -5.7130  -5.7130  -5.6027  -5.6027  -5.5487  -5.5487
    -0.2624  -0.2624  -0.1637   0.1982   0.1982   0.3753   0.3753   0.3894
     0.3895   0.3965   0.3965   0.4310   0.5036   0.5036   0.5047   0.5047
     0.5577   0.5767   0.5767   0.6917   0.6917   0.7130   0.7130   0.7427
     6.0032   6.0805   6.2103   6.2103   6.3813   6.3813   6.4549   6.4549
     6.5709   6.5844   6.5955   6.6144   6.6997   6.6997   6.7477   7.5368
     7.5369   7.5561   7.5561   7.5600   7.5600   7.5726   7.5726   7.7129
     7.7129   7.7135   7.7135   7.7415   7.7846   7.8515   7.8515   7.9091
     7.9091   8.0416   8.0416   8.2085   8.4248   8.4248   8.4402   8.4402
     8.5530   8.6191   8.6191   8.6281   8.7644   8.7645   8.8946   8.8946
     9.0966   9.2190   9.2190   9.2271   9.2271   9.2860   9.2860   9.3517
     9.3517   9.3710   9.3710   9.4604   9.4604   9.6793   9.7606   9.7606
    10.0067  10.0067  10.0762  10.0762  10.0871  10.0871  10.3485  10.3984
    12.2528  12.3563  12.7914  12.7914  12.8852  12.8852  13.8132  13.8132
    13.8370  13.8370  13.9522  13.9522  13.9723  13.9723  14.0176  14.0176
    14.1034  14.1034  14.2743  14.2743  14.4283  14.4659  14.4660  14.5128
    14.5128  14.5871  14.8164  14.8164  14.9956  15.2788  15.2788  15.5523
    15.6292  15.7783  16.2861  16.4866  16.4866  16.8654  17.0281  17.4502

          k = 0.0000 0.0000 0.3709 ( 20690 PWs)   bands (ev):

   -46.1118 -46.1114 -46.1107 -46.1107 -46.1104 -46.1104 -46.1096 -46.1093
   -22.4315 -22.4284 -22.4284 -22.4259 -22.4131 -22.4105 -22.4105 -22.4081
   -22.3909 -22.3909 -22.3897 -22.3897 -22.3877 -22.3877 -22.3868 -22.3868
   -22.3373 -22.3373 -22.3368 -22.3368 -22.3355 -22.3355 -22.3349 -22.3349
   -14.4237 -14.3810 -14.3154 -14.3153 -14.2888 -14.2887 -14.2406 -14.2174
    -6.6276  -6.6166  -6.6166  -6.5454  -6.3915  -6.3915  -6.1017  -5.9039
    -5.8894  -5.8381  -5.8381  -5.8320  -5.8320  -5.8014  -5.7899  -5.7891
    -5.6950  -5.6950  -5.6751  -5.6751  -5.6309  -5.6309  -5.5862  -5.5861
    -0.1601  -0.1601  -0.0150   0.0889   0.0889   0.3728   0.4119   0.4120
     0.4207   0.4207   0.4440   0.4440   0.4735   0.4736   0.4793   0.4793
     0.5032   0.6070   0.6070   0.6153   0.6153   0.6717   0.6807   0.6807
     6.0494   6.0802   6.2763   6.2763   6.3545   6.3545   6.5869   6.5930
     6.6470   6.6470   6.8382   6.8916   6.9062   6.9062   7.0151   7.2127
     7.2127   7.4127   7.4127   7.4949   7.4992   7.5467   7.5467   7.5659
     7.5659   7.7803   7.7803   7.8035   7.8035   7.8075   7.8839   7.8839
     7.9782   7.9782   7.9829   7.9829   8.2880   8.2880   8.5117   8.5117
     8.6665   8.7520   8.7520   8.7896   8.7896   8.8291   8.8526   8.8526
     8.9593   9.0961   9.0962   9.1860   9.1860   9.1917   9.1917   9.2739
     9.2739   9.3860   9.5283   9.5283   9.5707   9.5707   9.8135   9.8135
     9.9044   9.9044   9.9473   9.9473   9.9637   9.9637  10.3598  10.3868
    12.2759  12.3319  13.0424  13.0424  13.1152  13.1152  13.5917  13.5917
    13.6274  13.6274  13.9571  13.9571  13.9680  13.9680  14.0488  14.0488
    14.1873  14.1873  14.1909  14.1909  14.4106  14.4106  14.4639  14.4654
    14.4656  14.5498  15.0117  15.0117  15.2365  15.2365  15.3521  15.9435
    15.9900  16.0383  16.1141  16.6965  16.7309  16.7403  16.7403  17.0075

          k = 0.0000 0.0000-0.4946 ( 20690 PWs)   bands (ev):

   -46.1116 -46.1116 -46.1105 -46.1105 -46.1105 -46.1105 -46.1095 -46.1095
   -22.4225 -22.4225 -22.4194 -22.4194 -22.4194 -22.4194 -22.4172 -22.4172
   -22.3903 -22.3903 -22.3902 -22.3902 -22.3872 -22.3872 -22.3872 -22.3872
   -22.3371 -22.3371 -22.3371 -22.3371 -22.3352 -22.3351 -22.3351 -22.3351
   -14.4025 -14.4024 -14.3022 -14.3021 -14.3021 -14.3020 -14.2291 -14.2290
    -6.5796  -6.5795  -6.5096  -6.5096  -6.5095  -6.5095  -6.0042  -6.0041
    -5.8485  -5.8484  -5.8305  -5.8305  -5.8304  -5.8304  -5.7953  -5.7952
    -5.6634  -5.6634  -5.6633  -5.6633  -5.6306  -5.6306  -5.6305  -5.6304
    -0.0371  -0.0371  -0.0370  -0.0370   0.1715   0.1716   0.4411   0.4412
     0.4412   0.4413   0.4497   0.4497   0.4498   0.4498   0.5280   0.5280
     0.5281   0.5281   0.5876   0.5877   0.6434   0.6434   0.6435   0.6435
     6.0726   6.0727   6.3212   6.3212   6.3213   6.3213   6.5899   6.5900
     6.9036   6.9036   6.9037   6.9037   7.1617   7.1619   7.1715   7.1715
     7.1717   7.1717   7.2025   7.2025   7.3860   7.3862   7.5570   7.5570
     7.5571   7.5571   7.8407   7.8407   7.8408   7.8408   7.9001   7.9001
     7.9002   7.9002   8.1310   8.1310   8.1311   8.1311   8.6171   8.6171
     8.6172   8.6172   8.8079   8.8081   8.9673   8.9674   8.9674   8.9674
     8.9888   8.9888   8.9889   8.9889   9.0895   9.0895   9.1964   9.1964
     9.1964   9.1964   9.7248   9.7248   9.7248   9.7248   9.7776   9.7776
     9.7776   9.7776   9.8789   9.8789   9.8790   9.8790  10.3732  10.3734
    12.3036  12.3037  13.3229  13.3229  13.3230  13.3230  13.3753  13.3753
    13.3754  13.3754  13.9627  13.9627  13.9627  13.9627  14.1065  14.1065
    14.1066  14.1066  14.2979  14.2979  14.2979  14.2979  14.4653  14.4654
    14.5065  14.5065  15.1536  15.1536  15.1536  15.1536  15.7165  15.7166
    16.3163  16.3165  16.4219  16.4221  16.5395  16.5397  17.0785  17.0785

          k = 0.0000 0.1250 0.0000 ( 20712 PWs)   bands (ev):

   -46.1120 -46.1111 -46.1110 -46.1109 -46.1101 -46.1101 -46.1100 -46.1091
   -22.4462 -22.4430 -22.4428 -22.4400 -22.3978 -22.3961 -22.3959 -22.3942
   -22.3919 -22.3900 -22.3887 -22.3886 -22.3868 -22.3865 -22.3862 -22.3842
   -22.3399 -22.3382 -22.3380 -22.3377 -22.3363 -22.3361 -22.3361 -22.3343
   -14.4531 -14.3430 -14.3412 -14.3336 -14.2701 -14.2645 -14.2621 -14.2012
    -6.7617  -6.7572  -6.7038  -6.5342  -6.2771  -6.1696  -6.1211  -5.9030
    -5.9005  -5.8983  -5.8467  -5.8403  -5.8098  -5.7756  -5.7461  -5.7431
    -5.7425  -5.7413  -5.7355  -5.6790  -5.5996  -5.5836  -5.5333  -5.5236
    -0.3295  -0.3220  -0.2645   0.2881   0.3065   0.3150   0.3216   0.3435
     0.3714   0.3813   0.3857   0.3902   0.5180   0.5262   0.5279   0.5358
     0.5428   0.5505   0.6913   0.7305   0.7341   0.7433   0.7483   0.7883
     5.9487   6.1033   6.1126   6.1342   6.3213   6.3290   6.3682   6.3919
     6.3990   6.4678   6.5602   6.5659   6.6106   6.6131   6.6332   7.5480
     7.5546   7.5704   7.6031   7.6039   7.6286   7.6339   7.6378   7.6472
     7.6688   7.7363   7.7558   7.8676   7.9202   7.9542   8.0119   8.0274
     8.0358   8.0496   8.0763   8.1221   8.1877   8.3521   8.4963   8.5038
     8.5577   8.5808   8.6373   8.6860   8.7223   8.7358   8.8160   8.9300
     8.9854   9.0146   9.1891   9.2105   9.3413   9.3549   9.3646   9.4328
     9.4810   9.4953   9.5017   9.5240   9.5407   9.6410   9.6596   9.8884
    10.0167  10.0716  10.1545  10.1794  10.2057  10.2436  10.3146  10.3641
    12.3167  12.4547  12.5556  12.5806  12.6615  12.6947  13.8924  13.9225
    13.9402  13.9521  13.9626  13.9951  13.9972  14.0047  14.0100  14.0237
    14.0251  14.0330  14.3372  14.3670  14.3770  14.5374  14.5574  14.5598
    14.5822  14.5878  14.6062  14.6351  14.6709  15.1109  15.2960  15.4214
    15.4309  15.5666  16.2582  16.3528  16.5405  16.9371  17.1636  17.2062

          k = 0.0000 0.1250 0.1236 ( 20703 PWs)   bands (ev):

   -46.1120 -46.1112 -46.1110 -46.1109 -46.1102 -46.1101 -46.1099 -46.1091
   -22.4444 -22.4411 -22.4409 -22.4382 -22.3998 -22.3978 -22.3977 -22.3959
   -22.3917 -22.3898 -22.3888 -22.3885 -22.3869 -22.3864 -22.3862 -22.3842
   -22.3398 -22.3383 -22.3379 -22.3377 -22.3364 -22.3363 -22.3360 -22.3344
   -14.4490 -14.3473 -14.3386 -14.3310 -14.2729 -14.2672 -14.2598 -14.2036
    -6.7433  -6.7384  -6.6918  -6.5318  -6.2586  -6.2027  -6.1628  -5.9051
    -5.8870  -5.8817  -5.8447  -5.8381  -5.8085  -5.7769  -5.7668  -5.7403
    -5.7341  -5.7329  -5.7300  -5.6948  -5.6035  -5.5897  -5.5418  -5.5317
    -0.3088  -0.3063  -0.2231   0.2785   0.2888   0.3038   0.3305   0.3461
     0.3695   0.3869   0.3957   0.4132   0.5013   0.5111   0.5172   0.5296
     0.5497   0.5737   0.6868   0.6889   0.7244   0.7264   0.7329   0.7746
     5.9768   6.1134   6.1367   6.1698   6.3620   6.3893   6.3922   6.4038
     6.4570   6.4601   6.5908   6.6009   6.6136   6.6380   6.6383   7.5498
     7.5571   7.5642   7.6026   7.6215   7.6296   7.6307   7.6514   7.6560
     7.6874   7.7654   7.7824   7.8312   7.8582   7.9184   7.9356   7.9360
     7.9498   8.0306   8.0661   8.0677   8.1818   8.3650   8.5238   8.5264
     8.5282   8.5386   8.5989   8.7407   8.8309   8.8330   8.9177   8.9240
     8.9642   8.9715   9.1465   9.2023   9.3314   9.3645   9.3741   9.3762
     9.4440   9.4679   9.4763   9.4860   9.4889   9.6549   9.6716   9.8255
    10.0022  10.0360  10.1351  10.1570  10.1606  10.1968  10.3166  10.3649
    12.3216  12.4491  12.6196  12.6400  12.7197  12.7519  13.8937  13.9203
    13.9436  13.9445  13.9541  13.9593  13.9761  13.9843  13.9847  13.9957
    14.0079  14.0445  14.3096  14.3513  14.3751  14.5479  14.5540  14.5595
    14.5727  14.5854  14.6346  14.7175  14.7650  15.2332  15.2910  15.4268
    15.4940  15.6396  16.3030  16.3925  16.4874  16.9467  17.2501  17.2981

          k = 0.0000 0.1250 0.2473 ( 20702 PWs)   bands (ev):

   -46.1119 -46.1112 -46.1109 -46.1108 -46.1103 -46.1102 -46.1098 -46.1092
   -22.4391 -22.4361 -22.4359 -22.4335 -22.4051 -22.4030 -22.4028 -22.4008
   -22.3914 -22.3895 -22.3891 -22.3883 -22.3872 -22.3865 -22.3861 -22.3845
   -22.3397 -22.3385 -22.3378 -22.3375 -22.3366 -22.3364 -22.3358 -22.3346
   -14.4373 -14.3595 -14.3310 -14.3237 -14.2807 -14.2748 -14.2533 -14.2103
    -6.6900  -6.6838  -6.6587  -6.5296  -6.2853  -6.2578  -6.2053  -5.9056
    -5.8647  -5.8512  -5.8400  -5.8324  -5.8313  -5.8048  -5.7809  -5.7379
    -5.7237  -5.7142  -5.7118  -5.7089  -5.6171  -5.6069  -5.5657  -5.5549
    -0.2563  -0.2397  -0.1181   0.2002   0.2152   0.3492   0.3536   0.3549
     0.3792   0.4031   0.4275   0.4629   0.4642   0.4918   0.4925   0.5122
     0.5668   0.5695   0.6022   0.6711   0.6812   0.6895   0.7046   0.7353
     6.0365   6.1151   6.2099   6.2498   6.3741   6.4395   6.4831   6.5099
     6.5628   6.6152   6.6245   6.6377   6.7001   6.7384   6.7521   7.5268
     7.5351   7.5358   7.5544   7.5641   7.5988   7.6062   7.6408   7.6743
     7.6944   7.6991   7.7150   7.7355   7.7583   7.8491   7.8571   7.9112
     7.9120   7.9908   8.0345   8.1569   8.1927   8.2407   8.4051   8.4285
     8.6148   8.6461   8.6511   8.7821   8.7950   8.8592   8.8865   8.8955
     9.0391   9.1534   9.1783   9.2209   9.2424   9.2571   9.3619   9.3672
     9.3901   9.3948   9.4243   9.4347   9.4358   9.6334   9.6951   9.7064
     9.9605   9.9732  10.0376  10.0728  10.0730  10.0863  10.3224  10.3617
    12.3358  12.4336  12.7959  12.8055  12.8807  12.9098  13.7997  13.8141
    13.8334  13.8469  13.8974  13.9208  13.9578  13.9598  13.9913  14.0215
    14.0461  14.1002  14.2368  14.2833  14.3983  14.4773  14.5029  14.5542
    14.5567  14.5588  14.8183  14.9159  15.0330  15.2727  15.4100  15.5611
    15.6993  15.8526  16.3314  16.4466  16.5221  16.9208  17.0708  17.5214

          k = 0.0000 0.1250 0.3709 ( 20711 PWs)   bands (ev):

   -46.1117 -46.1114 -46.1108 -46.1107 -46.1104 -46.1103 -46.1097 -46.1093
   -22.4314 -22.4285 -22.4282 -22.4260 -22.4130 -22.4106 -22.4104 -22.4083
   -22.3908 -22.3896 -22.3890 -22.3878 -22.3878 -22.3869 -22.3858 -22.3849
   -22.3395 -22.3387 -22.3375 -22.3373 -22.3368 -22.3367 -22.3356 -22.3349
   -14.4197 -14.3776 -14.3196 -14.3126 -14.2924 -14.2861 -14.2435 -14.2202
    -6.6134  -6.6074  -6.5987  -6.5395  -6.3920  -6.3735  -6.1239  -5.9225
    -5.8912  -5.8456  -5.8356  -5.8312  -5.8262  -5.7993  -5.7978  -5.7851
    -5.6988  -5.6904  -5.6798  -5.6732  -5.6404  -5.6323  -5.6010  -5.5898
    -0.1630  -0.1388   0.0318   0.0863   0.1071   0.3711   0.3845   0.3977
     0.4016   0.4192   0.4275   0.4276   0.4580   0.4636   0.4820   0.4865
     0.5294   0.5934   0.5995   0.6254   0.6280   0.6683   0.6726   0.6757
     6.0846   6.1150   6.2743   6.3231   6.3488   6.4103   6.6177   6.6233
     6.6771   6.6840   6.8271   6.8972   6.9080   6.9350   7.0119   7.2102
     7.2333   7.4113   7.4429   7.4684   7.4741   7.5611   7.5737   7.5806
     7.5923   7.6913   7.7536   7.7950   7.8047   7.8866   7.8943   7.9116
     7.9276   7.9647   7.9766   7.9788   8.1651   8.2876   8.2895   8.4759
     8.6123   8.7164   8.7306   8.7526   8.7953   8.8822   8.9228   8.9619
     8.9850   9.0528   9.1099   9.1219   9.1917   9.2467   9.2668   9.3044
     9.3278   9.3784   9.5178   9.5414   9.5558   9.5563   9.7562   9.7608
     9.8684   9.8987   9.9019   9.9044   9.9590   9.9592  10.3314  10.3533
    12.3576  12.4105  13.0446  13.0458  13.1112  13.1357  13.5804  13.5932
    13.6244  13.6397  13.9027  13.9150  13.9675  13.9845  13.9928  14.0548
    14.1392  14.1432  14.1858  14.1959  14.3703  14.4018  14.4336  14.5191
    14.5560  14.5579  15.0109  15.1274  15.2312  15.3679  15.3907  16.0016
    16.0056  16.0821  16.1869  16.7000  16.7430  16.7582  16.7705  17.3910

          k = 0.0000 0.1250-0.4946 ( 20722 PWs)   bands (ev):

   -46.1116 -46.1116 -46.1106 -46.1106 -46.1105 -46.1105 -46.1095 -46.1095
   -22.4223 -22.4223 -22.4195 -22.4195 -22.4193 -22.4193 -22.4173 -22.4173
   -22.3902 -22.3902 -22.3884 -22.3883 -22.3874 -22.3874 -22.3854 -22.3854
   -22.3392 -22.3391 -22.3371 -22.3371 -22.3370 -22.3370 -22.3353 -22.3353
   -14.3988 -14.3987 -14.3061 -14.3060 -14.2994 -14.2993 -14.2319 -14.2318
    -6.5692  -6.5691  -6.5042  -6.5041  -6.4916  -6.4915  -6.0252  -6.0251
    -5.8532  -5.8531  -5.8361  -5.8360  -5.8242  -5.8241  -5.7927  -5.7925
    -5.6694  -5.6693  -5.6617  -5.6616  -5.6414  -5.6412  -5.6314  -5.6313
    -0.0423  -0.0422  -0.0173  -0.0172   0.2104   0.2105   0.3956   0.3956
     0.4202   0.4203   0.4316   0.4316   0.4567   0.4567   0.5046   0.5047
     0.5519   0.5520   0.6037   0.6037   0.6356   0.6357   0.6503   0.6503
     6.1078   6.1079   6.3173   6.3174   6.3734   6.3735   6.6205   6.6206
     6.9206   6.9207   6.9319   6.9321   7.1463   7.1465   7.1743   7.1745
     7.1892   7.1893   7.1966   7.1967   7.3700   7.3702   7.5691   7.5692
     7.5836   7.5837   7.8440   7.8441   7.8482   7.8483   7.8679   7.8679
     7.8992   7.8993   8.0793   8.0794   8.1306   8.1307   8.4431   8.4432
     8.5812   8.5813   8.8241   8.8242   8.9121   8.9122   8.9539   8.9539
     8.9953   8.9954   9.0899   9.0900   9.1466   9.1467   9.2279   9.2280
     9.2447   9.2448   9.6920   9.6920   9.7188   9.7188   9.7694   9.7694
     9.7856   9.7856   9.8281   9.8282   9.8294   9.8295  10.3422  10.3424
    12.3837  12.3838  13.3164  13.3165  13.3252  13.3253  13.3719  13.3720
    13.3914  13.3915  13.9089  13.9089  13.9761  13.9762  14.0559  14.0559
    14.1142  14.1143  14.2520  14.2521  14.2906  14.2907  14.4759  14.4759
    14.5569  14.5570  15.1500  15.1501  15.2806  15.2806  15.7579  15.7580
    16.3698  16.3700  16.4429  16.4431  16.6111  16.6113  17.0370  17.0372

          k = 0.0000 0.2500 0.0000 ( 20720 PWs)   bands (ev):

   -46.1119 -46.1111 -46.1110 -46.1108 -46.1103 -46.1101 -46.1099 -46.1092
   -22.4458 -22.4433 -22.4423 -22.4403 -22.3977 -22.3963 -22.3957 -22.3944
   -22.3914 -22.3890 -22.3884 -22.3865 -22.3842 -22.3812 -22.3809 -22.3785
   -22.3461 -22.3439 -22.3437 -22.3419 -22.3376 -22.3363 -22.3359 -22.3346
   -14.4402 -14.3547 -14.3346 -14.3254 -14.2788 -14.2706 -14.2571 -14.2088
    -6.7245  -6.7058  -6.6492  -6.5443  -6.3404  -6.2454  -6.0639  -5.8939
    -5.8826  -5.8733  -5.8509  -5.8267  -5.8011  -5.7661  -5.7634  -5.7526
    -5.7346  -5.7238  -5.7101  -5.7042  -5.6639  -5.6031  -5.5834  -5.5479
    -0.2605  -0.2345  -0.1827   0.2115   0.2661   0.3280   0.3404   0.3608
     0.3887   0.3995   0.4288   0.4331   0.4902   0.4987   0.5072   0.5230
     0.5513   0.5578   0.5684   0.6887   0.7071   0.7080   0.7095   0.7371
     6.0105   6.1031   6.1899   6.1966   6.3136   6.3767   6.4125   6.5141
     6.5609   6.5675   6.5675   6.6408   6.7229   6.7656   6.7707   7.4634
     7.5420   7.5985   7.6250   7.6322   7.6352   7.6356   7.6706   7.6768
     7.7090   7.7093   7.7384   7.7392   7.7510   7.7989   7.8241   7.9061
     7.9473   8.0183   8.0437   8.1682   8.2059   8.2562   8.2948   8.5785
     8.5981   8.6103   8.6883   8.6937   8.8025   8.8122   8.8330   8.9198
     8.9685   9.1391   9.1835   9.2395   9.3030   9.3043   9.3241   9.4212
     9.4247   9.4748   9.5151   9.5245   9.5551   9.5587   9.5954   9.6831
     9.9085  10.0085  10.0842  10.0938  10.1869  10.2227  10.2400  10.2527
    12.5182  12.5927  12.6465  12.6589  12.7015  12.8013  13.7333  13.7646
    13.7684  13.7885  13.9693  13.9837  14.0092  14.0113  14.0218  14.0220
    14.0582  14.0714  14.2572  14.2883  14.4037  14.4983  14.5052  14.5656
    14.5721  14.5789  14.7662  14.8158  14.9387  15.1268  15.2735  15.6452
    15.7669  15.7849  16.1375  16.5258  16.6844  16.9832  17.1478  17.3521

          k = 0.0000 0.2500 0.1236 ( 20706 PWs)   bands (ev):

   -46.1119 -46.1111 -46.1110 -46.1108 -46.1103 -46.1100 -46.1100 -46.1092
   -22.4440 -22.4415 -22.4406 -22.4386 -22.3995 -22.3980 -22.3975 -22.3961
   -22.3913 -22.3889 -22.3885 -22.3866 -22.3842 -22.3813 -22.3808 -22.3786
   -22.3459 -22.3440 -22.3436 -22.3420 -22.3375 -22.3362 -22.3360 -22.3347
   -14.4363 -14.3518 -14.3387 -14.3228 -14.2817 -14.2683 -14.2598 -14.2111
    -6.7074  -6.6870  -6.6388  -6.5393  -6.3218  -6.2637  -6.1083  -5.8970
    -5.8745  -5.8614  -5.8497  -5.8242  -5.8000  -5.7970  -5.7683  -5.7474
    -5.7277  -5.7186  -5.7168  -5.7061  -5.6572  -5.6072  -5.5910  -5.5543
    -0.2426  -0.2383  -0.1251   0.2280   0.2631   0.2961   0.3355   0.3398
     0.3759   0.4052   0.4446   0.4594   0.4621   0.4816   0.4952   0.5297
     0.5515   0.5631   0.5973   0.6689   0.6772   0.7006   0.7020   0.7309
     6.0420   6.1365   6.1903   6.2395   6.3708   6.3724   6.4507   6.5657
     6.5909   6.5913   6.5994   6.6314   6.7238   6.7734   6.7881   7.4795
     7.5344   7.5957   7.6153   7.6285   7.6395   7.6454   7.6583   7.6743
     7.6751   7.6756   7.7630   7.7668   7.7712   7.7892   7.8188   7.9090
     7.9364   7.9719   8.0356   8.0413   8.0742   8.2684   8.3149   8.5427
     8.5894   8.6338   8.6360   8.7520   8.8301   8.8600   8.8773   8.9195
     8.9524   9.1706   9.1778   9.2557   9.2725   9.2984   9.3184   9.3936
     9.4425   9.4747   9.5040   9.5123   9.5265   9.5280   9.5697   9.6355
     9.8916   9.9709  10.0507  10.0708  10.1621  10.1750  10.2401  10.2600
    12.5330  12.6453  12.6541  12.7053  12.7477  12.8549  13.7349  13.7660
    13.7704  13.8149  13.9332  13.9609  13.9735  13.9738  14.0143  14.0242
    14.0397  14.0551  14.2246  14.2962  14.3778  14.4668  14.4958  14.5524
    14.6272  14.6415  14.7659  14.9103  14.9905  15.2484  15.2686  15.7123
    15.7651  15.8566  16.1817  16.5521  16.6307  17.0211  17.1820  17.3797

          k = 0.0000 0.2500 0.2473 ( 20703 PWs)   bands (ev):

   -46.1118 -46.1111 -46.1110 -46.1107 -46.1104 -46.1101 -46.1099 -46.1093
   -22.4388 -22.4364 -22.4355 -22.4337 -22.4048 -22.4033 -22.4026 -22.4011
   -22.3910 -22.3888 -22.3886 -22.3868 -22.3838 -22.3816 -22.3806 -22.3789
   -22.3457 -22.3441 -22.3434 -22.3422 -22.3373 -22.3362 -22.3360 -22.3348
   -14.4251 -14.3504 -14.3438 -14.3155 -14.2901 -14.2673 -14.2617 -14.2179
    -6.6581  -6.6324  -6.6107  -6.5294  -6.3170  -6.2680  -6.2055  -5.9015
    -5.8753  -5.8721  -5.8471  -5.8301  -5.8176  -5.7965  -5.7784  -5.7537
    -5.7326  -5.7122  -5.6970  -5.6947  -5.6551  -5.6190  -5.6120  -5.5727
    -0.2162  -0.1744  -0.0085   0.2093   0.2602   0.2642   0.2758   0.3442
     0.3681   0.3969   0.4217   0.4585   0.4642   0.4844   0.5154   0.5337
     0.5490   0.5896   0.5912   0.6132   0.6307   0.6794   0.6808   0.7117
     6.1084   6.1911   6.2087   6.3431   6.3554   6.5411   6.5656   6.6056
     6.6628   6.6918   6.7017   6.7098   6.7263   6.8056   6.8696   7.4298
     7.5094   7.5261   7.5421   7.5638   7.5889   7.6264   7.6367   7.6546
     7.6664   7.6718   7.7209   7.7752   7.7934   7.8497   7.8651   7.8713
     7.8764   7.9144   7.9154   8.0099   8.0102   8.3069   8.3213   8.3712
     8.4427   8.5836   8.7103   8.7235   8.7656   8.7940   8.8829   9.1311
     9.1438   9.1529   9.1742   9.1938   9.3007   9.3100   9.3691   9.3694
     9.3705   9.4347   9.4503   9.4770   9.4884   9.5000   9.5656   9.5762
     9.8440   9.9031   9.9331  10.0263  10.0606  10.0847  10.2409  10.2597
    12.5523  12.6405  12.8120  12.8675  12.8811  13.0029  13.7395  13.7537
    13.7902  13.7917  13.8167  13.8423  13.8884  13.8907  13.9846  14.0329
    14.0463  14.0912  14.1381  14.3091  14.3189  14.3812  14.4639  14.4865
    14.7060  14.7646  14.8210  15.1456  15.1927  15.2511  15.5759  15.7523
    15.9012  16.0671  16.3243  16.4727  16.6418  17.0286  17.1907  17.2803

          k = 0.0000 0.2500 0.3709 ( 20732 PWs)   bands (ev):

   -46.1116 -46.1113 -46.1109 -46.1106 -46.1105 -46.1102 -46.1098 -46.1095
   -22.4311 -22.4289 -22.4280 -22.4263 -22.4127 -22.4108 -22.4102 -22.4086
   -22.3905 -22.3893 -22.3882 -22.3873 -22.3832 -22.3821 -22.3802 -22.3794
   -22.3454 -22.3445 -22.3431 -22.3425 -22.3371 -22.3365 -22.3358 -22.3351
   -14.4082 -14.3678 -14.3316 -14.3046 -14.3025 -14.2785 -14.2517 -14.2280
    -6.5828  -6.5739  -6.5472  -6.5266  -6.3978  -6.3218  -6.1854  -5.9758
    -5.8948  -5.8623  -5.8464  -5.8190  -5.8113  -5.8100  -5.7905  -5.7733
    -5.7111  -5.6930  -5.6774  -5.6678  -5.6663  -5.6405  -5.6365  -5.6005
    -0.1442  -0.0774   0.0896   0.1395   0.1598   0.2684   0.3387   0.3493
     0.3599   0.3762   0.4250   0.4278   0.4467   0.4583   0.5073   0.5319
     0.5369   0.5746   0.5783   0.6216   0.6424   0.6464   0.6496   0.6781
     6.1599   6.1904   6.2694   6.3341   6.4464   6.5677   6.7300   6.7320
     6.7553   6.7868   6.7964   6.9134   6.9187   7.0080   7.0394   7.1873
     7.2856   7.3825   7.4064   7.4115   7.5414   7.5816   7.5900   7.5983
     7.6081   7.6469   7.6655   7.7824   7.8074   7.8303   7.8909   7.9218
     7.9360   7.9641   7.9779   8.0044   8.0120   8.0361   8.2982   8.3768
     8.3905   8.4526   8.6213   8.6559   8.8136   8.8272   8.9672   9.0013
     9.1362   9.1909   9.1962   9.2021   9.2712   9.2925   9.3196   9.3560
     9.3745   9.4077   9.4646   9.4934   9.5201   9.6214   9.6243   9.6666
     9.7715   9.7750   9.8352   9.8959   9.9399   9.9482  10.2434  10.2542
    12.5733  12.6203  13.0567  13.0850  13.0997  13.2149  13.5778  13.5976
    13.6115  13.6918  13.7465  13.7669  13.8388  13.9971  13.9997  14.0256
    14.0328  14.0721  14.1707  14.2204  14.2609  14.3533  14.3757  14.4383
    14.7411  14.7615  15.0060  15.2121  15.4092  15.5277  15.7085  16.0212
    16.1828  16.2204  16.3996  16.5771  16.8225  16.8470  16.8737  17.2581

          k = 0.0000 0.2500-0.4946 ( 20736 PWs)   bands (ev):

   -46.1114 -46.1114 -46.1107 -46.1107 -46.1104 -46.1104 -46.1096 -46.1096
   -22.4219 -22.4219 -22.4199 -22.4199 -22.4191 -22.4191 -22.4175 -22.4175
   -22.3899 -22.3899 -22.3878 -22.3878 -22.3827 -22.3827 -22.3797 -22.3797
   -22.3449 -22.3449 -22.3428 -22.3428 -22.3368 -22.3367 -22.3355 -22.3355
   -14.3881 -14.3880 -14.3172 -14.3171 -14.2916 -14.2915 -14.2400 -14.2399
    -6.5420  -6.5419  -6.4917  -6.4915  -6.4401  -6.4399  -6.0839  -6.0838
    -5.8662  -5.8661  -5.8515  -5.8515  -5.8061  -5.8060  -5.7827  -5.7826
    -5.6871  -5.6869  -5.6694  -5.6692  -5.6571  -5.6569  -5.6339  -5.6338
    -0.0363  -0.0362   0.0396   0.0397   0.2943   0.2944   0.3015   0.3015
     0.3879   0.3880   0.3979   0.3979   0.4389   0.4390   0.4767   0.4768
     0.5925   0.5925   0.6136   0.6136   0.6310   0.6311   0.6424   0.6424
     6.1832   6.1834   6.3074   6.3075   6.5178   6.5179   6.7333   6.7334
     6.9640   6.9640   7.0036   7.0037   7.1008   7.1010   7.1557   7.1558
     7.1832   7.1834   7.2860   7.2861   7.3338   7.3340   7.5784   7.5786
     7.6569   7.6570   7.6877   7.6877   7.8638   7.8639   7.8946   7.8947
     7.9351   7.9351   7.9861   7.9861   8.1347   8.1348   8.1942   8.1943
     8.4833   8.4834   8.5465   8.5465   8.8942   8.8943   8.9810   8.9811
     9.0758   9.0758   9.2340   9.2340   9.2805   9.2806   9.2889   9.2889
     9.3236   9.3237   9.6043   9.6043   9.6975   9.6976   9.7054   9.7054
     9.7485   9.7485   9.7566   9.7567   9.8027   9.8027  10.2479  10.2481
    12.5968  12.5968  13.3298  13.3299  13.3324  13.3325  13.3614  13.3614
    13.4559  13.4560  13.7552  13.7552  13.9186  13.9186  14.0165  14.0166
    14.1267  14.1268  14.1360  14.1360  14.2696  14.2697  14.3949  14.3950
    14.7551  14.7551  15.1367  15.1367  15.6037  15.6037  15.8930  15.8932
    16.4802  16.4804  16.5210  16.5212  16.8227  16.8229  16.9113  16.9115

          k = 0.0000 0.3750 0.0000 ( 20732 PWs)   bands (ev):

   -46.1117 -46.1113 -46.1108 -46.1107 -46.1104 -46.1102 -46.1098 -46.1094
   -22.4452 -22.4438 -22.4420 -22.4408 -22.3974 -22.3967 -22.3953 -22.3946
   -22.3908 -22.3896 -22.3879 -22.3869 -22.3755 -22.3726 -22.3724 -22.3703
   -22.3549 -22.3525 -22.3522 -22.3504 -22.3372 -22.3366 -22.3356 -22.3350
   -14.4209 -14.3746 -14.3219 -14.3129 -14.2918 -14.2833 -14.2461 -14.2200
    -6.6719  -6.6272  -6.5709  -6.5649  -6.4304  -6.3487  -5.9768  -5.8801
    -5.8578  -5.8552  -5.8350  -5.8070  -5.7955  -5.7746  -5.7660  -5.7560
    -5.7557  -5.7395  -5.7327  -5.6970  -5.6724  -5.6525  -5.6318  -5.5846
    -0.1559  -0.1140  -0.0417   0.0992   0.1520   0.3571   0.3623   0.3703
     0.4151   0.4270   0.4317   0.4512   0.4547   0.4792   0.4938   0.4954
     0.4968   0.5914   0.5991   0.6092   0.6450   0.6623   0.6735   0.6748
     6.0624   6.1003   6.2412   6.2606   6.2929   6.3462   6.5622   6.5662
     6.5957   6.7126   6.8510   6.9037   6.9313   7.0104   7.0294   7.1645
     7.3040   7.4311   7.4661   7.5409   7.5438   7.6146   7.6224   7.6254
     7.6466   7.6662   7.7807   7.7968   7.8104   7.8518   7.8725   7.8798
     7.9299   7.9577   7.9660   7.9826   8.1162   8.1228   8.3284   8.6211
     8.6521   8.7327   8.7527   8.7628   8.7784   8.8007   8.8237   8.9382
     8.9520   9.0197   9.0876   9.1639   9.2685   9.3254   9.3350   9.3448
     9.4239   9.4243   9.5050   9.5189   9.6359   9.6484   9.6515   9.7162
     9.7738   9.8908   9.9414   9.9572  10.0634  10.1064  10.1984  10.2268
    12.5745  12.6247  12.8603  12.9262  12.9394  13.0010  13.4883  13.5090
    13.5331  13.5414  13.9982  14.0045  14.0134  14.0171  14.0191  14.0267
    14.1496  14.1521  14.1558  14.1866  14.3828  14.3914  14.4437  14.5387
    14.5723  14.5766  14.9758  14.9833  15.1258  15.2239  15.3006  15.9328
    15.9880  16.1187  16.2045  16.8029  16.8168  16.9132  16.9259  17.0229

          k = 0.0000 0.3750 0.1236 ( 20712 PWs)   bands (ev):

   -46.1117 -46.1113 -46.1109 -46.1106 -46.1105 -46.1102 -46.1098 -46.1094
   -22.4434 -22.4420 -22.4401 -22.4391 -22.3992 -22.3984 -22.3971 -22.3965
   -22.3907 -22.3895 -22.3880 -22.3870 -22.3754 -22.3728 -22.3723 -22.3703
   -22.3548 -22.3526 -22.3522 -22.3504 -22.3372 -22.3365 -22.3357 -22.3350
   -14.4172 -14.3715 -14.3258 -14.3104 -14.2950 -14.2809 -14.2487 -14.2224
    -6.6568  -6.6083  -6.5624  -6.5575  -6.4117  -6.3546  -6.0271  -5.8833
    -5.8577  -5.8521  -5.8453  -5.8289  -5.8040  -5.7751  -5.7688  -5.7615
    -5.7419  -5.7277  -5.7251  -5.6924  -5.6707  -5.6585  -5.6331  -5.5885
    -0.1350  -0.1346   0.0205   0.1170   0.1409   0.3254   0.3634   0.3883
     0.3974   0.4076   0.4118   0.4330   0.4411   0.4636   0.5003   0.5118
     0.5231   0.5849   0.5881   0.6205   0.6505   0.6620   0.6656   0.6662
     6.0960   6.1339   6.2597   6.2913   6.3418   6.3497   6.5926   6.5971
     6.6297   6.7446   6.8579   6.8909   6.9335   7.0270   7.0294   7.1897
     7.2871   7.4307   7.4411   7.5188   7.5625   7.5985   7.6257   7.6328
     7.6688   7.6812   7.7476   7.7792   7.8276   7.8627   7.8695   7.8901
     7.9111   7.9249   7.9774   7.9887   8.0488   8.1278   8.1918   8.5577
     8.5829   8.6590   8.7590   8.7646   8.7798   8.7868   8.8969   8.9690
     9.0295   9.0794   9.1084   9.1397   9.2723   9.3157   9.3397   9.3722
     9.3855   9.3968   9.4908   9.5447   9.6135   9.6194   9.6278   9.7017
     9.7533   9.8602   9.9013   9.9535  10.0545  10.1037  10.1706  10.1996
    12.6328  12.6841  12.8674  12.9354  12.9566  13.0482  13.4906  13.5191
    13.5304  13.5738  13.9556  13.9635  13.9706  14.0062  14.0324  14.0330
    14.1051  14.1168  14.1470  14.1941  14.3471  14.3829  14.4175  14.5119
    14.6449  14.6469  14.9746  15.0913  15.2196  15.2460  15.3427  15.9759
    16.0456  16.1904  16.2071  16.8284  16.8400  16.8714  16.9464  17.0977

          k = 0.0000 0.3750 0.2473 ( 20725 PWs)   bands (ev):

   -46.1116 -46.1112 -46.1110 -46.1106 -46.1105 -46.1101 -46.1099 -46.1095
   -22.4383 -22.4370 -22.4351 -22.4341 -22.4045 -22.4036 -22.4023 -22.4014
   -22.3905 -22.3892 -22.3884 -22.3873 -22.3751 -22.3731 -22.3721 -22.3706
   -22.3545 -22.3529 -22.3520 -22.3506 -22.3370 -22.3363 -22.3359 -22.3352
   -14.4067 -14.3627 -14.3367 -14.3041 -14.3033 -14.2742 -14.2561 -14.2294
    -6.6143  -6.5536  -6.5411  -6.5388  -6.3760  -6.3574  -6.1271  -5.9463
    -5.8905  -5.8640  -5.8586  -5.8033  -5.7967  -5.7959  -5.7748  -5.7491
    -5.7476  -5.7192  -5.7043  -5.6792  -5.6738  -5.6658  -5.6370  -5.5997
    -0.1314  -0.0751   0.1291   0.1372   0.1683   0.2321   0.3294   0.3399
     0.3532   0.3743   0.4169   0.4288   0.4501   0.4575   0.5189   0.5287
     0.5490   0.5663   0.5702   0.6161   0.6421   0.6459   0.6566   0.6701
     6.1664   6.2052   6.2572   6.3303   6.4252   6.5110   6.7045   6.7095
     6.7269   6.8344   6.8548   6.8828   6.9394   7.0238   7.0969   7.2260
     7.2583   7.3681   7.4291   7.4362   7.5637   7.5959   7.6078   7.6322
     7.6333   7.7117   7.7290   7.7696   7.7745   7.8649   7.8881   7.8895
     7.9114   7.9182   7.9534   7.9540   7.9608   8.0660   8.1655   8.3711
     8.4173   8.4771   8.6055   8.6475   8.8119   8.8444   9.0056   9.0191
     9.1506   9.1530   9.1695   9.2820   9.2924   9.2998   9.3018   9.3152
     9.3813   9.3964   9.4151   9.5330   9.5996   9.6092   9.6236   9.6648
     9.6969   9.7919   9.8190   9.9368  10.0118  10.0851  10.0971  10.1375
    12.7758  12.8480  12.9051  12.9239  13.0492  13.1787  13.4973  13.5214
    13.5538  13.6640  13.8192  13.8209  13.8328  13.9804  14.0119  14.0278
    14.0543  14.0771  14.1323  14.2158  14.2488  14.3479  14.3583  14.4408
    14.7829  14.8199  14.9698  15.2043  15.3718  15.4965  15.5703  16.1173
    16.2009  16.2071  16.4021  16.7111  16.8702  16.9476  16.9759  17.3124

          k = 0.0000 0.3750 0.3709 ( 20760 PWs)   bands (ev):

   -46.1114 -46.1111 -46.1110 -46.1107 -46.1104 -46.1100 -46.1100 -46.1096
   -22.4307 -22.4294 -22.4276 -22.4267 -22.4123 -22.4114 -22.4098 -22.4090
   -22.3900 -22.3889 -22.3888 -22.3877 -22.3747 -22.3736 -22.3718 -22.3709
   -22.3541 -22.3532 -22.3517 -22.3510 -22.3368 -22.3362 -22.3361 -22.3354
   -14.3909 -14.3530 -14.3494 -14.3177 -14.2926 -14.2670 -14.2640 -14.2397
    -6.5518  -6.5188  -6.5185  -6.4685  -6.4190  -6.2735  -6.2436  -6.0560
    -5.8933  -5.8736  -5.8631  -5.8461  -5.7859  -5.7806  -5.7711  -5.7555
    -5.7317  -5.7122  -5.7026  -5.6914  -5.6600  -5.6587  -5.6431  -5.6170
    -0.0841   0.0164   0.1148   0.1397   0.2408   0.2461   0.2471   0.2737
     0.3522   0.3646   0.3903   0.3925   0.4421   0.4760   0.5302   0.5334
     0.5389   0.5472   0.5909   0.6148   0.6159   0.6354   0.6500   0.6662
     6.2194   6.2530   6.2620   6.3145   6.5893   6.7505   6.7982   6.8823
     6.8946   6.9218   6.9341   6.9473   6.9650   7.0603   7.1239   7.2390
     7.2543   7.2720   7.3540   7.3590   7.3963   7.5288   7.5299   7.5441
     7.6042   7.7111   7.7368   7.7638   7.7663   7.8075   7.8663   7.8935
     7.9111   7.9207   7.9297   7.9587   8.0055   8.1580   8.1613   8.1661
     8.2376   8.3265   8.4214   8.4989   8.8552   8.8590   8.9117   9.0755
     9.0985   9.2290   9.2706   9.2849   9.2858   9.3111   9.3711   9.3780
     9.4209   9.4468   9.4610   9.4804   9.5949   9.6170   9.6227   9.6423
     9.6958   9.7025   9.7966   9.8867   9.8940   9.9377  10.0906  10.0995
    12.8568  12.9066  13.0810  13.0823  13.2033  13.3670  13.4965  13.5085
    13.6049  13.6229  13.6233  13.6359  13.7957  13.7973  13.8718  14.0548
    14.0990  14.1090  14.1099  14.1472  14.2489  14.2571  14.3173  14.3502
    14.8839  14.9583  14.9912  15.1710  15.7162  15.7821  16.0117  16.1488
    16.3705  16.4498  16.4560  16.7368  16.8284  16.9667  17.0375  17.0680

          k = 0.0000 0.3750-0.4946 ( 20758 PWs)   bands (ev):

   -46.1113 -46.1113 -46.1109 -46.1109 -46.1102 -46.1102 -46.1098 -46.1098
   -22.4215 -22.4215 -22.4204 -22.4204 -22.4187 -22.4187 -22.4178 -22.4178
   -22.3894 -22.3894 -22.3883 -22.3883 -22.3741 -22.3741 -22.3713 -22.3713
   -22.3537 -22.3537 -22.3513 -22.3513 -22.3365 -22.3365 -22.3358 -22.3358
   -14.3721 -14.3720 -14.3337 -14.3336 -14.2799 -14.2798 -14.2519 -14.2518
    -6.5094  -6.5093  -6.4818  -6.4817  -6.3616  -6.3615  -6.1692  -6.1691
    -5.8797  -5.8796  -5.8706  -5.8706  -5.7789  -5.7788  -5.7641  -5.7640
    -5.7141  -5.7140  -5.7044  -5.7043  -5.6507  -5.6506  -5.6382  -5.6381
     0.0024   0.0024   0.1270   0.1270   0.1796   0.1797   0.3429   0.3430
     0.3654   0.3655   0.3708   0.3708   0.4109   0.4109   0.5071   0.5072
     0.5812   0.5812   0.5969   0.5969   0.6270   0.6271   0.6481   0.6481
     6.2436   6.2437   6.2941   6.2942   6.7162   6.7163   6.9511   6.9512
     7.0170   7.0170   7.0244   7.0245   7.1012   7.1013   7.1131   7.1132
     7.1966   7.1968   7.2985   7.2986   7.4599   7.4600   7.4667   7.4668
     7.5057   7.5059   7.7540   7.7541   7.8767   7.8768   7.8790   7.8791
     7.9189   7.9189   7.9492   7.9493   8.0191   8.0191   8.1597   8.1599
     8.2793   8.2793   8.3520   8.3521   8.8583   8.8584   8.9438   8.9438
     9.1999   9.1999   9.2843   9.2843   9.3150   9.3150   9.3247   9.3248
     9.4908   9.4908   9.5289   9.5290   9.5941   9.5943   9.6951   9.6951
     9.7284   9.7284   9.7624   9.7624   9.8123   9.8124  10.0891  10.0893
    12.8850  12.8851  13.3368  13.3369  13.3452  13.3453  13.4045  13.4046
    13.5286  13.5286  13.5830  13.5831  13.7330  13.7330  13.9507  13.9508
    14.0829  14.0830  14.1689  14.1690  14.2358  14.2358  14.2902  14.2903
    14.9343  14.9343  15.1064  15.1064  15.9974  15.9975  16.1300  16.1301
    16.4682  16.4684  16.7019  16.7020  16.7474  16.7476  17.1551  17.1552

          k = 0.0000-0.5000 0.0000 ( 20694 PWs)   bands (ev):

   -46.1115 -46.1115 -46.1106 -46.1106 -46.1104 -46.1104 -46.1096 -46.1096
   -22.4445 -22.4445 -22.4413 -22.4413 -22.3970 -22.3970 -22.3950 -22.3950
   -22.3902 -22.3902 -22.3874 -22.3874 -22.3651 -22.3651 -22.3626 -22.3626
   -22.3623 -22.3623 -22.3603 -22.3603 -22.3369 -22.3369 -22.3353 -22.3353
   -14.3979 -14.3979 -14.3069 -14.3069 -14.2982 -14.2982 -14.2331 -14.2331
    -6.6161  -6.6161  -6.5310  -6.5310  -6.4604  -6.4604  -5.8730  -5.8729
    -5.8673  -5.8673  -5.8206  -5.8206  -5.7899  -5.7899  -5.7853  -5.7852
    -5.7389  -5.7389  -5.7224  -5.7224  -5.6648  -5.6648  -5.6283  -5.6283
    -0.0299  -0.0299   0.0194   0.0194   0.1478   0.1478   0.4064   0.4064
     0.4089   0.4089   0.4468   0.4468   0.4601   0.4601   0.5186   0.5186
     0.5712   0.5712   0.5772   0.5772   0.6319   0.6319   0.6364   0.6365
     6.0897   6.0897   6.2696   6.2696   6.3095   6.3095   6.5641   6.5641
     6.8557   6.8557   6.9795   6.9795   7.1667   7.1667   7.1992   7.1992
     7.2200   7.2200   7.2929   7.2930   7.3732   7.3732   7.6204   7.6204
     7.6595   7.6595   7.8521   7.8521   7.8893   7.8893   7.8910   7.8910
     7.8982   7.8982   7.9569   7.9570   8.0092   8.0092   8.4788   8.4789
     8.6946   8.6947   8.7798   8.7798   8.8779   8.8779   8.9139   8.9139
     8.9730   8.9730   9.1289   9.1289   9.1568   9.1568   9.2975   9.2975
     9.3129   9.3130   9.6388   9.6389   9.7631   9.7631   9.7651   9.7651
     9.7845   9.7845   9.8792   9.8793   9.9057   9.9057  10.2122  10.2122
    12.5997  12.5998  13.1851  13.1851  13.2136  13.2136  13.2450  13.2450
    13.2636  13.2636  14.0107  14.0107  14.0161  14.0161  14.0643  14.0643
    14.0912  14.0912  14.2594  14.2594  14.2679  14.2679  14.4912  14.4912
    14.5760  14.5760  15.0850  15.0850  15.1302  15.1302  15.6476  15.6477
    16.3976  16.3976  16.5417  16.5417  16.6300  16.6300  17.1812  17.1812

          k = 0.0000-0.5000 0.1236 ( 20688 PWs)   bands (ev):

   -46.1115 -46.1115 -46.1107 -46.1107 -46.1104 -46.1104 -46.1096 -46.1096
   -22.4426 -22.4426 -22.4396 -22.4396 -22.3988 -22.3988 -22.3968 -22.3968
   -22.3901 -22.3901 -22.3875 -22.3875 -22.3651 -22.3651 -22.3627 -22.3627
   -22.3623 -22.3623 -22.3604 -22.3604 -22.3368 -22.3368 -22.3354 -22.3354
   -14.3945 -14.3945 -14.3105 -14.3104 -14.2958 -14.2957 -14.2356 -14.2356
    -6.6041  -6.6040  -6.5122  -6.5122  -6.4581  -6.4581  -5.9343  -5.9343
    -5.8689  -5.8689  -5.8055  -5.8055  -5.7842  -5.7842  -5.7816  -5.7815
    -5.7352  -5.7351  -5.7258  -5.7258  -5.6631  -5.6630  -5.6293  -5.6293
    -0.0106  -0.0106   0.0004   0.0005   0.1982   0.1982   0.3652   0.3652
     0.3990   0.3990   0.4287   0.4287   0.4663   0.4663   0.4960   0.4960
     0.5887   0.5888   0.5888   0.5888   0.6250   0.6251   0.6425   0.6425
     6.1237   6.1237   6.3068   6.3068   6.3237   6.3237   6.5946   6.5946
     6.8862   6.8862   6.9885   6.9885   7.1565   7.1565   7.2021   7.2021
     7.2022   7.2022   7.3111   7.3112   7.3622   7.3622   7.6237   7.6237
     7.6803   7.6804   7.8327   7.8327   7.8746   7.8747   7.8882   7.8882
     7.9003   7.9003   7.9690   7.9690   7.9773   7.9773   8.3676   8.3677
     8.6543   8.6543   8.7049   8.7049   8.9430   8.9430   8.9494   8.9494
     8.9994   8.9994   9.1447   9.1447   9.1758   9.1758   9.2942   9.2943
     9.3111   9.3111   9.6144   9.6144   9.7343   9.7344   9.7482   9.7482
     9.7749   9.7749   9.8725   9.8725   9.8998   9.8998  10.1824  10.1824
    12.6596  12.6596  13.1886  13.1886  13.2314  13.2315  13.2417  13.2417
    13.3032  13.3032  13.9669  13.9669  14.0194  14.0194  14.0229  14.0229
    14.0980  14.0980  14.2190  14.2190  14.2608  14.2608  14.4646  14.4646
    14.6486  14.6486  15.1272  15.1272  15.2015  15.2015  15.6894  15.6895
    16.4428  16.4429  16.6158  16.6159  16.6426  16.6427  17.1781  17.1781

          k = 0.0000-0.5000 0.2473 ( 20708 PWs)   bands (ev):

   -46.1114 -46.1114 -46.1108 -46.1108 -46.1103 -46.1103 -46.1097 -46.1097
   -22.4376 -22.4376 -22.4346 -22.4346 -22.4039 -22.4039 -22.4019 -22.4019
   -22.3898 -22.3898 -22.3878 -22.3878 -22.3647 -22.3647 -22.3630 -22.3630
   -22.3621 -22.3621 -22.3606 -22.3606 -22.3366 -22.3366 -22.3356 -22.3356
   -14.3848 -14.3848 -14.3205 -14.3205 -14.2888 -14.2888 -14.2428 -14.2427
    -6.5711  -6.5711  -6.4576  -6.4576  -6.4552  -6.4552  -6.0354  -6.0354
    -5.8741  -5.8741  -5.8379  -5.8379  -5.7715  -5.7715  -5.7536  -5.7536
    -5.7331  -5.7331  -5.7324  -5.7324  -5.6582  -5.6582  -5.6324  -5.6324
    -0.0101  -0.0101   0.0450   0.0450   0.2724   0.2724   0.2992   0.2992
     0.3790   0.3790   0.3963   0.3963   0.4325   0.4325   0.4841   0.4841
     0.6056   0.6056   0.6136   0.6136   0.6193   0.6193   0.6360   0.6360
     6.1947   6.1947   6.2998   6.2998   6.4748   6.4748   6.7081   6.7081
     6.9704   6.9705   7.0110   7.0110   7.1305   7.1306   7.1483   7.1483
     7.2108   7.2108   7.3363   7.3363   7.3739   7.3739   7.6081   7.6082
     7.6762   7.6762   7.7334   7.7334   7.8795   7.8795   7.9024   7.9024
     7.9220   7.9220   7.9339   7.9339   8.0106   8.0106   8.1581   8.1581
     8.5028   8.5028   8.5441   8.5441   8.9011   8.9011   9.0030   9.0030
     9.1909   9.1909   9.1979   9.1979   9.2065   9.2065   9.2754   9.2755
     9.3344   9.3344   9.5481   9.5481   9.6495   9.6495   9.7169   9.7169
     9.7963   9.7963   9.8551   9.8551   9.8854   9.8854  10.0933  10.0933
    12.8234  12.8235  13.2001  13.2001  13.2320  13.2320  13.2893  13.2893
    13.4131  13.4131  13.8264  13.8264  13.8964  13.8964  14.0586  14.0587
    14.1068  14.1068  14.1179  14.1179  14.2404  14.2404  14.3940  14.3940
    14.8105  14.8105  15.1166  15.1166  15.5128  15.5128  15.8314  15.8315
    16.5726  16.5726  16.6498  16.6498  16.8321  16.8334  17.0128  17.0128

          k = 0.0000-0.5000 0.3709 ( 20762 PWs)   bands (ev):

   -46.1112 -46.1112 -46.1109 -46.1109 -46.1102 -46.1102 -46.1098 -46.1098
   -22.4300 -22.4300 -22.4271 -22.4271 -22.4118 -22.4118 -22.4094 -22.4094
   -22.3894 -22.3894 -22.3883 -22.3883 -22.3644 -22.3644 -22.3635 -22.3635
   -22.3617 -22.3617 -22.3609 -22.3609 -22.3364 -22.3364 -22.3359 -22.3359
   -14.3702 -14.3702 -14.3354 -14.3354 -14.2783 -14.2783 -14.2534 -14.2534
    -6.5270  -6.5270  -6.4617  -6.4617  -6.3729  -6.3729  -6.1502  -6.1502
    -5.8814  -5.8814  -5.8678  -5.8678  -5.7582  -5.7581  -5.7427  -5.7427
    -5.7379  -5.7378  -5.7342  -5.7341  -5.6513  -5.6513  -5.6374  -5.6374
     0.0149   0.0149   0.1300   0.1300   0.1680   0.1680   0.3396   0.3396
     0.3630   0.3630   0.3706   0.3706   0.4118   0.4118   0.5112   0.5112
     0.5769   0.5769   0.5939   0.5939   0.6362   0.6362   0.6412   0.6412
     6.2488   6.2488   6.2901   6.2901   6.6881   6.6881   6.9287   6.9287
     7.0385   7.0385   7.0545   7.0546   7.0919   7.0919   7.0984   7.0984
     7.2207   7.2208   7.3098   7.3098   7.4596   7.4596   7.5009   7.5009
     7.5041   7.5041   7.7926   7.7927   7.8633   7.8633   7.8908   7.8908
     7.8978   7.8979   7.9292   7.9292   8.0151   8.0151   8.0966   8.0966
     8.2734   8.2734   8.3916   8.3917   8.8658   8.8658   8.9420   8.9420
     9.2570   9.2571   9.2637   9.2637   9.3030   9.3030   9.3411   9.3411
     9.4559   9.4559   9.4581   9.4582   9.5168   9.5168   9.7569   9.7569
     9.8102   9.8102   9.8257   9.8257   9.8710   9.8710   9.9554   9.9555
    13.0454  13.0454  13.2158  13.2158  13.2289  13.2289  13.3950  13.3950
    13.5727  13.5727  13.6154  13.6154  13.7259  13.7259  13.9447  13.9447
    14.1146  14.1147  14.1508  14.1508  14.2094  14.2094  14.3012  14.3012
    14.9572  14.9572  15.0931  15.0931  15.9252  15.9252  16.0912  16.0912
    16.5707  16.5707  16.7516  16.7516  16.7724  16.7725  17.1716  17.1716

          k = 0.0000-0.5000-0.4946 ( 20772 PWs)   bands (ev):

   -46.1111 -46.1111 -46.1111 -46.1111 -46.1100 -46.1100 -46.1100 -46.1100
   -22.4209 -22.4209 -22.4209 -22.4209 -22.4183 -22.4183 -22.4183 -22.4183
   -22.3889 -22.3889 -22.3888 -22.3888 -22.3640 -22.3640 -22.3639 -22.3639
   -22.3613 -22.3613 -22.3613 -22.3613 -22.3362 -22.3362 -22.3362 -22.3362
   -14.3529 -14.3529 -14.3529 -14.3528 -14.2660 -14.2659 -14.2659 -14.2659
    -6.4864  -6.4864  -6.4862  -6.4862  -6.2668  -6.2668  -6.2667  -6.2667
    -5.8826  -5.8826  -5.8825  -5.8825  -5.7465  -5.7465  -5.7464  -5.7464
    -5.7375  -5.7375  -5.7374  -5.7373  -5.6440  -5.6440  -5.6439  -5.6439
     0.0769   0.0769   0.0770   0.0770   0.2331   0.2331   0.2332   0.2333
     0.3591   0.3591   0.3591   0.3591   0.5155   0.5155   0.5155   0.5155
     0.5437   0.5437   0.5438   0.5438   0.6470   0.6470   0.6470   0.6470
     6.2759   6.2759   6.2760   6.2760   6.9018   6.9018   6.9018   6.9018
     7.0672   7.0672   7.0673   7.0673   7.1758   7.1758   7.1759   7.1759
     7.2500   7.2500   7.2501   7.2501   7.3256   7.3256   7.3257   7.3257
     7.6973   7.6973   7.6974   7.6974   7.8362   7.8362   7.8363   7.8363
     7.8888   7.8888   7.8888   7.8889   8.1170   8.1170   8.1170   8.1170
     8.2311   8.2311   8.2312   8.2312   8.8749   8.8750   8.8750   8.8750
     9.3160   9.3160   9.3160   9.3160   9.3559   9.3559   9.3559   9.3559
     9.3891   9.3891   9.3891   9.3891   9.6955   9.6955   9.6955   9.6955
     9.7983   9.7983   9.7983   9.7983   9.8725   9.8725   9.8726   9.8726
    13.1847  13.1847  13.1848  13.1848  13.3727  13.3727  13.3728  13.3728
    13.5471  13.5471  13.5472  13.5472  13.7581  13.7581  13.7582  13.7582
    14.1701  14.1701  14.1701  14.1702  14.2108  14.2108  14.2108  14.2108
    15.0462  15.0462  15.0462  15.0462  16.3191  16.3192  16.3192  16.3193
    16.4247  16.4247  16.4248  16.4248  17.0230  17.0230  17.0232  17.0232

          k = 0.1250 0.1250 0.0000 ( 20710 PWs)   bands (ev):

   -46.1120 -46.1111 -46.1110 -46.1110 -46.1101 -46.1101 -46.1100 -46.1091
   -22.4461 -22.4428 -22.4428 -22.4401 -22.3978 -22.3959 -22.3959 -22.3942
   -22.3898 -22.3898 -22.3867 -22.3867 -22.3867 -22.3866 -22.3842 -22.3841
   -22.3399 -22.3398 -22.3382 -22.3381 -22.3381 -22.3380 -22.3364 -22.3364
   -14.4486 -14.3401 -14.3383 -14.3383 -14.2675 -14.2675 -14.2651 -14.2039
    -6.7444  -6.7444  -6.6849  -6.5353  -6.2967  -6.1498  -6.1498  -5.8998
    -5.8926  -5.8926  -5.8418  -5.8418  -5.8090  -5.7719  -5.7495  -5.7472
    -5.7364  -5.7364  -5.7302  -5.6872  -5.6279  -5.5849  -5.5417  -5.5417
    -0.3241  -0.2767  -0.2347   0.2927   0.2927   0.3023   0.3410   0.3587
     0.3587   0.3726   0.3776   0.4185   0.4895   0.5205   0.5206   0.5424
     0.5425   0.5594   0.6877   0.6877   0.7226   0.7327   0.7327   0.7697
     5.9784   6.1344   6.1344   6.1486   6.3237   6.3847   6.3847   6.4354
     6.4587   6.4587   6.5843   6.6141   6.6141   6.6402   6.6538   7.5738
     7.5738   7.5786   7.5924   7.5924   7.6316   7.6517   7.6532   7.6532
     7.6823   7.7517   7.7518   7.8140   7.9185   7.9347   7.9539   7.9655
     8.0393   8.0473   8.0699   8.0699   8.1712   8.2074   8.2074   8.6121
     8.6121   8.6562   8.7025   8.7025   8.7475   8.8680   8.9175   8.9227
     8.9228   8.9737   9.2111   9.2316   9.2316   9.2814   9.3647   9.4566
     9.4566   9.5051   9.5051   9.5399   9.5580   9.5580   9.6354   9.7632
    10.0277  10.0528  10.1565  10.1565  10.1851  10.2215  10.2928  10.3205
    12.3883  12.5255  12.5749  12.5992  12.6895  12.6895  13.8968  13.8968
    13.9420  13.9420  13.9436  13.9440  13.9440  13.9797  13.9890  14.0063
    14.0319  14.0319  14.3356  14.3466  14.3466  14.5538  14.5726  14.5775
    14.6399  14.6399  14.6550  14.6573  14.6741  15.1194  15.4255  15.4255
    15.4990  15.6399  16.3125  16.3125  16.5822  16.9937  17.1891  17.4219

          k = 0.1250 0.1250 0.1236 ( 20712 PWs)   bands (ev):

   -46.1119 -46.1111 -46.1110 -46.1110 -46.1101 -46.1101 -46.1100 -46.1091
   -22.4442 -22.4410 -22.4410 -22.4384 -22.3996 -22.3978 -22.3978 -22.3960
   -22.3897 -22.3897 -22.3868 -22.3868 -22.3866 -22.3865 -22.3844 -22.3843
   -22.3399 -22.3397 -22.3383 -22.3381 -22.3380 -22.3380 -22.3365 -22.3365
   -14.4446 -14.3443 -14.3357 -14.3356 -14.2703 -14.2702 -14.2628 -14.2063
    -6.7260  -6.7260  -6.6734  -6.5320  -6.2781  -6.1836  -6.1836  -5.9023
    -5.8808  -5.8808  -5.8398  -5.8398  -5.8076  -5.7762  -5.7734  -5.7414
    -5.7286  -5.7286  -5.7254  -5.7029  -5.6274  -5.5915  -5.5496  -5.5496
    -0.3014  -0.2744  -0.1840   0.2770   0.3032   0.3033   0.3106   0.3647
     0.3647   0.3737   0.3769   0.4430   0.4849   0.4960   0.4960   0.5489
     0.5605   0.5605   0.6840   0.6858   0.6858   0.7190   0.7191   0.7602
     6.0085   6.1497   6.1702   6.1702   6.3834   6.4206   6.4206   6.4514
     6.4514   6.4955   6.6220   6.6406   6.6419   6.6419   6.6532   7.5757
     7.5757   7.5812   7.5812   7.5936   7.6442   7.6442   7.6512   7.6682
     7.6993   7.7785   7.7785   7.7810   7.9089   7.9089   7.9105   7.9156
     7.9370   7.9758   8.0134   8.0372   8.1878   8.2019   8.2019   8.5484
     8.6291   8.6291   8.7676   8.8465   8.8465   8.8775   8.8801   8.9003
     8.9404   8.9404   9.2017   9.2017   9.2209   9.3039   9.3866   9.4032
     9.4032   9.5018   9.5018   9.5055   9.5055   9.5571   9.6481   9.7169
    10.0065  10.0098  10.1361  10.1361  10.1412  10.1729  10.2942  10.3257
    12.3937  12.5201  12.6368  12.6556  12.7467  12.7467  13.8990  13.8990
    13.9384  13.9408  13.9408  13.9461  13.9461  13.9557  13.9662  13.9850
    13.9850  13.9994  14.3190  14.3190  14.3437  14.5374  14.5444  14.5565
    14.6549  14.6567  14.7217  14.7217  14.7800  15.2413  15.4213  15.4213
    15.5694  15.7120  16.3519  16.3519  16.5288  17.0019  17.2746  17.3402

          k = 0.1250 0.1250 0.2473 ( 20705 PWs)   bands (ev):

   -46.1118 -46.1112 -46.1109 -46.1109 -46.1102 -46.1102 -46.1099 -46.1092
   -22.4390 -22.4359 -22.4359 -22.4336 -22.4050 -22.4029 -22.4029 -22.4009
   -22.3894 -22.3894 -22.3871 -22.3871 -22.3864 -22.3862 -22.3846 -22.3845
   -22.3397 -22.3396 -22.3384 -22.3383 -22.3378 -22.3378 -22.3366 -22.3366
   -14.4331 -14.3563 -14.3281 -14.3281 -14.2781 -14.2780 -14.2563 -14.2130
    -6.6727  -6.6727  -6.6418  -6.5273  -6.2670  -6.2670  -6.2248  -5.9043
    -5.8579  -5.8579  -5.8451  -5.8348  -5.8348  -5.8037  -5.7774  -5.7455
    -5.7247  -5.7118  -5.7078  -5.7078  -5.6326  -5.6101  -5.5719  -5.5719
    -0.2364  -0.2326  -0.0725   0.2057   0.2260   0.3288   0.3288   0.3800
     0.3879   0.3879   0.3893   0.4592   0.4592   0.4719   0.4952   0.5203
     0.5753   0.5753   0.5770   0.6800   0.6801   0.6848   0.6848   0.7316
     6.0722   6.1519   6.2498   6.2498   6.4316   6.4316   6.5296   6.5296
     6.5551   6.6419   6.6516   6.6630   6.7416   6.7416   6.7548   7.4944
     7.4944   7.5807   7.5807   7.6013   7.6013   7.6401   7.6579   7.6579
     7.6582   7.7025   7.7066   7.7285   7.7435   7.8540   7.8540   7.9055
     7.9153   7.9644   8.0062   8.0894   8.2087   8.2087   8.2366   8.2670
     8.6773   8.6774   8.7458   8.7687   8.8262   8.8847   8.8848   8.9207
     9.0479   9.0479   9.2016   9.2483   9.2483   9.2957   9.2957   9.3740
     9.4033   9.4033   9.4536   9.4541   9.4541   9.5632   9.6055   9.6850
     9.9215   9.9605  10.0195  10.0518  10.0714  10.0714  10.2983  10.3273
    12.4086  12.5050  12.8078  12.8143  12.9050  12.9050  13.7937  13.8110
    13.8428  13.8428  13.9050  13.9050  13.9402  13.9402  13.9621  13.9621
    14.0297  14.0562  14.2461  14.2461  14.3669  14.4659  14.4686  14.5255
    14.6546  14.6554  14.9186  14.9186  15.0574  15.4045  15.4045  15.5691
    15.7691  15.9226  16.3716  16.4810  16.4810  16.9712  17.1138  17.5606

          k = 0.1250 0.1250 0.3709 ( 20715 PWs)   bands (ev):

   -46.1117 -46.1114 -46.1107 -46.1107 -46.1104 -46.1104 -46.1097 -46.1094
   -22.4313 -22.4284 -22.4284 -22.4261 -22.4129 -22.4105 -22.4105 -22.4085
   -22.3888 -22.3888 -22.3876 -22.3876 -22.3860 -22.3858 -22.3851 -22.3849
   -22.3394 -22.3393 -22.3387 -22.3386 -22.3375 -22.3375 -22.3369 -22.3369
   -14.4157 -14.3742 -14.3168 -14.3167 -14.2897 -14.2896 -14.2464 -14.2230
    -6.5991  -6.5899  -6.5899  -6.5332  -6.3741  -6.3741  -6.1431  -5.9393
    -5.8924  -5.8389  -5.8389  -5.8299  -5.8299  -5.8026  -5.7977  -5.7835
    -5.6993  -5.6917  -5.6781  -5.6781  -5.6474  -5.6373  -5.6048  -5.6047
    -0.1459  -0.1380   0.0772   0.1010   0.1055   0.3568   0.3569   0.4030
     0.4079   0.4214   0.4214   0.4235   0.4365   0.4365   0.4526   0.4807
     0.5590   0.5591   0.5593   0.6582   0.6582   0.6708   0.6708   0.6854
     6.1227   6.1525   6.3210   6.3210   6.4038   6.4038   6.6439   6.6492
     6.7076   6.7076   6.8161   6.9045   6.9383   6.9383   7.0073   7.2236
     7.2236   7.4444   7.4444   7.4491   7.4516   7.5878   7.5878   7.6085
     7.6085   7.6695   7.7156   7.7873   7.7987   7.8844   7.8948   7.9013
     7.9519   7.9579   7.9634   7.9634   8.1733   8.1733   8.2525   8.3167
     8.5778   8.6150   8.7466   8.7466   8.8626   8.8626   8.9170   9.0027
     9.0393   9.0393   9.1302   9.1785   9.1785   9.2728   9.2728   9.3435
     9.3642   9.3642   9.4950   9.5450   9.5450   9.5663   9.6766   9.7427
     9.8412   9.8470   9.8896   9.8912   9.9539   9.9539  10.3051  10.3220
    12.4305  12.4826  13.0466  13.0521  13.1314  13.1314  13.5754  13.5917
    13.6361  13.6361  13.9134  13.9134  13.9319  13.9319  13.9993  13.9993
    14.1246  14.1432  14.1522  14.1522  14.3586  14.3641  14.4020  14.4875
    14.6543  14.6545  15.1275  15.1275  15.3631  15.3631  15.4210  16.0118
    16.0675  16.1202  16.2541  16.7168  16.7168  16.7899  16.8048  17.1412

          k = 0.1250 0.1250-0.4946 ( 20714 PWs)   bands (ev):

   -46.1115 -46.1115 -46.1105 -46.1105 -46.1105 -46.1105 -46.1096 -46.1096
   -22.4222 -22.4222 -22.4194 -22.4194 -22.4194 -22.4194 -22.4173 -22.4173
   -22.3882 -22.3882 -22.3882 -22.3882 -22.3856 -22.3856 -22.3854 -22.3854
   -22.3391 -22.3391 -22.3390 -22.3390 -22.3372 -22.3372 -22.3372 -22.3372
   -14.3951 -14.3950 -14.3033 -14.3033 -14.3032 -14.3032 -14.2348 -14.2347
    -6.5585  -6.5584  -6.4866  -6.4866  -6.4864  -6.4864  -6.0436  -6.0435
    -5.8570  -5.8569  -5.8299  -5.8299  -5.8298  -5.8298  -5.7906  -5.7905
    -5.6688  -5.6688  -5.6687  -5.6686  -5.6423  -5.6423  -5.6422  -5.6422
    -0.0266  -0.0266  -0.0198  -0.0197   0.2490   0.2491   0.3867   0.3867
     0.3868   0.3868   0.4301   0.4301   0.4388   0.4389   0.5016   0.5016
     0.5017   0.5017   0.6256   0.6257   0.6602   0.6603   0.6603   0.6603
     6.1460   6.1461   6.3688   6.3688   6.3689   6.3689   6.6465   6.6466
     6.9432   6.9432   6.9433   6.9433   7.1303   7.1304   7.1712   7.1712
     7.2006   7.2006   7.2007   7.2007   7.3716   7.3718   7.5964   7.5964
     7.5965   7.5965   7.8068   7.8069   7.8486   7.8486   7.8753   7.8754
     7.8899   7.8900   8.0815   8.0815   8.0816   8.0816   8.4303   8.4304
     8.4365   8.4365   8.8143   8.8143   8.8143   8.8144   9.0259   9.0260
     9.0895   9.0895   9.0896   9.0896   9.1428   9.1428   9.2767   9.2767
     9.2767   9.2767   9.6604   9.6604   9.7179   9.7180   9.7588   9.7588
     9.7766   9.7766   9.7766   9.7766   9.8146   9.8147  10.3135  10.3136
    12.4564  12.4565  13.3138  13.3139  13.3268  13.3268  13.3875  13.3875
    13.3876  13.3876  13.9227  13.9227  13.9227  13.9227  14.0640  14.0640
    14.0640  14.0640  14.2391  14.2391  14.2503  14.2503  14.4442  14.4443
    14.6542  14.6542  15.2778  15.2778  15.2778  15.2778  15.7927  15.7928
    16.4234  16.4236  16.4608  16.4610  16.6758  16.6759  17.0414  17.0414

          k = 0.1250 0.2500 0.0000 ( 20711 PWs)   bands (ev):

   -46.1118 -46.1111 -46.1110 -46.1109 -46.1102 -46.1101 -46.1100 -46.1092
   -22.4457 -22.4432 -22.4424 -22.4404 -22.3977 -22.3961 -22.3958 -22.3945
   -22.3894 -22.3870 -22.3864 -22.3845 -22.3841 -22.3810 -22.3810 -22.3785
   -22.3459 -22.3439 -22.3438 -22.3420 -22.3397 -22.3382 -22.3379 -22.3366
   -14.4360 -14.3515 -14.3317 -14.3299 -14.2762 -14.2739 -14.2602 -14.2115
    -6.7088  -6.6947  -6.6302  -6.5428  -6.3521  -6.2259  -6.0929  -5.8897
    -5.8763  -5.8690  -5.8460  -5.8281  -5.8025  -5.7679  -5.7621  -5.7531
    -5.7287  -5.7189  -5.7125  -5.7108  -5.6950  -5.6008  -5.5914  -5.5656
    -0.2694  -0.1935  -0.1407   0.2113   0.2825   0.3069   0.3149   0.3791
     0.3919   0.3952   0.4028   0.4488   0.4677   0.4877   0.4996   0.5204
     0.5600   0.5611   0.5870   0.6771   0.6882   0.7002   0.7017   0.7176
     6.0422   6.1342   6.1981   6.2307   6.3097   6.4348   6.4570   6.5347
     6.5621   6.5988   6.6299   6.6499   6.7402   6.7719   6.7740   7.4372
     7.5448   7.6172   7.6335   7.6357   7.6487   7.6532   7.6533   7.6639
     7.7111   7.7111   7.7321   7.7532   7.7593   7.7892   7.7896   7.9074
     7.9511   8.0026   8.0116   8.1211   8.1865   8.1878   8.2643   8.3315
     8.6872   8.7004   8.7004   8.7549   8.7683   8.8197   8.8648   8.9247
     8.9783   9.1772   9.1813   9.1872   9.3299   9.3346   9.3372   9.3451
     9.3553   9.4480   9.5245   9.5283   9.5361   9.5462   9.5744   9.6084
     9.9499   9.9954  10.0843  10.0850  10.1623  10.1857  10.2191  10.2241
    12.5495  12.6357  12.6746  12.7134  12.7176  12.7962  13.7377  13.7681
    13.7819  13.7921  13.9139  13.9482  13.9646  13.9824  14.0063  14.0096
    14.0282  14.0693  14.2526  14.2667  14.3733  14.4680  14.4916  14.5481
    14.6496  14.6693  14.8213  14.8706  14.9666  15.1336  15.4046  15.7228
    15.7637  15.8500  16.1895  16.4835  16.7134  17.0570  17.1949  17.3379

          k = 0.1250 0.2500 0.1236 ( 20715 PWs)   bands (ev):

   -46.1118 -46.1111 -46.1110 -46.1108 -46.1102 -46.1101 -46.1100 -46.1093
   -22.4439 -22.4414 -22.4407 -22.4387 -22.3995 -22.3980 -22.3976 -22.3962
   -22.3893 -22.3869 -22.3865 -22.3846 -22.3840 -22.3812 -22.3809 -22.3787
   -22.3459 -22.3439 -22.3437 -22.3420 -22.3396 -22.3382 -22.3380 -22.3367
   -14.4321 -14.3487 -14.3358 -14.3273 -14.2791 -14.2715 -14.2629 -14.2139
    -6.6916  -6.6762  -6.6203  -6.5372  -6.3335  -6.2445  -6.1288  -5.8932
    -5.8698  -5.8626  -5.8447  -5.8258  -5.8062  -5.8012  -5.7643  -5.7478
    -5.7252  -5.7226  -5.7127  -5.7092  -5.6816  -5.6061  -5.5985  -5.5718
    -0.2495  -0.2036  -0.0806   0.2254   0.2792   0.2892   0.3103   0.3573
     0.3770   0.3889   0.4103   0.4449   0.4543   0.4808   0.4962   0.5260
     0.5689   0.5703   0.5743   0.6759   0.6772   0.6832   0.7006   0.7208
     6.0765   6.1703   6.2315   6.2410   6.3679   6.4283   6.4905   6.5595
     6.6084   6.6207   6.6276   6.6761   6.7411   6.7758   6.7944   7.4494
     7.5185   7.6156   7.6301   7.6376   7.6380   7.6399   7.6494   7.6653
     7.6942   7.7109   7.7516   7.7537   7.7701   7.7786   7.8101   7.9071
     7.9377   7.9630   7.9988   8.0391   8.0916   8.1369   8.2611   8.3486
     8.5976   8.7135   8.7155   8.8000   8.8178   8.8344   8.8930   8.9196
     8.9671   9.1618   9.2118   9.2134   9.2928   9.3204   9.3263   9.3526
     9.3889   9.4707   9.4762   9.4994   9.4995   9.5437   9.5615   9.5749
     9.9257   9.9557  10.0428  10.0699  10.1395  10.1400  10.2236  10.2289
    12.5740  12.6771  12.7127  12.7322  12.7582  12.8499  13.7405  13.7743
    13.7889  13.8082  13.9185  13.9317  13.9540  13.9595  13.9805  13.9834
    13.9991  14.0260  14.2342  14.2606  14.3456  14.4514  14.4669  14.5205
    14.7305  14.7405  14.8709  14.9156  15.0027  15.2549  15.4003  15.7615
    15.7874  15.9201  16.2281  16.5094  16.6592  17.0845  17.2293  17.3762

          k = 0.1250 0.2500 0.2473 ( 20731 PWs)   bands (ev):

   -46.1117 -46.1111 -46.1110 -46.1107 -46.1103 -46.1101 -46.1100 -46.1094
   -22.4386 -22.4363 -22.4356 -22.4338 -22.4047 -22.4032 -22.4027 -22.4012
   -22.3890 -22.3868 -22.3867 -22.3849 -22.3837 -22.3815 -22.3807 -22.3790
   -22.3456 -22.3441 -22.3435 -22.3423 -22.3394 -22.3382 -22.3381 -22.3368
   -14.4210 -14.3473 -14.3407 -14.3198 -14.2874 -14.2705 -14.2649 -14.2207
    -6.6422  -6.6227  -6.5936  -6.5252  -6.2987  -6.2799  -6.2147  -5.8989
    -5.8872  -5.8666  -5.8418  -5.8382  -5.8199  -5.7970  -5.7754  -5.7591
    -5.7328  -5.7087  -5.6996  -5.6964  -5.6709  -5.6213  -5.6180  -5.5894
    -0.1993  -0.1705   0.0373   0.2151   0.2581   0.2677   0.2841   0.3209
     0.3693   0.3958   0.3977   0.4318   0.4336   0.4445   0.5267   0.5275
     0.5520   0.5533   0.6028   0.6058   0.6775   0.6801   0.6960   0.7195
     6.1495   6.2333   6.2493   6.3429   6.4110   6.5344   6.5949   6.5953
     6.6445   6.7141   6.7289   6.7535   6.7666   6.8038   6.8754   7.3999
     7.4908   7.5067   7.5462   7.5867   7.6113   7.6173   7.6490   7.6529
     7.6632   7.6821   7.6971   7.7977   7.8033   7.8532   7.8649   7.8678
     7.8685   7.9071   7.9130   7.9710   8.0240   8.1842   8.2553   8.3322
     8.3954   8.5694   8.6798   8.7465   8.7728   8.8704   8.8756   9.0781
     9.1456   9.1663   9.1911   9.2427   9.2933   9.3199   9.3263   9.3828
     9.3849   9.4112   9.4237   9.4674   9.4776   9.4921   9.5388   9.5890
     9.8469   9.8943   9.9282  10.0228  10.0318  10.0680  10.2229  10.2323
    12.6027  12.6988  12.8298  12.8893  12.8913  12.9978  13.7478  13.7728
    13.7882  13.7973  13.8165  13.8520  13.8815  13.8850  13.9304  13.9747
    13.9969  14.0374  14.1479  14.2724  14.2835  14.3709  14.4283  14.4527
    14.8323  14.8713  14.9237  15.1500  15.1930  15.3840  15.5821  15.7483
    15.9701  16.1261  16.3557  16.4995  16.5981  17.0695  17.2348  17.3279

          k = 0.1250 0.2500 0.3709 ( 20738 PWs)   bands (ev):

   -46.1116 -46.1112 -46.1108 -46.1106 -46.1105 -46.1103 -46.1098 -46.1095
   -22.4310 -22.4287 -22.4281 -22.4264 -22.4127 -22.4108 -22.4102 -22.4087
   -22.3885 -22.3873 -22.3863 -22.3854 -22.3831 -22.3820 -22.3803 -22.3794
   -22.3453 -22.3444 -22.3432 -22.3426 -22.3392 -22.3385 -22.3378 -22.3371
   -14.4043 -14.3644 -14.3286 -14.3086 -14.2998 -14.2819 -14.2548 -14.2309
    -6.5666  -6.5592  -6.5397  -6.5192  -6.3804  -6.3230  -6.1976  -5.9884
    -5.8941  -5.8563  -5.8408  -5.8210  -5.8196  -5.8136  -5.7903  -5.7730
    -5.7111  -5.6918  -5.6850  -5.6739  -5.6733  -5.6444  -5.6433  -5.6155
    -0.1255  -0.0822   0.1034   0.1526   0.1836   0.2730   0.3395   0.3399
     0.3402   0.3753   0.4040   0.4158   0.4162   0.4625   0.4818   0.4861
     0.4948   0.5164   0.6119   0.6405   0.6785   0.6791   0.6884   0.7016
     6.2052   6.2342   6.3158   6.3871   6.4420   6.5583   6.7432   6.7461
     6.7730   6.7852   6.7885   6.9326   6.9528   7.0000   7.0429   7.1870
     7.2669   7.3783   7.3882   7.4544   7.5336   7.5643   7.6067   7.6155
     7.6187   7.6596   7.6926   7.7661   7.7701   7.8319   7.8894   7.9136
     7.9221   7.9345   7.9657   8.0144   8.0284   8.0471   8.1992   8.2653
     8.3902   8.4612   8.5350   8.6405   8.7767   8.8113   8.9401   9.1218
     9.1424   9.1643   9.1764   9.2622   9.2668   9.2979   9.3016   9.3331
     9.4147   9.4226   9.4657   9.5183   9.5451   9.5744   9.6099   9.6599
     9.7586   9.7666   9.8242   9.8784   9.9328   9.9407  10.2232  10.2296
    12.6275  12.6779  13.0634  13.0924  13.1188  13.2099  13.5751  13.6007
    13.6218  13.6868  13.7582  13.7852  13.8464  13.9464  13.9819  13.9895
    14.0177  14.0354  14.1206  14.1774  14.2515  14.3182  14.3351  14.4041
    14.8599  14.8707  15.1252  15.3453  15.4118  15.5376  15.7052  16.0285
    16.2438  16.2442  16.4525  16.5910  16.7781  16.8699  16.9214  17.3307

          k = 0.1250 0.2500-0.4946 ( 20730 PWs)   bands (ev):

   -46.1114 -46.1114 -46.1107 -46.1107 -46.1104 -46.1104 -46.1097 -46.1097
   -22.4219 -22.4218 -22.4198 -22.4198 -22.4192 -22.4192 -22.4175 -22.4175
   -22.3879 -22.3879 -22.3858 -22.3858 -22.3826 -22.3826 -22.3798 -22.3798
   -22.3449 -22.3448 -22.3429 -22.3429 -22.3388 -22.3388 -22.3374 -22.3374
   -14.3845 -14.3844 -14.3143 -14.3142 -14.2954 -14.2953 -14.2430 -14.2429
    -6.5307  -6.5305  -6.4749  -6.4748  -6.4360  -6.4359  -6.0963  -6.0962
    -5.8675  -5.8674  -5.8456  -5.8455  -5.8120  -5.8119  -5.7821  -5.7819
    -5.6887  -5.6886  -5.6706  -5.6705  -5.6663  -5.6661  -5.6453  -5.6451
    -0.0197  -0.0196   0.0315   0.0315   0.2974   0.2975   0.3399   0.3399
     0.3675   0.3676   0.3938   0.3939   0.4174   0.4175   0.4436   0.4437
     0.4937   0.4937   0.6644   0.6645   0.6668   0.6668   0.6818   0.6819
     6.2286   6.2287   6.3575   6.3576   6.5101   6.5102   6.7462   6.7463
     6.9712   6.9712   7.0052   7.0053   7.0825   7.0826   7.1351   7.1351
     7.2149   7.2150   7.2873   7.2875   7.3642   7.3643   7.6057   7.6058
     7.6612   7.6613   7.6719   7.6720   7.8517   7.8518   7.8638   7.8639
     7.9351   7.9351   7.9906   7.9907   8.0923   8.0924   8.2083   8.2083
     8.3857   8.3858   8.5388   8.5388   8.7847   8.7847   9.0379   9.0380
     9.1284   9.1284   9.2120   9.2121   9.2542   9.2542   9.3334   9.3334
     9.3837   9.3838   9.5881   9.5881   9.6686   9.6686   9.7054   9.7055
     9.7435   9.7436   9.7534   9.7534   9.7919   9.7919  10.2256  10.2258
    12.6531  12.6531  13.3242  13.3243  13.3435  13.3436  13.3755  13.3756
    13.4509  13.4510  13.7704  13.7705  13.9277  13.9277  13.9643  13.9644
    14.0868  14.0869  14.1182  14.1183  14.2241  14.2241  14.3602  14.3603
    14.8679  14.8679  15.2664  15.2664  15.6030  15.6030  15.9111  15.9112
    16.4922  16.4924  16.5749  16.5751  16.8696  16.8697  16.9138  16.9139

          k = 0.1250 0.3750 0.0000 ( 20736 PWs)   bands (ev):

   -46.1117 -46.1113 -46.1108 -46.1107 -46.1104 -46.1103 -46.1098 -46.1094
   -22.4450 -22.4437 -22.4420 -22.4410 -22.3974 -22.3965 -22.3955 -22.3948
   -22.3889 -22.3875 -22.3859 -22.3850 -22.3754 -22.3725 -22.3725 -22.3704
   -22.3548 -22.3524 -22.3523 -22.3504 -22.3394 -22.3386 -22.3377 -22.3369
   -14.4169 -14.3712 -14.3191 -14.3172 -14.2891 -14.2869 -14.2491 -14.2227
    -6.6588  -6.6190  -6.5655  -6.5458  -6.4337  -6.3293  -6.0063  -5.8750
    -5.8527  -5.8514  -5.8330  -5.8082  -5.8031  -5.7812  -5.7788  -5.7665
    -5.7532  -5.7419  -5.7274  -5.6923  -5.6818  -5.6598  -5.6280  -5.6011
    -0.1703  -0.0849   0.0082   0.0924   0.1708   0.3311   0.3452   0.3842
     0.4011   0.4056   0.4221   0.4396   0.4606   0.4685   0.4708   0.4894
     0.5286   0.5874   0.6129   0.6240   0.6420   0.6535   0.6603   0.6675
     6.0947   6.1315   6.2438   6.2913   6.3080   6.4019   6.5880   6.5994
     6.6197   6.7588   6.8620   6.8893   6.9433   7.0147   7.0240   7.1502
     7.3247   7.4362   7.4615   7.5169   7.5342   7.6123   7.6422   7.6470
     7.6485   7.6657   7.7419   7.7981   7.8202   7.8260   7.8816   7.8837
     7.9350   7.9427   7.9634   8.0228   8.0548   8.1379   8.3410   8.3622
     8.6064   8.6853   8.7103   8.7276   8.8313   8.8513   8.9092   8.9184
     8.9668   9.0949   9.0967   9.1500   9.2114   9.2844   9.2875   9.3776
     9.4041   9.4279   9.4796   9.4983   9.6331   9.6600   9.6869   9.6890
     9.8107   9.8934   9.9357   9.9546  10.0256  10.0997  10.1716  10.1972
    12.5995  12.6525  12.8890  12.9367  12.9855  12.9962  13.4940  13.5156
    13.5363  13.5614  13.9392  13.9581  13.9728  13.9985  14.0223  14.0228
    14.1024  14.1451  14.1467  14.1656  14.3497  14.3773  14.4132  14.5078
    14.6582  14.6675  14.9887  15.0934  15.1313  15.3382  15.3551  15.9813
    16.0644  16.1743  16.2061  16.7722  16.8575  16.9399  16.9588  17.0820

          k = 0.1250 0.3750 0.1236 ( 20741 PWs)   bands (ev):

   -46.1116 -46.1112 -46.1108 -46.1107 -46.1104 -46.1103 -46.1098 -46.1094
   -22.4432 -22.4419 -22.4403 -22.4392 -22.3991 -22.3984 -22.3973 -22.3965
   -22.3888 -22.3875 -22.3861 -22.3851 -22.3753 -22.3727 -22.3725 -22.3705
   -22.3547 -22.3525 -22.3523 -22.3505 -22.3393 -22.3385 -22.3377 -22.3369
   -14.4133 -14.3681 -14.3229 -14.3146 -14.2923 -14.2845 -14.2517 -14.2252
    -6.6436  -6.6005  -6.5566  -6.5388  -6.4151  -6.3355  -6.0466  -5.8784
    -5.8642  -5.8526  -5.8427  -5.8337  -5.8054  -5.7789  -5.7679  -5.7620
    -5.7441  -5.7424  -5.7233  -5.6887  -5.6804  -5.6654  -5.6307  -5.6049
    -0.1534  -0.0994   0.0665   0.1087   0.1589   0.3167   0.3300   0.3967
     0.4018   0.4051   0.4107   0.4162   0.4219   0.4580   0.4725   0.4815
     0.5538   0.5570   0.5748   0.6521   0.6640   0.6649   0.6659   0.6730
     6.1317   6.1683   6.2933   6.3069   6.3472   6.3968   6.6127   6.6254
     6.6498   6.7848   6.8717   6.8763   6.9467   7.0206   7.0335   7.1720
     7.2987   7.4215   7.4666   7.4899   7.5525   7.6026   7.6520   7.6558
     7.6693   7.6815   7.7078   7.7766   7.8357   7.8402   7.8781   7.8881
     7.8938   7.9361   7.9448   8.0424   8.0634   8.0677   8.2072   8.3616
     8.5380   8.6421   8.6629   8.7019   8.8328   8.8963   8.9419   8.9739
     8.9755   9.1306   9.1456   9.1688   9.1721   9.2645   9.2972   9.3914
     9.4008   9.4060   9.4673   9.5350   9.5888   9.6468   9.6504   9.6934
     9.7906   9.8586   9.8947   9.9497  10.0218  10.0965  10.1458  10.1730
    12.6562  12.7106  12.8976  12.9660  12.9811  13.0433  13.4982  13.5254
    13.5579  13.5686  13.9483  13.9486  13.9739  13.9743  13.9744  13.9791
    14.0883  14.1108  14.1269  14.1528  14.3316  14.3509  14.3854  14.4798
    14.7383  14.7452  15.0929  15.0967  15.2512  15.3513  15.3709  16.0183
    16.1190  16.2076  16.2437  16.7833  16.8848  16.8944  16.9847  17.1493

          k = 0.1250 0.3750 0.2473 ( 20744 PWs)   bands (ev):

   -46.1116 -46.1111 -46.1109 -46.1106 -46.1105 -46.1102 -46.1099 -46.1095
   -22.4382 -22.4369 -22.4352 -22.4342 -22.4044 -22.4035 -22.4023 -22.4015
   -22.3885 -22.3872 -22.3864 -22.3854 -22.3750 -22.3730 -22.3722 -22.3706
   -22.3544 -22.3528 -22.3520 -22.3507 -22.3391 -22.3384 -22.3379 -22.3371
   -14.4029 -14.3594 -14.3337 -14.3073 -14.3013 -14.2776 -14.2592 -14.2323
    -6.6007  -6.5468  -6.5340  -6.5214  -6.3613  -6.3579  -6.1363  -5.9566
    -5.8865  -5.8603  -5.8534  -5.8069  -5.8033  -5.7980  -5.7774  -5.7499
    -5.7473  -5.7191  -5.7165  -5.6794  -5.6794  -5.6764  -5.6387  -5.6158
    -0.1188  -0.0744   0.1404   0.1607   0.1816   0.2361   0.3293   0.3301
     0.3340   0.3731   0.3909   0.4173   0.4209   0.4765   0.4802   0.4869
     0.4927   0.5268   0.6097   0.6337   0.6750   0.6768   0.6874   0.7006
     6.2106   6.2472   6.3044   6.3833   6.4238   6.5058   6.7073   6.7243
     6.7394   6.8395   6.8536   6.9070   6.9612   7.0147   7.0993   7.2243
     7.2348   7.3730   7.4025   7.4759   7.5663   7.5792   7.6078   7.6312
     7.6546   7.7156   7.7467   7.7485   7.7615   7.8720   7.8749   7.8907
     7.9001   7.9195   7.9235   7.9654   7.9877   8.0942   8.1082   8.3323
     8.3738   8.4074   8.5660   8.5822   8.8224   8.8722   8.8871   9.1293
     9.1323   9.1383   9.1985   9.2142   9.2315   9.2557   9.3281   9.3600
     9.4175   9.4349   9.4420   9.5014   9.6027   9.6092   9.6289   9.6759
     9.7248   9.7901   9.8109   9.9303   9.9847  10.0662  10.0884  10.1185
    12.7985  12.8707  12.9336  12.9686  13.0578  13.1734  13.5085  13.5470
    13.5609  13.6580  13.8080  13.8369  13.8374  13.9729  13.9729  14.0007
    14.0217  14.0224  14.0859  14.1750  14.2388  14.3116  14.3202  14.4055
    14.9042  14.9266  15.0903  15.3374  15.3771  15.5037  15.5752  16.1435
    16.1998  16.2738  16.4483  16.7225  16.8236  17.0002  17.0003  17.3091

          k = 0.1250 0.3750 0.3709 ( 20752 PWs)   bands (ev):

   -46.1114 -46.1111 -46.1110 -46.1107 -46.1104 -46.1101 -46.1100 -46.1097
   -22.4305 -22.4293 -22.4277 -22.4268 -22.4122 -22.4113 -22.4099 -22.4091
   -22.3880 -22.3869 -22.3868 -22.3858 -22.3745 -22.3735 -22.3718 -22.3710
   -22.3540 -22.3531 -22.3518 -22.3510 -22.3388 -22.3382 -22.3381 -22.3375
   -14.3872 -14.3498 -14.3462 -14.3148 -14.2964 -14.2704 -14.2673 -14.2427
    -6.5375  -6.5093  -6.5032  -6.4635  -6.4023  -6.2783  -6.2460  -6.0640
    -5.8906  -5.8691  -5.8578  -5.8458  -5.7896  -5.7893  -5.7725  -5.7554
    -5.7332  -5.7115  -5.7115  -5.6950  -5.6702  -5.6663  -5.6502  -5.6318
    -0.0684   0.0078   0.1253   0.1503   0.2273   0.2316   0.2508   0.3160
     0.3347   0.3602   0.3757   0.3812   0.4115   0.4328   0.4804   0.4818
     0.4862   0.5602   0.5644   0.6593   0.6681   0.6909   0.7005   0.7086
     6.2690   6.3010   6.3092   6.3654   6.5797   6.7390   6.7820   6.8745
     6.8902   6.8918   6.9177   7.0053   7.0183   7.0447   7.1168   7.2352
     7.2387   7.2938   7.3311   7.3431   7.4505   7.5441   7.5527   7.5685
     7.5994   7.6589   7.6974   7.7467   7.8260   7.8625   7.8711   7.8745
     7.8931   7.9084   7.9278   7.9435   7.9936   8.1459   8.1688   8.1826
     8.1858   8.2489   8.4052   8.4360   8.7856   8.8009   8.8647   9.0049
     9.1502   9.2345   9.2646   9.2961   9.2976   9.3551   9.3734   9.4064
     9.4251   9.4674   9.4758   9.5043   9.6125   9.6352   9.6403   9.6475
     9.6834   9.6856   9.7823   9.8695   9.8838   9.9278  10.0799  10.0849
    12.8918  12.9494  13.0945  13.0985  13.2121  13.3610  13.5169  13.5236
    13.5986  13.6321  13.6368  13.6455  13.7887  13.7904  13.8824  14.0032
    14.0469  14.0618  14.0956  14.0999  14.2089  14.2152  14.2763  14.3116
    15.0143  15.0821  15.1146  15.3050  15.7215  15.7813  16.0174  16.1486
    16.3794  16.4639  16.5093  16.7728  16.8435  16.9181  17.0346  17.1165

          k = 0.1250 0.3750-0.4946 ( 20754 PWs)   bands (ev):

   -46.1112 -46.1112 -46.1108 -46.1108 -46.1103 -46.1103 -46.1098 -46.1098
   -22.4214 -22.4214 -22.4203 -22.4203 -22.4188 -22.4188 -22.4179 -22.4179
   -22.3874 -22.3874 -22.3863 -22.3863 -22.3740 -22.3740 -22.3714 -22.3714
   -22.3536 -22.3536 -22.3514 -22.3514 -22.3385 -22.3385 -22.3378 -22.3378
   -14.3686 -14.3685 -14.3306 -14.3305 -14.2835 -14.2834 -14.2551 -14.2550
    -6.4970  -6.4969  -6.4664  -6.4663  -6.3595  -6.3594  -6.1754  -6.1753
    -5.8784  -5.8783  -5.8656  -5.8655  -5.7847  -5.7846  -5.7646  -5.7644
    -5.7180  -5.7179  -5.7058  -5.7057  -5.6617  -5.6615  -5.6499  -5.6498
     0.0161   0.0161   0.1142   0.1143   0.1873   0.1874   0.3200   0.3201
     0.3514   0.3514   0.3626   0.3627   0.4488   0.4488   0.4553   0.4553
     0.4823   0.4823   0.6291   0.6291   0.6943   0.6943   0.7007   0.7008
     6.2931   6.2932   6.3432   6.3433   6.7006   6.7007   6.9368   6.9369
     7.0021   7.0022   7.0023   7.0023   7.1011   7.1012   7.1166   7.1166
     7.2396   7.2397   7.3432   7.3433   7.4448   7.4449   7.4531   7.4532
     7.5321   7.5322   7.7746   7.7747   7.7983   7.7984   7.8787   7.8788
     7.9223   7.9224   8.0023   8.0023   8.0090   8.0090   8.1247   8.1248
     8.2673   8.2673   8.2968   8.2969   8.7623   8.7624   8.9026   8.9026
     9.2187   9.2187   9.2979   9.2980   9.3303   9.3303   9.3783   9.3783
     9.4944   9.4944   9.5445   9.5446   9.6110   9.6111   9.6936   9.6936
     9.7300   9.7300   9.7452   9.7452   9.7992   9.7993  10.0765  10.0766
    12.9248  12.9249  13.3476  13.3477  13.3495  13.3495  13.4148  13.4149
    13.5468  13.5469  13.5766  13.5767  13.7429  13.7430  13.9425  13.9426
    14.0333  14.0333  14.1212  14.1212  14.1889  14.1889  14.2512  14.2512
    15.0621  15.0621  15.2385  15.2385  16.0006  16.0006  16.1329  16.1330
    16.4769  16.4770  16.7015  16.7017  16.8001  16.8003  17.1063  17.1064

          k = 0.1250-0.5000 0.0000 ( 20718 PWs)   bands (ev):

   -46.1115 -46.1115 -46.1106 -46.1106 -46.1105 -46.1105 -46.1096 -46.1096
   -22.4443 -22.4443 -22.4415 -22.4415 -22.3970 -22.3970 -22.3951 -22.3951
   -22.3882 -22.3882 -22.3855 -22.3855 -22.3651 -22.3651 -22.3625 -22.3625
   -22.3624 -22.3624 -22.3604 -22.3604 -22.3390 -22.3390 -22.3372 -22.3372
   -14.3942 -14.3942 -14.3042 -14.3041 -14.3021 -14.3021 -14.2360 -14.2359
    -6.6066  -6.6066  -6.5277  -6.5276  -6.4412  -6.4412  -5.9019  -5.9019
    -5.8620  -5.8620  -5.8211  -5.8210  -5.7904  -5.7904  -5.7862  -5.7861
    -5.7345  -5.7345  -5.7286  -5.7285  -5.6604  -5.6604  -5.6422  -5.6422
    -0.0426  -0.0426   0.0419   0.0419   0.1905   0.1905   0.3649   0.3649
     0.3890   0.3890   0.4332   0.4332   0.4550   0.4550   0.5391   0.5391
     0.5541   0.5541   0.5932   0.5933   0.6302   0.6302   0.6387   0.6387
     6.1214   6.1214   6.2705   6.2705   6.3619   6.3619   6.5961   6.5961
     6.8602   6.8602   7.0176   7.0176   7.1474   7.1474   7.2002   7.2003
     7.2141   7.2142   7.2935   7.2935   7.3689   7.3689   7.6448   7.6449
     7.6557   7.6557   7.8428   7.8428   7.8508   7.8508   7.8898   7.8899
     7.9339   7.9339   7.9426   7.9426   8.0206   8.0206   8.4635   8.4635
     8.5356   8.5356   8.7053   8.7053   8.9837   8.9837   8.9849   8.9849
     8.9956   8.9956   9.0510   9.0510   9.0778   9.0778   9.3199   9.3200
     9.3457   9.3458   9.6432   9.6432   9.7597   9.7597   9.7756   9.7756
     9.7855   9.7855   9.8461   9.8461   9.9113   9.9113  10.1836  10.1836
    12.6268  12.6268  13.1974  13.1974  13.2230  13.2230  13.2589  13.2589
    13.2807  13.2807  13.9507  13.9507  14.0142  14.0142  14.0438  14.0438
    14.0751  14.0751  14.2217  14.2217  14.2554  14.2554  14.4604  14.4604
    14.6640  14.6641  15.0901  15.0902  15.2575  15.2575  15.6914  15.6914
    16.4653  16.4654  16.5954  16.5955  16.6444  16.6445  17.1333  17.1333

          k = 0.1250-0.5000 0.1236 ( 20730 PWs)   bands (ev):

   -46.1114 -46.1114 -46.1106 -46.1106 -46.1105 -46.1105 -46.1096 -46.1096
   -22.4426 -22.4426 -22.4397 -22.4397 -22.3987 -22.3987 -22.3969 -22.3969
   -22.3881 -22.3881 -22.3856 -22.3856 -22.3650 -22.3650 -22.3626 -22.3626
   -22.3624 -22.3624 -22.3605 -22.3605 -22.3389 -22.3389 -22.3373 -22.3373
   -14.3908 -14.3908 -14.3077 -14.3076 -14.2996 -14.2996 -14.2385 -14.2385
    -6.5943  -6.5943  -6.5091  -6.5091  -6.4393  -6.4393  -5.9512  -5.9512
    -5.8637  -5.8637  -5.8051  -5.8051  -5.7950  -5.7950  -5.7826  -5.7826
    -5.7319  -5.7318  -5.7316  -5.7316  -5.6599  -5.6599  -5.6434  -5.6434
    -0.0265  -0.0265   0.0265   0.0266   0.2388   0.2388   0.3569   0.3569
     0.3616   0.3617   0.4288   0.4288   0.4400   0.4400   0.4944   0.4944
     0.5381   0.5381   0.6163   0.6163   0.6520   0.6521   0.6556   0.6556
     6.1588   6.1588   6.3238   6.3238   6.3585   6.3585   6.6213   6.6213
     6.8873   6.8873   7.0196   7.0196   7.1366   7.1366   7.1813   7.1814
     7.2198   7.2199   7.3110   7.3110   7.3687   7.3687   7.6490   7.6491
     7.6777   7.6778   7.8030   7.8030   7.8612   7.8612   7.8678   7.8678
     7.9389   7.9389   7.9544   7.9544   7.9886   7.9886   8.3728   8.3728
     8.5059   8.5059   8.6576   8.6576   8.9310   8.9310   9.0350   9.0350
     9.0506   9.0506   9.0865   9.0865   9.0967   9.0967   9.3041   9.3041
     9.3601   9.3602   9.6288   9.6288   9.7340   9.7340   9.7504   9.7504
     9.7680   9.7680   9.8508   9.8508   9.9048   9.9048  10.1560  10.1560
    12.6850  12.6850  13.2036  13.2036  13.2397  13.2397  13.2768  13.2768
    13.2983  13.2983  13.9637  13.9637  13.9650  13.9650  14.0306  14.0306
    14.0509  14.0509  14.2036  14.2036  14.2256  14.2256  14.4324  14.4324
    14.7434  14.7434  15.2065  15.2065  15.2552  15.2552  15.7261  15.7261
    16.5083  16.5084  16.6538  16.6538  16.6654  16.6654  17.1353  17.1353

          k = 0.1250-0.5000 0.2473 ( 20732 PWs)   bands (ev):

   -46.1113 -46.1113 -46.1107 -46.1107 -46.1104 -46.1104 -46.1097 -46.1097
   -22.4375 -22.4375 -22.4347 -22.4347 -22.4039 -22.4039 -22.4019 -22.4019
   -22.3878 -22.3878 -22.3859 -22.3859 -22.3647 -22.3647 -22.3629 -22.3629
   -22.3622 -22.3622 -22.3607 -22.3607 -22.3387 -22.3387 -22.3375 -22.3375
   -14.3812 -14.3812 -14.3176 -14.3176 -14.2925 -14.2925 -14.2458 -14.2458
    -6.5606  -6.5606  -6.4552  -6.4552  -6.4375  -6.4375  -6.0448  -6.0448
    -5.8692  -5.8692  -5.8363  -5.8363  -5.7731  -5.7730  -5.7663  -5.7663
    -5.7377  -5.7376  -5.7306  -5.7306  -5.6591  -5.6591  -5.6466  -5.6466
     0.0003   0.0003   0.0412   0.0412   0.2747   0.2747   0.3386   0.3386
     0.3538   0.3538   0.3934   0.3934   0.4136   0.4137   0.4441   0.4441
     0.5109   0.5109   0.6574   0.6574   0.6598   0.6598   0.6838   0.6838
     6.2383   6.2383   6.3502   6.3502   6.4715   6.4715   6.7197   6.7197
     6.9652   6.9652   7.0240   7.0240   7.1146   7.1146   7.1247   7.1247
     7.2369   7.2369   7.3627   7.3627   7.3693   7.3694   7.6346   7.6346
     7.6576   7.6576   7.7355   7.7355   7.8418   7.8418   7.8855   7.8855
     7.9316   7.9316   7.9566   7.9566   7.9944   7.9944   8.1819   8.1819
     8.4409   8.4409   8.4781   8.4781   8.8547   8.8547   8.9709   8.9710
     9.1658   9.1658   9.1986   9.1986   9.2146   9.2146   9.3042   9.3042
     9.3886   9.3886   9.5806   9.5806   9.6396   9.6396   9.7134   9.7134
     9.7860   9.7860   9.8448   9.8448   9.8887   9.8887  10.0734  10.0734
    12.8445  12.8445  13.2190  13.2190  13.2655  13.2655  13.2975  13.2975
    13.4074  13.4075  13.8255  13.8255  13.9079  13.9080  14.0020  14.0020
    14.0716  14.0716  14.0978  14.0978  14.1981  14.1981  14.3581  14.3581
    14.9230  14.9230  15.2464  15.2464  15.5178  15.5178  15.8499  15.8499
    16.6332  16.6333  16.6559  16.6559  16.8699  16.8699  17.0138  17.0138

          k = 0.1250-0.5000 0.3709 ( 20752 PWs)   bands (ev):

   -46.1112 -46.1112 -46.1109 -46.1109 -46.1102 -46.1102 -46.1099 -46.1099
   -22.4299 -22.4299 -22.4272 -22.4272 -22.4117 -22.4117 -22.4094 -22.4094
   -22.3874 -22.3874 -22.3864 -22.3864 -22.3643 -22.3643 -22.3634 -22.3634
   -22.3618 -22.3618 -22.3610 -22.3610 -22.3385 -22.3385 -22.3378 -22.3378
   -14.3668 -14.3668 -14.3324 -14.3324 -14.2819 -14.2819 -14.2566 -14.2566
    -6.5151  -6.5151  -6.4457  -6.4457  -6.3719  -6.3719  -6.1548  -6.1548
    -5.8771  -5.8771  -5.8653  -5.8653  -5.7609  -5.7609  -5.7521  -5.7520
    -5.7407  -5.7407  -5.7338  -5.7338  -5.6582  -5.6582  -5.6512  -5.6512
     0.0278   0.0278   0.1171   0.1172   0.1755   0.1755   0.3179   0.3179
     0.3468   0.3468   0.3634   0.3634   0.4502   0.4502   0.4546   0.4546
     0.4874   0.4874   0.6256   0.6256   0.6906   0.6906   0.7034   0.7034
     6.2977   6.2978   6.3395   6.3395   6.6764   6.6764   6.9112   6.9112
     7.0275   7.0275   7.0276   7.0277   7.0860   7.0860   7.1100   7.1100
     7.2597   7.2597   7.3482   7.3482   7.4529   7.4529   7.4824   7.4824
     7.5314   7.5314   7.7859   7.7859   7.8061   7.8061   7.8959   7.8959
     7.8965   7.8965   7.9942   7.9942   8.0070   8.0070   8.0746   8.0746
     8.2534   8.2535   8.3307   8.3308   8.7987   8.7988   8.8592   8.8592
     9.2449   9.2449   9.2880   9.2880   9.3124   9.3124   9.4084   9.4084
     9.4751   9.4751   9.4940   9.4940   9.5204   9.5204   9.7434   9.7434
     9.7966   9.7966   9.8190   9.8190   9.8724   9.8724   9.9464   9.9464
    13.0622  13.0622  13.2465  13.2465  13.2498  13.2498  13.4042  13.4042
    13.5661  13.5661  13.6179  13.6179  13.7371  13.7371  13.9364  13.9364
    14.0619  14.0619  14.1054  14.1054  14.1653  14.1653  14.2603  14.2603
    15.0854  15.0854  15.2251  15.2251  15.9311  15.9311  16.0939  16.0940
    16.5769  16.5769  16.7508  16.7509  16.8273  16.8273  17.1668  17.1669

          k = 0.1250-0.5000-0.4946 ( 20764 PWs)   bands (ev):

   -46.1110 -46.1110 -46.1110 -46.1110 -46.1101 -46.1101 -46.1101 -46.1101
   -22.4209 -22.4209 -22.4208 -22.4208 -22.4184 -22.4184 -22.4184 -22.4184
   -22.3869 -22.3869 -22.3868 -22.3868 -22.3638 -22.3638 -22.3638 -22.3638
   -22.3614 -22.3614 -22.3614 -22.3614 -22.3382 -22.3382 -22.3381 -22.3381
   -14.3497 -14.3497 -14.3496 -14.3496 -14.2693 -14.2693 -14.2693 -14.2692
    -6.4725  -6.4725  -6.4724  -6.4724  -6.2680  -6.2680  -6.2679  -6.2679
    -5.8791  -5.8791  -5.8790  -5.8790  -5.7518  -5.7517  -5.7517  -5.7516
    -5.7386  -5.7386  -5.7385  -5.7385  -5.6558  -5.6558  -5.6556  -5.6556
     0.0876   0.0876   0.0876   0.0876   0.2148   0.2148   0.2149   0.2149
     0.3482   0.3482   0.3482   0.3482   0.4689   0.4689   0.4689   0.4690
     0.5516   0.5517   0.5517   0.5517   0.7066   0.7066   0.7066   0.7066
     6.3253   6.3253   6.3254   6.3254   6.8782   6.8782   6.8783   6.8783
     7.0224   7.0224   7.0224   7.0225   7.2318   7.2318   7.2319   7.2319
     7.2488   7.2488   7.2489   7.2489   7.3587   7.3587   7.3588   7.3588
     7.6465   7.6465   7.6465   7.6465   7.8771   7.8772   7.8772   7.8772
     7.8909   7.8909   7.8910   7.8910   8.0987   8.0987   8.0987   8.0987
     8.1963   8.1963   8.1963   8.1964   8.7928   8.7928   8.7928   8.7928
     9.3097   9.3097   9.3098   9.3098   9.4023   9.4023   9.4023   9.4023
     9.4247   9.4247   9.4248   9.4248   9.6950   9.6950   9.6950   9.6950
     9.7828   9.7828   9.7828   9.7828   9.8719   9.8719   9.8720   9.8720
    13.2102  13.2102  13.2103  13.2103  13.3823  13.3823  13.3824  13.3824
    13.5574  13.5574  13.5575  13.5575  13.7505  13.7506  13.7506  13.7506
    14.1232  14.1232  14.1232  14.1232  14.1657  14.1657  14.1657  14.1657
    15.1792  15.1792  15.1792  15.1792  16.3264  16.3265  16.3265  16.3266
    16.4229  16.4229  16.4230  16.4230  17.0720  17.0720  17.0722  17.0722

          k = 0.2500 0.2500 0.0000 ( 20724 PWs)   bands (ev):

   -46.1117 -46.1110 -46.1110 -46.1108 -46.1102 -46.1101 -46.1101 -46.1093
   -22.4453 -22.4428 -22.4428 -22.4408 -22.3974 -22.3960 -22.3960 -22.3946
   -22.3837 -22.3837 -22.3815 -22.3812 -22.3808 -22.3808 -22.3792 -22.3787
   -22.3460 -22.3454 -22.3440 -22.3440 -22.3438 -22.3435 -22.3421 -22.3421
   -14.4238 -14.3426 -14.3426 -14.3235 -14.2832 -14.2687 -14.2687 -14.2192
    -6.6641  -6.6641  -6.5753  -6.5426  -6.3879  -6.1697  -6.1697  -5.8768
    -5.8570  -5.8570  -5.8321  -5.8321  -5.8026  -5.7844  -5.7648  -5.7552
    -5.7513  -5.7295  -5.7157  -5.7120  -5.7120  -5.6138  -5.6138  -5.6082
    -0.2389  -0.1217  -0.0289   0.2154   0.2154   0.3110   0.3296   0.3297
     0.3654   0.3821   0.4130   0.4481   0.4591   0.4591   0.5224   0.5379
     0.5379   0.5852   0.5852   0.6190   0.6632   0.6786   0.6818   0.6818
     6.1090   6.1992   6.1992   6.2999   6.3294   6.5710   6.5710   6.6005
     6.6005   6.6830   6.7038   6.8025   6.8025   6.8076   6.8133   7.3164
     7.5387   7.5698   7.5698   7.6130   7.6418   7.6497   7.6497   7.6605
     7.6902   7.7101   7.7101   7.7895   7.7895   7.8061   7.8684   7.8684
     7.9049   7.9149   7.9610   7.9906   8.0230   8.2443   8.2443   8.4272
     8.4272   8.6090   8.6921   8.6921   8.7003   8.7640   9.0113   9.0113
     9.1114   9.1141   9.1341   9.2074   9.2175   9.2738   9.3327   9.4174
     9.4174   9.4438   9.4438   9.4758   9.5162   9.5162   9.6064   9.6064
     9.9392   9.9425  10.0403  10.0782  10.0852  10.0852  10.1504  10.1725
    12.6339  12.7684  12.7774  12.7817  12.7817  12.8814  13.7276  13.7542
    13.7542  13.7809  13.7809  13.8426  13.8612  13.8612  13.9849  14.0178
    14.0610  14.0610  14.1574  14.2933  14.2933  14.3747  14.4598  14.4698
    14.8061  14.8329  14.8329  15.1176  15.1413  15.1445  15.7466  15.7466
    15.9475  16.0374  16.3553  16.3553  16.8090  17.2397  17.2715  17.3223

          k = 0.2500 0.2500 0.1236 ( 20725 PWs)   bands (ev):

   -46.1117 -46.1110 -46.1110 -46.1109 -46.1102 -46.1101 -46.1101 -46.1094
   -22.4434 -22.4411 -22.4411 -22.4390 -22.3992 -22.3978 -22.3978 -22.3964
   -22.3836 -22.3836 -22.3814 -22.3811 -22.3809 -22.3809 -22.3792 -22.3788
   -22.3459 -22.3453 -22.3439 -22.3439 -22.3438 -22.3435 -22.3423 -22.3423
   -14.4201 -14.3398 -14.3398 -14.3274 -14.2808 -14.2716 -14.2715 -14.2216
    -6.6468  -6.6468  -6.5669  -6.5351  -6.3694  -6.1896  -6.1895  -5.8814
    -5.8563  -5.8563  -5.8397  -5.8304  -5.8304  -5.8006  -5.7532  -5.7499
    -5.7439  -5.7316  -5.7140  -5.7078  -5.7078  -5.6195  -5.6194  -5.6141
    -0.2187  -0.1356   0.0291   0.2257   0.2257   0.2891   0.3223   0.3223
     0.3661   0.3816   0.3951   0.4003   0.4392   0.4392   0.5219   0.5220
     0.5545   0.5706   0.6021   0.6022   0.6729   0.6959   0.6959   0.6995
     6.1498   6.2423   6.2423   6.3297   6.3563   6.5917   6.5917   6.5920
     6.5920   6.7041   6.7379   6.8075   6.8128   6.8256   6.8256   7.3256
     7.5277   7.5327   7.5327   7.6215   7.6246   7.6548   7.6548   7.6885
     7.6908   7.6908   7.6992   7.8071   7.8071   7.8128   7.8689   7.8689
     7.9034   7.9069   7.9433   7.9472   8.0368   8.1425   8.1425   8.4357
     8.4357   8.5824   8.6073   8.6860   8.7730   8.7731   9.0369   9.0370
     9.0443   9.1279   9.1528   9.2437   9.2506   9.3018   9.3598   9.3853
     9.3853   9.4047   9.4047   9.4911   9.5456   9.5456   9.5669   9.5669
     9.8986   9.9190  10.0045  10.0447  10.0683  10.0683  10.1546  10.1703
    12.6765  12.7973  12.8080  12.8353  12.8353  12.8763  13.7557  13.7604
    13.7604  13.7880  13.7880  13.8562  13.8562  13.8618  13.9341  13.9686
    14.0147  14.0147  14.1656  14.2611  14.2611  14.3641  14.4284  14.4398
    14.9157  14.9270  14.9270  15.1190  15.1401  15.2651  15.7439  15.7439
    16.0053  16.1036  16.3797  16.3797  16.7535  17.2346  17.3129  17.3590

          k = 0.2500 0.2500 0.2473 ( 20739 PWs)   bands (ev):

   -46.1116 -46.1110 -46.1109 -46.1109 -46.1102 -46.1102 -46.1101 -46.1095
   -22.4384 -22.4360 -22.4360 -22.4342 -22.4045 -22.4029 -22.4029 -22.4014
   -22.3832 -22.3832 -22.3812 -22.3812 -22.3812 -22.3808 -22.3795 -22.3791
   -22.3456 -22.3452 -22.3441 -22.3438 -22.3438 -22.3437 -22.3425 -22.3425
   -14.4094 -14.3385 -14.3320 -14.3319 -14.2797 -14.2797 -14.2739 -14.2287
    -6.5968  -6.5968  -6.5448  -6.5173  -6.3163  -6.2465  -6.2465  -5.9251
    -5.8902  -5.8506  -5.8506  -5.8267  -5.8267  -5.7951  -5.7820  -5.7589
    -5.7347  -5.7093  -5.7087  -5.6988  -5.6988  -5.6348  -5.6348  -5.6308
    -0.1611  -0.1258   0.1468   0.2272   0.2530   0.2530   0.2874   0.3134
     0.3134   0.3683   0.3745   0.3801   0.3927   0.3927   0.4850   0.4850
     0.5035   0.6151   0.6357   0.6411   0.6411   0.7178   0.7178   0.7317
     6.2398   6.3313   6.3424   6.3424   6.5164   6.5678   6.5678   6.6687
     6.6687   6.7921   6.8073   6.8116   6.8351   6.9032   6.9032   7.3646
     7.4076   7.4076   7.4813   7.4975   7.6542   7.6543   7.6595   7.6641
     7.6641   7.7050   7.7946   7.7946   7.8131   7.8305   7.8406   7.8605
     7.8605   7.8822   7.8984   7.9103   8.0643   8.0643   8.0770   8.3552
     8.4562   8.4562   8.5023   8.5279   8.7312   8.7312   8.9643   9.1464
     9.1734   9.1999   9.1999   9.2295   9.3024   9.3024   9.3101   9.3872
     9.3872   9.4253   9.4376   9.5036   9.5036   9.5357   9.5538   9.5538
     9.8108   9.8628   9.9010   9.9593  10.0140  10.0140  10.1570  10.1650
    12.7435  12.8617  12.9031  12.9253  12.9831  12.9831  13.7758  13.7758
    13.7911  13.8141  13.8141  13.8285  13.8304  13.8304  13.8333  13.8952
    13.8952  13.9174  14.1753  14.1753  14.1889  14.3239  14.3446  14.3673
    15.1226  15.1372  15.1603  15.1603  15.2048  15.5916  15.7306  15.7306
    16.1705  16.2987  16.4650  16.4650  16.5893  17.1592  17.3600  17.4100

          k = 0.2500 0.2500 0.3709 ( 20738 PWs)   bands (ev):

   -46.1115 -46.1111 -46.1107 -46.1107 -46.1104 -46.1104 -46.1100 -46.1096
   -22.4306 -22.4285 -22.4285 -22.4267 -22.4124 -22.4106 -22.4106 -22.4089
   -22.3828 -22.3828 -22.3817 -22.3817 -22.3808 -22.3804 -22.3798 -22.3795
   -22.3453 -22.3448 -22.3444 -22.3440 -22.3435 -22.3435 -22.3428 -22.3428
   -14.3933 -14.3549 -14.3201 -14.3201 -14.2918 -14.2918 -14.2636 -14.2391
    -6.5203  -6.5203  -6.5183  -6.5013  -6.3308  -6.3308  -6.2346  -6.0268
    -5.8911  -5.8391  -5.8391  -5.8305  -5.8245  -5.8245  -5.7869  -5.7672
    -5.7116  -5.7034  -5.6994  -5.6882  -5.6882  -5.6554  -5.6551  -5.6551
    -0.0741  -0.0707   0.1359   0.1527   0.2806   0.2806   0.2875   0.3309
     0.3310   0.3430   0.3430   0.3713   0.3740   0.3777   0.4355   0.4355
     0.4428   0.5520   0.6745   0.6828   0.6828   0.7259   0.7259   0.7387
     6.3078   6.3340   6.4326   6.4326   6.5336   6.5336   6.7538   6.8076
     6.8100   6.8189   6.8190   6.9770   6.9846   7.0597   7.0597   7.2152
     7.2152   7.2898   7.3894   7.4463   7.5350   7.5350   7.6331   7.6723
     7.6723   7.7064   7.7090   7.7090   7.7145   7.8390   7.8526   7.8886
     7.9006   7.9375   7.9375   7.9884   8.0456   8.0456   8.0713   8.1426
     8.3678   8.3680   8.4802   8.4803   8.6059   8.6059   8.9199   9.0161
     9.2359   9.2513   9.2513   9.2842   9.2842   9.3262   9.3707   9.4004
     9.4004   9.5190   9.5190   9.5439   9.5555   9.5802   9.5802   9.6050
     9.7293   9.7424   9.7818   9.8376   9.9139   9.9139  10.1561  10.1593
    12.7811  12.8393  13.1112  13.1147  13.1949  13.1949  13.5817  13.6183
    13.6689  13.6689  13.7954  13.7954  13.8404  13.8404  13.8679  13.8680
    13.9467  14.0039  14.0625  14.0625  14.2170  14.2243  14.2318  14.3131
    15.1266  15.1339  15.4167  15.4167  15.5871  15.6911  15.6911  16.0399
    16.3255  16.4216  16.6110  16.6431  16.6431  16.9144  17.2482  17.2484

          k = 0.2500 0.2500-0.4946 ( 20734 PWs)   bands (ev):

   -46.1113 -46.1113 -46.1105 -46.1105 -46.1105 -46.1105 -46.1098 -46.1098
   -22.4216 -22.4216 -22.4195 -22.4195 -22.4195 -22.4195 -22.4178 -22.4178
   -22.3823 -22.3822 -22.3822 -22.3822 -22.3803 -22.3803 -22.3799 -22.3799
   -22.3449 -22.3449 -22.3444 -22.3444 -22.3432 -22.3432 -22.3431 -22.3431
   -14.3743 -14.3742 -14.3061 -14.3060 -14.3060 -14.3059 -14.2514 -14.2514
    -6.5007  -6.5006  -6.4273  -6.4273  -6.4272  -6.4272  -6.1341  -6.1340
    -5.8714  -5.8713  -5.8285  -5.8285  -5.8284  -5.8284  -5.7772  -5.7770
    -5.6991  -5.6989  -5.6839  -5.6837  -5.6742  -5.6742  -5.6741  -5.6741
     0.0263   0.0264   0.0300   0.0301   0.3050   0.3050   0.3051   0.3051
     0.3746   0.3747   0.3798   0.3799   0.3799   0.3799   0.3975   0.3976
     0.4297   0.4297   0.7136   0.7136   0.7136   0.7136   0.7185   0.7185
     6.3316   6.3317   6.4910   6.4910   6.4911   6.4911   6.8085   6.8086
     7.0098   7.0098   7.0099   7.0099   7.0273   7.0274   7.1067   7.1067
     7.2977   7.2977   7.2978   7.2978   7.4149   7.4150   7.5667   7.5668
     7.6832   7.6832   7.6833   7.6833   7.7794   7.7795   7.8731   7.8731
     7.9347   7.9348   8.0078   8.0078   8.0079   8.0079   8.1857   8.1858
     8.2376   8.2377   8.5189   8.5189   8.5189   8.5190   8.9316   8.9317
     9.2536   9.2536   9.2536   9.2537   9.2950   9.2950   9.4567   9.4567
     9.4567   9.4567   9.5538   9.5539   9.6455   9.6455   9.6909   9.6910
     9.6960   9.6960   9.7627   9.7627   9.7627   9.7627  10.1560  10.1562
    12.8117  12.8118  13.3417  13.3418  13.3681  13.3682  13.4355  13.4355
    13.4355  13.4355  13.8171  13.8171  13.8172  13.8172  13.9531  13.9531
    13.9531  13.9531  14.0806  14.0807  14.1126  14.1126  14.2673  14.2673
    15.1304  15.1304  15.5976  15.5976  15.5976  15.5976  15.9799  15.9801
    16.5126  16.5128  16.7288  16.7290  16.9241  16.9241  16.9242  16.9242

          k = 0.2500 0.3750 0.0000 ( 20748 PWs)   bands (ev):

   -46.1116 -46.1112 -46.1108 -46.1107 -46.1104 -46.1103 -46.1099 -46.1095
   -22.4447 -22.4434 -22.4424 -22.4413 -22.3971 -22.3963 -22.3957 -22.3950
   -22.3832 -22.3819 -22.3804 -22.3794 -22.3750 -22.3729 -22.3723 -22.3706
   -22.3545 -22.3527 -22.3522 -22.3507 -22.3452 -22.3444 -22.3433 -22.3426
   -14.4054 -14.3615 -14.3291 -14.3110 -14.2969 -14.2814 -14.2574 -14.2306
    -6.6224  -6.5976  -6.5536  -6.4906  -6.4464  -6.2736  -6.0838  -5.8704
    -5.8588  -5.8390  -5.8379  -5.8274  -5.8114  -5.7958  -5.7881  -5.7665
    -5.7584  -5.7360  -5.7123  -5.7059  -5.6868  -5.6797  -5.6457  -5.6289
    -0.1607  -0.0207   0.0886   0.1206   0.2226   0.2319   0.3179   0.3265
     0.3698   0.4019   0.4076   0.4233   0.4402   0.4485   0.5074   0.5128
     0.5656   0.5783   0.5812   0.6123   0.6358   0.6442   0.6474   0.6622
     6.1614   6.1966   6.2475   6.2871   6.4317   6.5588   6.6708   6.6886
     6.7154   6.8489   6.8961   6.9142   6.9888   7.0126   7.0298   7.0983
     7.3574   7.3746   7.4291   7.5156   7.5651   7.5902   7.6093   7.6301
     7.6463   7.7051   7.7144   7.7995   7.8188   7.8307   7.8459   7.8920
     7.9167   7.9514   7.9753   7.9830   8.0513   8.1394   8.1827   8.3353
     8.4326   8.5570   8.6111   8.6212   8.6585   8.7266   8.8846   9.0144
     9.0416   9.0674   9.1421   9.1800   9.1894   9.3030   9.3392   9.4092
     9.4424   9.4505   9.4844   9.5377   9.5807   9.6207   9.6927   9.7182
     9.8273   9.8764   9.9177   9.9230   9.9485  10.0753  10.0886  10.1126
    12.6973  12.7597  12.9507  12.9822  13.0003  13.1172  13.5105  13.5164
    13.5430  13.6440  13.7724  13.8007  13.8249  13.9690  14.0046  14.0328
    14.0427  14.0474  14.1318  14.1919  14.2449  14.3326  14.3517  14.4258
    14.8424  14.8432  14.9995  15.1398  15.3841  15.4856  15.6956  16.1395
    16.1969  16.2856  16.3359  16.6375  16.9880  17.0014  17.0381  17.3349

          k = 0.2500 0.3750 0.1236 ( 20734 PWs)   bands (ev):

   -46.1115 -46.1111 -46.1108 -46.1107 -46.1104 -46.1103 -46.1100 -46.1096
   -22.4429 -22.4416 -22.4406 -22.4395 -22.3990 -22.3981 -22.3975 -22.3968
   -22.3831 -22.3818 -22.3804 -22.3795 -22.3749 -22.3727 -22.3724 -22.3707
   -22.3544 -22.3526 -22.3523 -22.3507 -22.3452 -22.3443 -22.3434 -22.3427
   -14.4019 -14.3585 -14.3264 -14.3147 -14.2945 -14.2845 -14.2602 -14.2332
    -6.6069  -6.5800  -6.5434  -6.4850  -6.4283  -6.2809  -6.1062  -5.9101
    -5.8632  -5.8376  -5.8355  -5.8354  -5.8092  -5.7870  -5.7763  -5.7723
    -5.7622  -5.7373  -5.7105  -5.7057  -5.6855  -5.6840  -5.6493  -5.6335
    -0.1428  -0.0368   0.1026   0.1744   0.2069   0.2389   0.3057   0.3197
     0.3684   0.3859   0.3870   0.4144   0.4150   0.4482   0.4763   0.4822
     0.5128   0.5292   0.6126   0.6349   0.6707   0.6820   0.6844   0.6889
     6.2066   6.2407   6.2962   6.3411   6.4286   6.5509   6.6819   6.7080
     6.7278   6.8352   6.9061   6.9309   6.9962   7.0078   7.0490   7.1129
     7.3412   7.3644   7.3973   7.5336   7.5599   7.5951   7.5967   7.6391
     7.6631   7.7117   7.7317   7.7671   7.8048   7.8392   7.8569   7.8918
     7.9074   7.9118   7.9600   7.9945   8.0675   8.1080   8.1437   8.2294
     8.4162   8.5496   8.5516   8.5903   8.6226   8.7647   8.8483   8.9912
     9.0942   9.1121   9.1505   9.2138   9.2389   9.2979   9.3280   9.4178
     9.4194   9.4826   9.5097   9.5206   9.5225   9.6574   9.6606   9.7061
     9.7947   9.8524   9.8712   9.9341   9.9408  10.0687  10.0704  10.0970
    12.7489  12.8130  12.9755  13.0138  13.0288  13.1120  13.5208  13.5484
    13.5511  13.6390  13.7839  13.8190  13.8320  13.9547  13.9617  13.9953
    14.0000  14.0410  14.0884  14.1537  14.2348  14.3008  14.3166  14.3946
    14.9381  14.9443  15.1077  15.2593  15.3855  15.4944  15.6934  16.1610
    16.1968  16.3335  16.3981  16.6470  16.9311  17.0406  17.0513  17.3331

          k = 0.2500 0.3750 0.2473 ( 20748 PWs)   bands (ev):

   -46.1114 -46.1110 -46.1108 -46.1107 -46.1104 -46.1103 -46.1101 -46.1097
   -22.4378 -22.4366 -22.4356 -22.4346 -22.4042 -22.4033 -22.4026 -22.4018
   -22.3828 -22.3815 -22.3807 -22.3797 -22.3747 -22.3727 -22.3725 -22.3709
   -22.3542 -22.3525 -22.3524 -22.3509 -22.3450 -22.3441 -22.3436 -22.3429
   -14.3919 -14.3500 -14.3251 -14.3188 -14.2933 -14.2874 -14.2681 -14.2405
    -6.5628  -6.5293  -6.5168  -6.4718  -6.3758  -6.3063  -6.1684  -5.9909
    -5.8739  -5.8499  -5.8379  -5.8254  -5.8065  -5.8039  -5.7826  -5.7525
    -5.7505  -5.7430  -5.7084  -5.7046  -5.6946  -5.6836  -5.6588  -5.6466
    -0.0932  -0.0386   0.1418   0.1858   0.2457   0.2579   0.2860   0.3244
     0.3287   0.3314   0.3585   0.3623   0.3792   0.3874   0.4263   0.4362
     0.4624   0.5553   0.6736   0.6745   0.6818   0.7223   0.7301   0.7321
     6.3090   6.3416   6.4203   6.4224   6.4919   6.5297   6.7385   6.7757
     6.7878   6.7964   6.9266   6.9846   6.9996   7.0273   7.1114   7.1643
     7.2539   7.3004   7.3734   7.4773   7.5578   7.5746   7.6083   7.7036
     7.7085   7.7128   7.7247   7.7327   7.7365   7.8255   7.8681   7.8927
     7.8949   7.9012   7.9269   7.9999   8.0044   8.0292   8.1315   8.1537
     8.3433   8.3765   8.4195   8.5308   8.5328   8.7080   8.7783   8.9005
     9.2149   9.2483   9.2564   9.2666   9.2817   9.3272   9.3694   9.4088
     9.4486   9.4540   9.4914   9.5263   9.5700   9.6126   9.6758   9.6785
     9.7263   9.7861   9.8012   9.9035   9.9135  10.0061  10.0579  10.0629
    12.8833  12.9602  13.0264  13.0866  13.0969  13.1576  13.5450  13.5838
    13.6230  13.6370  13.8153  13.8167  13.8544  13.8612  13.8678  13.8722
    13.9264  13.9811  14.0504  14.0645  14.1954  14.2154  14.2310  14.3110
    15.1712  15.1841  15.3884  15.3894  15.5483  15.5829  15.6830  16.1876
    16.2397  16.4718  16.5828  16.6824  16.7632  17.0517  17.2981  17.3272

          k = 0.2500 0.3750 0.3709 ( 20729 PWs)   bands (ev):

   -46.1113 -46.1110 -46.1109 -46.1105 -46.1105 -46.1102 -46.1101 -46.1098
   -22.4301 -22.4289 -22.4280 -22.4271 -22.4119 -22.4110 -22.4102 -22.4093
   -22.3823 -22.3812 -22.3811 -22.3801 -22.3742 -22.3731 -22.3721 -22.3713
   -22.3538 -22.3529 -22.3520 -22.3513 -22.3447 -22.3439 -22.3438 -22.3431
   -14.3768 -14.3406 -14.3371 -14.3073 -14.3065 -14.2798 -14.2767 -14.2513
    -6.4975  -6.4852  -6.4606  -6.4515  -6.3550  -6.2952  -6.2571  -6.0903
    -5.8819  -5.8560  -5.8463  -5.8423  -5.8119  -5.7996  -5.7744  -5.7524
    -5.7374  -5.7366  -5.7089  -5.7048  -5.7004  -5.6825  -5.6706  -5.6660
    -0.0261   0.0091   0.1542   0.1793   0.2081   0.2083   0.2638   0.2836
     0.3307   0.3457   0.3459   0.3463   0.3589   0.3699   0.3887   0.4091
     0.4142   0.6274   0.6329   0.7260   0.7265   0.7265   0.7542   0.7591
     6.3866   6.4179   6.4244   6.5014   6.5572   6.7065   6.7375   6.8710
     6.9134   6.9134   6.9405   7.0232   7.0877   7.1004   7.1392   7.1424
     7.2323   7.2652   7.3002   7.3712   7.5157   7.5888   7.6119   7.6145
     7.6305   7.6311   7.6459   7.7476   7.7635   7.8684   7.8766   7.8922
     7.8928   7.9102   7.9132   7.9504   7.9660   8.0904   8.1055   8.1117
     8.1744   8.2001   8.3066   8.3648   8.5062   8.5828   8.7214   8.7774
     9.2602   9.3336   9.3385   9.3468   9.3469   9.3830   9.3918   9.4793
     9.5092   9.5128   9.5351   9.5354   9.6382   9.6516   9.6559   9.6611
     9.6630   9.6648   9.7453   9.8148   9.8563   9.8939  10.0392  10.0435
    12.9977  13.0733  13.1539  13.1707  13.2372  13.3435  13.5717  13.5816
    13.6130  13.6571  13.6639  13.6890  13.7662  13.7684  13.8585  13.9038
    13.9110  13.9297  13.9559  14.0720  14.1003  14.1024  14.1662  14.2073
    15.3455  15.3894  15.4180  15.6526  15.7344  15.7784  16.0270  16.1418
    16.4157  16.4936  16.6861  16.7704  16.8811  16.8811  17.0251  17.2353

          k = 0.2500 0.3750-0.4946 ( 20730 PWs)   bands (ev):

   -46.1111 -46.1111 -46.1107 -46.1107 -46.1104 -46.1104 -46.1100 -46.1100
   -22.4211 -22.4211 -22.4200 -22.4200 -22.4191 -22.4191 -22.4182 -22.4182
   -22.3818 -22.3817 -22.3806 -22.3806 -22.3737 -22.3737 -22.3717 -22.3716
   -22.3534 -22.3533 -22.3517 -22.3516 -22.3443 -22.3443 -22.3435 -22.3435
   -14.3588 -14.3587 -14.3219 -14.3218 -14.2936 -14.2936 -14.2641 -14.2640
    -6.4636  -6.4635  -6.4232  -6.4231  -6.3565  -6.3564  -6.1961  -6.1959
    -5.8746  -5.8745  -5.8508  -5.8507  -5.8017  -5.8016  -5.7637  -5.7636
    -5.7313  -5.7312  -5.7094  -5.7092  -5.6868  -5.6866  -5.6793  -5.6791
     0.0548   0.0548   0.1002   0.1002   0.2092   0.2092   0.2806   0.2807
     0.3108   0.3109   0.3370   0.3371   0.3590   0.3591   0.3782   0.3782
     0.5351   0.5351   0.6945   0.6945   0.7526   0.7526   0.7571   0.7571
     6.4123   6.4124   6.4693   6.4694   6.6605   6.6606   6.9369   6.9370
     6.9459   6.9460   7.0143   7.0143   7.1036   7.1037   7.1220   7.1221
     7.3141   7.3142   7.4159   7.4160   7.4205   7.4206   7.4461   7.4462
     7.6178   7.6179   7.6974   7.6975   7.7927   7.7928   7.8886   7.8886
     7.9366   7.9367   7.9600   7.9601   8.0404   8.0405   8.0491   8.0492
     8.1865   8.1865   8.2365   8.2365   8.5071   8.5071   8.7111   8.7112
     9.3032   9.3032   9.3563   9.3563   9.3869   9.3869   9.5088   9.5088
     9.5095   9.5096   9.5872   9.5873   9.6438   9.6440   9.6814   9.6814
     9.6958   9.6959   9.7307   9.7307   9.7622   9.7622  10.0348  10.0349
    13.0422  13.0423  13.3799  13.3800  13.4057  13.4058  13.4409  13.4409
    13.5573  13.5574  13.6038  13.6038  13.7705  13.7706  13.8952  13.8952
    13.9178  13.9179  13.9910  13.9910  14.0624  14.0624  14.1449  14.1449
    15.3824  15.3824  15.5775  15.5775  16.0065  16.0066  16.1457  16.1458
    16.4945  16.4947  16.7019  16.7020  16.9554  16.9581  16.9582  17.2991

          k = 0.2500-0.5000 0.0000 ( 20748 PWs)   bands (ev):

   -46.1114 -46.1114 -46.1106 -46.1106 -46.1105 -46.1105 -46.1097 -46.1097
   -22.4440 -22.4440 -22.4419 -22.4419 -22.3967 -22.3967 -22.3954 -22.3954
   -22.3825 -22.3825 -22.3799 -22.3799 -22.3648 -22.3648 -22.3628 -22.3628
   -22.3623 -22.3623 -22.3607 -22.3607 -22.3448 -22.3448 -22.3429 -22.3429
   -14.3836 -14.3836 -14.3131 -14.3131 -14.2963 -14.2963 -14.2441 -14.2441
    -6.5817  -6.5817  -6.5206  -6.5206  -6.3858  -6.3858  -5.9793  -5.9792
    -5.8458  -5.8458  -5.8176  -5.8176  -5.7926  -5.7926  -5.7877  -5.7877
    -5.7446  -5.7446  -5.7216  -5.7215  -5.6795  -5.6795  -5.6573  -5.6573
    -0.0452  -0.0452   0.0996   0.0996   0.2661   0.2662   0.2865   0.2865
     0.3603   0.3603   0.3909   0.3909   0.4732   0.4732   0.4900   0.4901
     0.5715   0.5715   0.6176   0.6177   0.6269   0.6269   0.6315   0.6315
     6.1869   6.1869   6.2718   6.2718   6.5057   6.5057   6.7066   6.7066
     6.8733   6.8733   7.1095   7.1095   7.1180   7.1180   7.1410   7.1410
     7.2763   7.2764   7.2950   7.2951   7.3535   7.3535   7.6240   7.6240
     7.7096   7.7096   7.7189   7.7189   7.8664   7.8664   7.8869   7.8869
     7.9249   7.9249   8.0075   8.0076   8.0574   8.0574   8.2493   8.2493
     8.4640   8.4641   8.6047   8.6047   8.7054   8.7054   8.8250   8.8250
     9.1211   9.1211   9.1344   9.1344   9.2435   9.2435   9.3389   9.3389
     9.3940   9.3940   9.6810   9.6810   9.7468   9.7468   9.7490   9.7490
     9.7607   9.7607   9.7885   9.7885   9.9224   9.9224  10.0967  10.0967
    12.7320  12.7320  13.2241  13.2241  13.2442  13.2442  13.2699  13.2699
    13.3844  13.3844  13.7856  13.7856  13.9134  13.9134  14.0290  14.0290
    14.1004  14.1004  14.1027  14.1027  14.2341  14.2342  14.3790  14.3791
    14.8478  14.8478  15.0988  15.0988  15.5827  15.5827  15.8415  15.8416
    16.6437  16.6438  16.6572  16.6572  16.7705  16.7705  16.9896  16.9896

          k = 0.2500-0.5000 0.1236 ( 20764 PWs)   bands (ev):

   -46.1113 -46.1113 -46.1106 -46.1106 -46.1105 -46.1105 -46.1098 -46.1098
   -22.4423 -22.4423 -22.4400 -22.4400 -22.3986 -22.3986 -22.3972 -22.3972
   -22.3824 -22.3824 -22.3800 -22.3800 -22.3647 -22.3647 -22.3627 -22.3627
   -22.3624 -22.3624 -22.3608 -22.3608 -22.3448 -22.3448 -22.3431 -22.3431
   -14.3803 -14.3803 -14.3105 -14.3105 -14.2997 -14.2997 -14.2468 -14.2467
    -6.5686  -6.5686  -6.5027  -6.5026  -6.3851  -6.3850  -6.0071  -6.0071
    -5.8477  -5.8477  -5.8091  -5.8091  -5.8049  -5.8049  -5.7846  -5.7846
    -5.7465  -5.7465  -5.7216  -5.7216  -5.6810  -5.6810  -5.6592  -5.6592
    -0.0296  -0.0296   0.0822   0.0822   0.2702   0.2702   0.3327   0.3327
     0.3396   0.3396   0.3876   0.3876   0.4409   0.4409   0.4600   0.4600
     0.4887   0.4888   0.6599   0.6599   0.6627   0.6627   0.6738   0.6739
     6.2323   6.2323   6.3233   6.3233   6.4995   6.4995   6.7172   6.7172
     6.8916   6.8917   7.1040   7.1040   7.1062   7.1062   7.1192   7.1193
     7.2840   7.2840   7.3125   7.3125   7.3713   7.3713   7.6474   7.6474
     7.6934   7.6934   7.7167   7.7167   7.8463   7.8463   7.8690   7.8690
     7.9348   7.9348   8.0017   8.0017   8.0260   8.0260   8.2557   8.2557
     8.3748   8.3748   8.5697   8.5697   8.6831   8.6831   8.8250   8.8250
     9.1566   9.1566   9.1854   9.1854   9.2445   9.2445   9.3279   9.3279
     9.4220   9.4220   9.6578   9.6578   9.6933   9.6933   9.7512   9.7512
     9.7615   9.7615   9.7953   9.7953   9.9142   9.9142  10.0756  10.0756
    12.7849  12.7849  13.2408  13.2408  13.2796  13.2796  13.2829  13.2829
    13.3792  13.3793  13.8010  13.8010  13.9212  13.9212  13.9804  13.9804
    14.0567  14.0567  14.0936  14.0936  14.1946  14.1946  14.3475  14.3475
    14.9448  14.9448  15.2151  15.2152  15.5823  15.5823  15.8581  15.8581
    16.6615  16.6615  16.6875  16.6876  16.8230  16.8230  16.9906  16.9906

          k = 0.2500-0.5000 0.2473 ( 20750 PWs)   bands (ev):

   -46.1112 -46.1112 -46.1106 -46.1106 -46.1105 -46.1105 -46.1099 -46.1099
   -22.4372 -22.4372 -22.4351 -22.4351 -22.4037 -22.4037 -22.4022 -22.4022
   -22.3821 -22.3821 -22.3802 -22.3802 -22.3644 -22.3644 -22.3627 -22.3627
   -22.3625 -22.3625 -22.3609 -22.3609 -22.3446 -22.3446 -22.3432 -22.3432
   -14.3710 -14.3710 -14.3093 -14.3093 -14.3031 -14.3031 -14.2543 -14.2543
    -6.5326  -6.5326  -6.4510  -6.4510  -6.3868  -6.3868  -6.0775  -6.0775
    -5.8541  -5.8541  -5.8325  -5.8325  -5.7924  -5.7924  -5.7768  -5.7768
    -5.7492  -5.7492  -5.7245  -5.7245  -5.6845  -5.6845  -5.6654  -5.6654
     0.0129   0.0129   0.0695   0.0695   0.2798   0.2798   0.2814   0.2815
     0.3767   0.3767   0.3818   0.3818   0.3894   0.3894   0.4111   0.4112
     0.4300   0.4300   0.7064   0.7064   0.7144   0.7144   0.7147   0.7147
     6.3357   6.3357   6.4628   6.4628   6.4839   6.4839   6.7724   6.7724
     6.9535   6.9535   7.0549   7.0549   7.0797   7.0797   7.1004   7.1004
     7.3047   7.3047   7.3641   7.3641   7.4083   7.4083   7.5972   7.5972
     7.7087   7.7087   7.7128   7.7128   7.7744   7.7744   7.8800   7.8800
     7.9645   7.9645   7.9669   7.9669   7.9876   7.9876   8.2000   8.2000
     8.2552   8.2552   8.4174   8.4174   8.6281   8.6281   8.7470   8.7470
     9.2570   9.2570   9.2672   9.2672   9.2987   9.2987   9.3579   9.3579
     9.4747   9.4747   9.6116   9.6116   9.6194   9.6194   9.7160   9.7160
     9.7596   9.7596   9.8083   9.8083   9.8936   9.8936  10.0120  10.0120
    12.9302  12.9302  13.2774  13.2774  13.3249  13.3249  13.3640  13.3640
    13.3902  13.3903  13.8443  13.8443  13.8461  13.8461  13.9358  13.9358
    13.9438  13.9438  14.0540  14.0540  14.0989  14.0989  14.2627  14.2627
    15.1795  15.1795  15.5273  15.5273  15.5788  15.5788  15.9265  15.9265
    16.6582  16.6582  16.8092  16.8093  16.9864  16.9864  16.9951  16.9951

          k = 0.2500-0.5000 0.3709 ( 20736 PWs)   bands (ev):

   -46.1111 -46.1111 -46.1107 -46.1107 -46.1103 -46.1103 -46.1100 -46.1100
   -22.4296 -22.4296 -22.4275 -22.4275 -22.4115 -22.4115 -22.4097 -22.4097
   -22.3817 -22.3817 -22.3807 -22.3807 -22.3640 -22.3640 -22.3631 -22.3631
   -22.3621 -22.3621 -22.3613 -22.3613 -22.3443 -22.3443 -22.3435 -22.3435
   -14.3570 -14.3570 -14.3236 -14.3236 -14.2921 -14.2920 -14.2656 -14.2656
    -6.4830  -6.4830  -6.4008  -6.4008  -6.3718  -6.3718  -6.1718  -6.1718
    -5.8639  -5.8639  -5.8582  -5.8582  -5.7770  -5.7770  -5.7689  -5.7689
    -5.7475  -5.7475  -5.7316  -5.7316  -5.6871  -5.6871  -5.6750  -5.6750
     0.0615   0.0615   0.1062   0.1062   0.1961   0.1961   0.2815   0.2815
     0.2972   0.2972   0.3426   0.3426   0.3696   0.3696   0.3759   0.3759
     0.5371   0.5371   0.6907   0.6907   0.7543   0.7543   0.7548   0.7548
     6.4154   6.4154   6.4660   6.4660   6.6448   6.6448   6.9074   6.9074
     6.9517   6.9517   7.0496   7.0496   7.0739   7.0740   7.1342   7.1342
     7.3228   7.3228   7.4375   7.4375   7.4402   7.4402   7.4508   7.4508
     7.6221   7.6221   7.6894   7.6895   7.8046   7.8046   7.8959   7.8959
     7.9168   7.9168   7.9884   7.9884   8.0286   8.0286   8.0403   8.0403
     8.2011   8.2011   8.2049   8.2049   8.5709   8.5709   8.6203   8.6203
     9.3184   9.3184   9.3479   9.3479   9.3794   9.3794   9.5083   9.5083
     9.5163   9.5163   9.5354   9.5354   9.5677   9.5677   9.7091   9.7091
     9.7589   9.7589   9.7898   9.7898   9.8710   9.8710   9.9168   9.9168
    13.1322  13.1322  13.3171  13.3171  13.3384  13.3384  13.4306  13.4307
    13.5463  13.5464  13.6461  13.6461  13.7657  13.7657  13.9108  13.9108
    13.9173  13.9173  13.9802  13.9802  14.0454  14.0454  14.1500  14.1500
    15.4057  15.4057  15.5643  15.5643  15.9441  15.9441  16.1078  16.1078
    16.5885  16.5885  16.7490  16.7490  17.0111  17.0111  17.2229  17.2259

          k = 0.2500-0.5000-0.4946 ( 20720 PWs)   bands (ev):

   -46.1109 -46.1109 -46.1109 -46.1109 -46.1102 -46.1102 -46.1102 -46.1102
   -22.4205 -22.4205 -22.4205 -22.4205 -22.4186 -22.4186 -22.4186 -22.4186
   -22.3811 -22.3811 -22.3811 -22.3811 -22.3635 -22.3635 -22.3635 -22.3635
   -22.3617 -22.3617 -22.3617 -22.3617 -22.3439 -22.3439 -22.3439 -22.3439
   -14.3404 -14.3404 -14.3404 -14.3403 -14.2789 -14.2789 -14.2789 -14.2788
    -6.4344  -6.4344  -6.4343  -6.4343  -6.2746  -6.2746  -6.2745  -6.2745
    -5.8688  -5.8688  -5.8687  -5.8687  -5.7680  -5.7680  -5.7680  -5.7679
    -5.7406  -5.7406  -5.7405  -5.7405  -5.6841  -5.6841  -5.6840  -5.6840
     0.1174   0.1174   0.1174   0.1174   0.1875   0.1875   0.1876   0.1876
     0.3159   0.3159   0.3159   0.3159   0.3636   0.3637   0.3637   0.3637
     0.6301   0.6301   0.6301   0.6301   0.7690   0.7690   0.7691   0.7691
     6.4480   6.4480   6.4481   6.4481   6.8147   6.8147   6.8147   6.8147
     7.0103   7.0103   7.0103   7.0103   7.2498   7.2498   7.2499   7.2499
     7.2654   7.2654   7.2655   7.2655   7.4854   7.4854   7.4855   7.4855
     7.5701   7.5702   7.5702   7.5702   7.8997   7.8997   7.8998   7.8998
     7.9092   7.9092   7.9092   7.9092   8.0520   8.0520   8.0520   8.0520
     8.1195   8.1195   8.1196   8.1196   8.5536   8.5536   8.5537   8.5537
     9.3748   9.3748   9.3748   9.3748   9.4415   9.4415   9.4415   9.4415
     9.5386   9.5386   9.5387   9.5387   9.6857   9.6857   9.6857   9.6857
     9.7384   9.7384   9.7384   9.7384   9.8643   9.8643   9.8644   9.8644
    13.2909  13.2909  13.2909  13.2910  13.4290  13.4290  13.4291  13.4291
    13.5853  13.5853  13.5853  13.5854  13.7281  13.7281  13.7282  13.7282
    13.9947  13.9947  13.9947  13.9948  14.0427  14.0427  14.0427  14.0427
    15.5212  15.5212  15.5213  15.5213  16.3450  16.3450  16.3451  16.3451
    16.4170  16.4170  16.4171  16.4171  17.0674  17.0674  17.0674  17.0674

          k = 0.3750 0.3750 0.0000 ( 20728 PWs)   bands (ev):

   -46.1114 -46.1110 -46.1110 -46.1106 -46.1105 -46.1101 -46.1101 -46.1097
   -22.4441 -22.4429 -22.4429 -22.4418 -22.3967 -22.3961 -22.3961 -22.3953
   -22.3746 -22.3746 -22.3738 -22.3730 -22.3719 -22.3719 -22.3712 -22.3706
   -22.3544 -22.3536 -22.3531 -22.3531 -22.3521 -22.3516 -22.3510 -22.3510
   -14.3882 -14.3469 -14.3469 -14.3119 -14.2989 -14.2699 -14.2698 -14.2424
    -6.5713  -6.5713  -6.5456  -6.4739  -6.4056  -6.1880  -6.1880  -5.9721
    -5.8328  -5.8196  -5.8196  -5.8148  -5.8148  -5.8028  -5.7925  -5.7755
    -5.7668  -5.7318  -5.7197  -5.7059  -5.7059  -5.6900  -5.6900  -5.6423
    -0.1069   0.0730   0.1072   0.1072   0.2283   0.2584   0.3011   0.3012
     0.3241   0.3538   0.3763   0.3764   0.4679   0.4952   0.5227   0.5227
     0.5355   0.5355   0.5620   0.6205   0.6223   0.6269   0.6542   0.6543
     6.2122   6.2463   6.2463   6.2809   6.5807   6.7846   6.7846   6.7873
     6.7873   6.8747   7.0041   7.0481   7.0630   7.0630   7.0632   7.1479
     7.2590   7.2685   7.4460   7.4460   7.5020   7.5080   7.5517   7.5517
     7.6766   7.7427   7.7427   7.7589   7.8068   7.8068   7.8734   7.8734
     7.8958   7.9257   7.9501   8.0001   8.0228   8.2204   8.2594   8.2594
     8.2712   8.2712   8.5062   8.5774   8.5790   8.5790   8.6188   8.7632
     9.1489   9.1489   9.2277   9.2378   9.2930   9.3948   9.4783   9.4808
     9.5007   9.5007   9.5110   9.5110   9.5495   9.5495   9.7402   9.7812
     9.7857   9.7857   9.8696   9.8702   9.9443   9.9443  10.0028  10.0211
    12.8441  12.9592  12.9592  13.0395  13.1613  13.3135  13.4367  13.5296
    13.5296  13.6136  13.6136  13.6244  13.7727  13.7727  13.8818  14.0362
    14.0751  14.0965  14.1084  14.1084  14.2297  14.2297  14.3041  14.3265
    14.9532  15.0051  15.0051  15.1345  15.7223  15.7731  16.1411  16.1411
    16.4139  16.4139  16.5709  16.6464  16.9402  17.0800  17.0904  17.1962

          k = 0.3750 0.3750 0.1236 ( 20745 PWs)   bands (ev):

   -46.1114 -46.1110 -46.1110 -46.1105 -46.1105 -46.1101 -46.1101 -46.1097
   -22.4424 -22.4412 -22.4412 -22.4400 -22.3986 -22.3978 -22.3978 -22.3971
   -22.3745 -22.3745 -22.3737 -22.3729 -22.3720 -22.3720 -22.3712 -22.3707
   -22.3543 -22.3536 -22.3530 -22.3530 -22.3522 -22.3517 -22.3511 -22.3511
   -14.3848 -14.3440 -14.3440 -14.3093 -14.3023 -14.2729 -14.2728 -14.2451
    -6.5552  -6.5552  -6.5336  -6.4563  -6.4026  -6.1975  -6.1975  -5.9942
    -5.8384  -5.8250  -5.8250  -5.8139  -5.8139  -5.7979  -5.7897  -5.7871
    -5.7623  -5.7336  -5.7225  -5.7087  -5.7087  -5.6911  -5.6911  -5.6472
    -0.0908   0.0543   0.1181   0.1182   0.2333   0.2790   0.2791   0.3073
     0.3083   0.3493   0.3646   0.3646   0.4307   0.4543   0.4691   0.4794
     0.4794   0.5587   0.5587   0.6608   0.6684   0.6822   0.6989   0.6989
     6.2622   6.2952   6.2952   6.3327   6.5719   6.7729   6.7729   6.7887
     6.7887   6.8666   7.0137   7.0481   7.0620   7.0835   7.0835   7.1511
     7.2356   7.2892   7.4209   7.4209   7.5130   7.5435   7.5703   7.5704
     7.6711   7.6846   7.6846   7.7656   7.8616   7.8616   7.8687   7.8789
     7.8789   7.8964   7.9583   7.9900   8.0008   8.1883   8.1883   8.2286
     8.2598   8.2598   8.4483   8.5242   8.5769   8.5769   8.5939   8.7351
     9.2008   9.2008   9.2258   9.2778   9.3285   9.4071   9.4575   9.4575
     9.4808   9.4808   9.4915   9.5020   9.5956   9.5956   9.7063   9.7715
     9.7715   9.7774   9.8501   9.8518   9.9335   9.9335   9.9969  10.0136
    12.8915  13.0050  13.0050  13.0656  13.1702  13.3075  13.4710  13.5450
    13.5450  13.6215  13.6215  13.6432  13.7658  13.7658  13.8904  13.9878
    14.0292  14.0635  14.0635  14.0871  14.1923  14.1923  14.2673  14.2912
    15.0667  15.1146  15.1146  15.2535  15.7254  15.7715  16.1413  16.1413
    16.4202  16.4202  16.6267  16.6831  16.9506  17.0314  17.0778  17.4447

          k = 0.3750 0.3750 0.2473 ( 20731 PWs)   bands (ev):

   -46.1113 -46.1109 -46.1109 -46.1106 -46.1104 -46.1102 -46.1102 -46.1098
   -22.4373 -22.4361 -22.4361 -22.4350 -22.4038 -22.4029 -22.4029 -22.4021
   -22.3742 -22.3742 -22.3733 -22.3726 -22.3723 -22.3723 -22.3715 -22.3710
   -22.3541 -22.3534 -22.3528 -22.3528 -22.3524 -22.3518 -22.3513 -22.3513
   -14.3753 -14.3358 -14.3358 -14.3122 -14.3019 -14.2813 -14.2813 -14.2527
    -6.5092  -6.5092  -6.5008  -6.4058  -6.3975  -6.2290  -6.2290  -6.0540
    -5.8522  -5.8340  -5.8340  -5.8164  -5.8132  -5.8132  -5.7866  -5.7820
    -5.7493  -5.7390  -5.7306  -5.7147  -5.7147  -5.6955  -5.6955  -5.6613
    -0.0449   0.0390   0.1494   0.1494   0.2448   0.2448   0.2475   0.2596
     0.3306   0.3306   0.3363   0.3398   0.3738   0.3918   0.3941   0.3941
     0.4132   0.6321   0.6322   0.7173   0.7257   0.7316   0.7516   0.7517
     6.3828   6.4163   6.4163   6.4734   6.5516   6.7328   6.7328   6.8258
     6.8258   6.8785   7.0484   7.0586   7.0588   7.1394   7.1394   7.1414
     7.1662   7.3464   7.3464   7.3599   7.5288   7.6201   7.6201   7.6258
     7.6258   7.6543   7.6564   7.7395   7.7625   7.8931   7.8931   7.8986
     7.8987   7.8988   7.9476   7.9657   7.9835   8.0656   8.0656   8.2186
     8.2281   8.2281   8.3241   8.3391   8.4860   8.4860   8.5339   8.6334
     9.2554   9.3353   9.3353   9.3766   9.4192   9.4192   9.4217   9.4393
     9.4455   9.4455   9.5284   9.5506   9.6424   9.6424   9.6531   9.7369
     9.7369   9.7635   9.7870   9.8023   9.8969   9.8969   9.9798   9.9941
    13.0187  13.1319  13.1319  13.1459  13.2000  13.2899  13.5656  13.5902
    13.5902  13.6459  13.6459  13.6986  13.7443  13.7443  13.8542  13.8997
    13.9150  13.9396  13.9396  14.0584  14.0907  14.0907  14.1694  14.1946
    15.3693  15.4006  15.4006  15.5758  15.7333  15.7672  16.1366  16.1366
    16.4458  16.4458  16.7914  16.7935  16.8563  16.9769  17.0707  17.2138

          k = 0.3750 0.3750 0.3709 ( 20724 PWs)   bands (ev):

   -46.1111 -46.1108 -46.1107 -46.1107 -46.1104 -46.1104 -46.1103 -46.1100
   -22.4297 -22.4285 -22.4285 -22.4275 -22.4115 -22.4106 -22.4106 -22.4096
   -22.3737 -22.3737 -22.3728 -22.3727 -22.3727 -22.3723 -22.3719 -22.3714
   -22.3537 -22.3530 -22.3528 -22.3525 -22.3525 -22.3522 -22.3516 -22.3516
   -14.3610 -14.3268 -14.3234 -14.3234 -14.2940 -14.2939 -14.2907 -14.2641
    -6.4579  -6.4406  -6.4406  -6.3999  -6.3288  -6.2857  -6.2857  -6.1392
    -5.8657  -5.8485  -5.8351  -5.8351  -5.8172  -5.8172  -5.7729  -5.7704
    -5.7478  -5.7425  -5.7296  -5.7174  -5.7174  -5.7037  -5.7037  -5.6820
     0.0241   0.0588   0.1889   0.1960   0.1960   0.2173   0.2307   0.2307
     0.2685   0.2821   0.2821   0.3165   0.3205   0.3205   0.3349   0.3449
     0.5294   0.6989   0.7047   0.7047   0.7727   0.7727   0.7744   0.7774
     6.4830   6.5323   6.5353   6.5353   6.6596   6.6766   6.6766   6.9449
     6.9449   6.9857   7.0035   7.0493   7.0549   7.1706   7.1832   7.2332
     7.2332   7.2402   7.2402   7.4443   7.5444   7.5444   7.5561   7.5649
     7.6265   7.6851   7.6851   7.7043   7.8183   7.8425   7.8425   7.9009
     7.9053   7.9370   7.9370   7.9391   7.9935   7.9935   8.0282   8.0772
     8.1548   8.1926   8.1927   8.1979   8.3227   8.3227   8.4699   8.4936
     9.3719   9.4039   9.4039   9.4084   9.4084   9.4562   9.4755   9.5415
     9.5434   9.5434   9.5837   9.5978   9.6326   9.6635   9.6635   9.6775
     9.7023   9.7023   9.7278   9.7317   9.8256   9.8257   9.9602   9.9709
    13.1594  13.2617  13.2813  13.2873  13.3150  13.3150  13.6510  13.6510
    13.6661  13.6934  13.6934  13.7011  13.7011  13.7028  13.7081  13.7780
    13.7780  13.7876  13.9523  13.9523  13.9526  13.9979  14.0388  14.0727
    15.7430  15.7494  15.7494  15.7607  15.7756  16.0195  16.1079  16.1079
    16.5207  16.5207  16.5722  16.9129  17.0066  17.0066  17.0084  17.0574

          k = 0.3750 0.3750-0.4946 ( 20722 PWs)   bands (ev):

   -46.1110 -46.1109 -46.1105 -46.1105 -46.1105 -46.1105 -46.1101 -46.1101
   -22.4206 -22.4206 -22.4196 -22.4196 -22.4196 -22.4196 -22.4186 -22.4185
   -22.3732 -22.3732 -22.3732 -22.3732 -22.3723 -22.3723 -22.3718 -22.3718
   -22.3533 -22.3533 -22.3526 -22.3526 -22.3520 -22.3520 -22.3520 -22.3520
   -14.3440 -14.3440 -14.3088 -14.3087 -14.3087 -14.3087 -14.2775 -14.2774
    -6.4202  -6.4201  -6.3611  -6.3611  -6.3610  -6.3610  -6.2356  -6.2355
    -5.8670  -5.8669  -5.8269  -5.8269  -5.8268  -5.8268  -5.7596  -5.7595
    -5.7566  -5.7564  -5.7128  -5.7128  -5.7127  -5.7127  -5.7061  -5.7059
     0.1061   0.1062   0.1197   0.1197   0.2400   0.2400   0.2400   0.2400
     0.2585   0.2586   0.2586   0.2586   0.2927   0.2928   0.3246   0.3246
     0.6314   0.6315   0.7556   0.7557   0.7557   0.7557   0.7930   0.7930
     6.5174   6.5175   6.6135   6.6135   6.6136   6.6136   6.8415   6.8415
     7.0515   7.0516   7.1085   7.1085   7.1085   7.1086   7.1384   7.1385
     7.3567   7.3568   7.3863   7.3863   7.3863   7.3863   7.5616   7.5617
     7.5912   7.5913   7.7557   7.7557   7.7557   7.7557   7.9182   7.9182
     7.9192   7.9193   7.9742   7.9743   7.9743   7.9743   8.0035   8.0035
     8.0978   8.0978   8.2065   8.2065   8.2065   8.2065   8.4384   8.4385
     9.4108   9.4108   9.4108   9.4108   9.4884   9.4885   9.5296   9.5296
     9.6242   9.6242   9.6527   9.6527   9.6540   9.6541   9.6596   9.6596
     9.6597   9.6597   9.7210   9.7210   9.7210   9.7210   9.9558   9.9560
    13.2233  13.2234  13.4629  13.4629  13.4864  13.4865  13.5231  13.5231
    13.5232  13.5232  13.6997  13.6997  13.6997  13.6997  13.8116  13.8116
    13.8116  13.8117  13.8608  13.8608  13.9048  13.9048  14.0005  14.0005
    15.7525  15.7525  16.0046  16.0046  16.0046  16.0046  16.1984  16.1986
    16.4927  16.4929  16.7124  16.7124  16.7125  16.7125  17.0366  17.0366

          k = 0.3750-0.5000 0.0000 ( 20746 PWs)   bands (ev):

   -46.1112 -46.1112 -46.1108 -46.1108 -46.1103 -46.1103 -46.1099 -46.1099
   -22.4435 -22.4435 -22.4424 -22.4424 -22.3964 -22.3964 -22.3957 -22.3957
   -22.3740 -22.3740 -22.3714 -22.3714 -22.3644 -22.3644 -22.3633 -22.3633
   -22.3618 -22.3618 -22.3610 -22.3610 -22.3535 -22.3535 -22.3514 -22.3514
   -14.3676 -14.3676 -14.3295 -14.3295 -14.2844 -14.2844 -14.2562 -14.2562
    -6.5512  -6.5512  -6.5177  -6.5177  -6.3004  -6.3004  -6.0831  -6.0831
    -5.8180  -5.8180  -5.8109  -5.8109  -5.7971  -5.7971  -5.7866  -5.7866
    -5.7638  -5.7638  -5.7291  -5.7291  -5.7024  -5.7024  -5.6647  -5.6647
    -0.0131  -0.0131   0.1547   0.1547   0.1856   0.1856   0.3412   0.3412
     0.3566   0.3566   0.3966   0.3966   0.3991   0.3991   0.5012   0.5013
     0.5658   0.5658   0.5868   0.5868   0.6292   0.6292   0.6469   0.6469
     6.2368   6.2368   6.2702   6.2702   6.7023   6.7023   6.8681   6.8681
     6.8933   6.8934   7.0415   7.0415   7.1209   7.1209   7.2344   7.2344
     7.2995   7.2996   7.3313   7.3313   7.4399   7.4399   7.5188   7.5188
     7.5463   7.5464   7.7884   7.7885   7.8736   7.8736   7.8901   7.8901
     7.9181   7.9181   7.9873   7.9873   8.1005   8.1005   8.1296   8.1296
     8.3716   8.3717   8.4199   8.4199   8.5328   8.5329   8.6169   8.6169
     9.2146   9.2146   9.2304   9.2304   9.3790   9.3791   9.4279   9.4279
     9.5002   9.5002   9.6157   9.6157   9.6350   9.6350   9.7290   9.7290
     9.7372   9.7372   9.8411   9.8411   9.9242   9.9242   9.9521   9.9521
    12.9233  12.9234  13.2134  13.2134  13.2581  13.2581  13.3781  13.3781
    13.5434  13.5434  13.5556  13.5556  13.7315  13.7315  13.9308  13.9308
    14.0769  14.0769  14.1356  14.1356  14.2009  14.2009  14.2743  14.2743
    14.9952  14.9952  15.0971  15.0971  15.9916  15.9916  16.1126  16.1126
    16.5906  16.5907  16.7539  16.7539  16.8726  16.8727  17.0959  17.0959

          k = 0.3750-0.5000 0.1236 ( 20754 PWs)   bands (ev):

   -46.1112 -46.1112 -46.1108 -46.1108 -46.1103 -46.1103 -46.1099 -46.1099
   -22.4417 -22.4417 -22.4406 -22.4406 -22.3983 -22.3983 -22.3975 -22.3975
   -22.3739 -22.3739 -22.3715 -22.3715 -22.3642 -22.3642 -22.3632 -22.3632
   -22.3619 -22.3619 -22.3611 -22.3611 -22.3535 -22.3535 -22.3515 -22.3515
   -14.3645 -14.3645 -14.3268 -14.3267 -14.2877 -14.2876 -14.2590 -14.2590
    -6.5370  -6.5370  -6.5008  -6.5008  -6.3021  -6.3021  -6.0968  -6.0967
    -5.8201  -5.8201  -5.8127  -5.8127  -5.8066  -5.8066  -5.7844  -5.7844
    -5.7642  -5.7642  -5.7309  -5.7309  -5.7050  -5.7050  -5.6683  -5.6683
     0.0005   0.0005   0.1626   0.1626   0.1641   0.1641   0.3269   0.3269
     0.3491   0.3491   0.3659   0.3659   0.4437   0.4437   0.4525   0.4525
     0.4788   0.4788   0.6252   0.6252   0.6911   0.6911   0.6944   0.6944
     6.2868   6.2869   6.3205   6.3206   6.6886   6.6886   6.8592   6.8592
     6.8999   6.8999   7.0167   7.0167   7.1332   7.1332   7.2253   7.2253
     7.3189   7.3189   7.3600   7.3600   7.4269   7.4269   7.5348   7.5349
     7.5432   7.5432   7.7983   7.7983   7.8022   7.8022   7.8921   7.8921
     7.9243   7.9243   8.0347   8.0347   8.0813   8.0813   8.0999   8.0999
     8.3123   8.3124   8.3981   8.3982   8.4973   8.4973   8.5962   8.5962
     9.2651   9.2651   9.2680   9.2680   9.3621   9.3622   9.4203   9.4203
     9.5316   9.5316   9.5857   9.5857   9.6229   9.6229   9.7377   9.7377
     9.7378   9.7378   9.8249   9.8249   9.9136   9.9136   9.9413   9.9413
    12.9689  12.9689  13.2518  13.2519  13.2790  13.2790  13.3867  13.3867
    13.5367  13.5368  13.5739  13.5739  13.7400  13.7400  13.9223  13.9223
    14.0305  14.0305  14.0930  14.0930  14.1598  14.1598  14.2377  14.2377
    15.1073  15.1073  15.2140  15.2140  15.9940  15.9941  16.1144  16.1144
    16.5949  16.5949  16.7532  16.7532  16.9209  16.9210  17.1225  17.2105

          k = 0.3750-0.5000 0.2473 ( 20730 PWs)   bands (ev):

   -46.1111 -46.1111 -46.1107 -46.1107 -46.1104 -46.1104 -46.1100 -46.1100
   -22.4367 -22.4367 -22.4356 -22.4356 -22.4033 -22.4033 -22.4025 -22.4025
   -22.3736 -22.3736 -22.3717 -22.3717 -22.3639 -22.3639 -22.3629 -22.3629
   -22.3623 -22.3623 -22.3613 -22.3613 -22.3532 -22.3532 -22.3517 -22.3517
   -14.3557 -14.3556 -14.3189 -14.3189 -14.2968 -14.2968 -14.2671 -14.2671
    -6.4973  -6.4973  -6.4526  -6.4526  -6.3110  -6.3110  -6.1391  -6.1391
    -5.8285  -5.8285  -5.8282  -5.8282  -5.8133  -5.8133  -5.7808  -5.7808
    -5.7619  -5.7619  -5.7332  -5.7332  -5.7128  -5.7128  -5.6789  -5.6789
     0.0391   0.0391   0.1375   0.1375   0.1851   0.1851   0.2857   0.2857
     0.3168   0.3168   0.3280   0.3280   0.3646   0.3646   0.3763   0.3763
     0.5363   0.5363   0.6958   0.6958   0.7462   0.7462   0.7533   0.7533
     6.4092   6.4092   6.4518   6.4518   6.6533   6.6533   6.8701   6.8701
     6.9408   6.9408   6.9466   6.9466   7.1571   7.1571   7.2005   7.2005
     7.3617   7.3617   7.4071   7.4071   7.4379   7.4380   7.4962   7.4962
     7.6202   7.6202   7.6862   7.6862   7.8102   7.8103   7.8999   7.8999
     7.9445   7.9445   8.0319   8.0319   8.0341   8.0341   8.0703   8.0703
     8.1899   8.1899   8.3417   8.3417   8.3539   8.3539   8.4915   8.4915
     9.3378   9.3378   9.3764   9.3764   9.3995   9.3995   9.4277   9.4277
     9.5487   9.5488   9.5851   9.5851   9.6000   9.6000   9.7344   9.7344
     9.7437   9.7437   9.7825   9.7825   9.8859   9.8859   9.9082   9.9083
    13.0946  13.0946  13.3416  13.3417  13.3583  13.3583  13.4132  13.4132
    13.5172  13.5172  13.6285  13.6285  13.7646  13.7646  13.8967  13.8967
    13.9023  13.9023  13.9746  13.9746  14.0483  14.0483  14.1379  14.1379
    15.4021  15.4021  15.5283  15.5283  15.9988  15.9988  16.1245  16.1245
    16.6008  16.6008  16.7518  16.7518  17.0339  17.0339  17.0604  17.0607

          k = 0.3750-0.5000 0.3709 ( 20744 PWs)   bands (ev):

   -46.1109 -46.1109 -46.1106 -46.1106 -46.1105 -46.1105 -46.1102 -46.1102
   -22.4291 -22.4291 -22.4280 -22.4280 -22.4111 -22.4111 -22.4101 -22.4101
   -22.3731 -22.3731 -22.3722 -22.3722 -22.3636 -22.3636 -22.3627 -22.3627
   -22.3625 -22.3625 -22.3617 -22.3617 -22.3529 -22.3529 -22.3521 -22.3521
   -14.3423 -14.3423 -14.3105 -14.3105 -14.3071 -14.3071 -14.2791 -14.2791
    -6.4410  -6.4410  -6.3799  -6.3798  -6.3362  -6.3362  -6.2083  -6.2083
    -5.8474  -5.8474  -5.8416  -5.8416  -5.8072  -5.8072  -5.7839  -5.7839
    -5.7532  -5.7532  -5.7279  -5.7279  -5.7252  -5.7252  -5.6949  -5.6949
     0.0959   0.0959   0.1404   0.1404   0.2187   0.2187   0.2240   0.2240
     0.2645   0.2645   0.2854   0.2855   0.2966   0.2966   0.3152   0.3152
     0.6337   0.6337   0.7521   0.7521   0.7575   0.7575   0.7907   0.7907
     6.5182   6.5182   6.6055   6.6055   6.6108   6.6108   6.8466   6.8466
     6.9727   6.9727   7.0608   7.0608   7.1661   7.1661   7.1919   7.1919
     7.3727   7.3727   7.4122   7.4123   7.4151   7.4151   7.5445   7.5445
     7.5704   7.5704   7.7457   7.7457   7.7719   7.7719   7.9148   7.9148
     7.9631   7.9631   7.9811   7.9811   7.9837   7.9837   8.0511   8.0511
     8.0772   8.0772   8.1368   8.1368   8.2747   8.2747   8.3237   8.3237
     9.4130   9.4130   9.4560   9.4560   9.4639   9.4639   9.5286   9.5286
     9.5669   9.5669   9.5761   9.5761   9.6285   9.6285   9.7160   9.7160
     9.7234   9.7234   9.7297   9.7297   9.8530   9.8531   9.8602   9.8602
    13.2716  13.2716  13.4277  13.4277  13.4794  13.4794  13.4847  13.4847
    13.5125  13.5125  13.7171  13.7171  13.7210  13.7210  13.8039  13.8039
    13.8063  13.8063  13.8415  13.8415  13.9054  13.9054  14.0015  14.0015
    15.7625  15.7625  15.9525  15.9525  15.9976  15.9976  16.1757  16.1757
    16.5751  16.5751  16.7503  16.7504  16.7542  16.7543  16.9777  16.9777

          k = 0.3750-0.5000-0.4946 ( 20728 PWs)   bands (ev):

   -46.1107 -46.1107 -46.1107 -46.1107 -46.1103 -46.1103 -46.1103 -46.1103
   -22.4201 -22.4201 -22.4201 -22.4201 -22.4190 -22.4190 -22.4190 -22.4190
   -22.3726 -22.3726 -22.3726 -22.3726 -22.3631 -22.3631 -22.3631 -22.3631
   -22.3621 -22.3621 -22.3621 -22.3621 -22.3525 -22.3525 -22.3525 -22.3525
   -14.3265 -14.3265 -14.3264 -14.3264 -14.2932 -14.2932 -14.2931 -14.2931
    -6.3822  -6.3822  -6.3821  -6.3821  -6.2937  -6.2937  -6.2936  -6.2936
    -5.8514  -5.8514  -5.8513  -5.8513  -5.7953  -5.7953  -5.7952  -5.7952
    -5.7398  -5.7398  -5.7397  -5.7396  -5.7130  -5.7130  -5.7129  -5.7129
     0.1581   0.1581   0.1581   0.1581   0.1860   0.1860   0.1860   0.1861
     0.2583   0.2583   0.2583   0.2583   0.2836   0.2836   0.2836   0.2837
     0.7114   0.7114   0.7114   0.7114   0.7920   0.7920   0.7920   0.7920
     6.5713   6.5713   6.5714   6.5714   6.7342   6.7342   6.7342   6.7342
     7.1080   7.1080   7.1080   7.1080   7.2538   7.2538   7.2539   7.2539
     7.2766   7.2766   7.2766   7.2767   7.4756   7.4756   7.4756   7.4756
     7.6661   7.6661   7.6661   7.6661   7.8997   7.8998   7.8998   7.8998
     7.9212   7.9213   7.9213   7.9213   8.0011   8.0011   8.0011   8.0011
     8.0422   8.0422   8.0422   8.0423   8.2398   8.2398   8.2398   8.2398
     9.4803   9.4803   9.4804   9.4804   9.5034   9.5034   9.5034   9.5034
     9.6367   9.6367   9.6368   9.6368   9.6515   9.6515   9.6516   9.6516
     9.6945   9.6945   9.6946   9.6946   9.8358   9.8358   9.8359   9.8359
    13.4272  13.4272  13.4272  13.4273  13.5304  13.5304  13.5305  13.5305
    13.6265  13.6265  13.6266  13.6266  13.6894  13.6895  13.6895  13.6895
    13.8191  13.8191  13.8191  13.8191  13.8713  13.8713  13.8714  13.8714
    15.9623  15.9623  15.9623  15.9623  16.3676  16.3676  16.3677  16.3678
    16.4062  16.4062  16.4063  16.4063  16.7889  16.7889  16.7889  16.7889

          k =-0.5000-0.5000 0.0000 ( 20768 PWs)   bands (ev):

   -46.1110 -46.1110 -46.1110 -46.1110 -46.1101 -46.1101 -46.1101 -46.1101
   -22.4429 -22.4429 -22.4429 -22.4429 -22.3961 -22.3961 -22.3961 -22.3961
   -22.3644 -22.3644 -22.3644 -22.3644 -22.3634 -22.3634 -22.3634 -22.3634
   -22.3616 -22.3616 -22.3616 -22.3616 -22.3611 -22.3611 -22.3611 -22.3611
   -14.3487 -14.3486 -14.3486 -14.3486 -14.2704 -14.2703 -14.2703 -14.2703
    -6.5273  -6.5273  -6.5273  -6.5273  -6.1952  -6.1952  -6.1952  -6.1952
    -5.8035  -5.8035  -5.8035  -5.8035  -5.7800  -5.7800  -5.7800  -5.7800
    -5.7774  -5.7774  -5.7774  -5.7773  -5.6815  -5.6815  -5.6815  -5.6815
     0.0562   0.0562   0.0562   0.0562   0.2895   0.2895   0.2895   0.2895
     0.3392   0.3392   0.3393   0.3393   0.5052   0.5052   0.5052   0.5052
     0.5345   0.5345   0.5345   0.5345   0.6468   0.6468   0.6468   0.6468
     6.2611   6.2611   6.2611   6.2611   6.8947   6.8947   6.8947   6.8948
     6.9122   6.9122   6.9122   6.9122   7.3044   7.3044   7.3044   7.3044
     7.3174   7.3174   7.3174   7.3174   7.3709   7.3709   7.3709   7.3709
     7.6969   7.6969   7.6969   7.6970   7.8500   7.8500   7.8500   7.8500
     7.9080   7.9080   7.9080   7.9080   8.2225   8.2225   8.2225   8.2225
     8.2432   8.2432   8.2432   8.2432   8.5222   8.5222   8.5222   8.5222
     9.2572   9.2572   9.2572   9.2572   9.4846   9.4846   9.4846   9.4846
     9.5189   9.5189   9.5189   9.5189   9.6892   9.6892   9.6892   9.6892
     9.7777   9.7777   9.7777   9.7777   9.8996   9.8997   9.8997   9.8997
    13.1252  13.1252  13.1252  13.1252  13.3445  13.3445  13.3445  13.3445
    13.5401  13.5401  13.5401  13.5401  13.7347  13.7348  13.7348  13.7348
    14.1491  14.1491  14.1491  14.1491  14.1841  14.1842  14.1842  14.1842
    15.0700  15.0700  15.0700  15.0700  16.3635  16.3635  16.3635  16.3635
    16.4449  16.4449  16.4449  16.4449  17.1350  17.1350  17.1351  17.3300

          k =-0.5000-0.5000 0.1236 ( 20720 PWs)   bands (ev):

   -46.1110 -46.1110 -46.1110 -46.1110 -46.1101 -46.1101 -46.1101 -46.1101
   -22.4411 -22.4411 -22.4411 -22.4411 -22.3978 -22.3978 -22.3978 -22.3978
   -22.3641 -22.3641 -22.3641 -22.3641 -22.3633 -22.3633 -22.3633 -22.3633
   -22.3618 -22.3618 -22.3618 -22.3618 -22.3612 -22.3612 -22.3612 -22.3612
   -14.3458 -14.3457 -14.3457 -14.3457 -14.2734 -14.2734 -14.2734 -14.2734
    -6.5118  -6.5118  -6.5118  -6.5118  -6.2011  -6.2011  -6.2011  -6.2011
    -5.8101  -5.8101  -5.8101  -5.8101  -5.7820  -5.7820  -5.7820  -5.7819
    -5.7764  -5.7763  -5.7763  -5.7763  -5.6854  -5.6854  -5.6854  -5.6854
     0.0670   0.0670   0.0671   0.0671   0.2629   0.2630   0.2630   0.2630
     0.3285   0.3285   0.3286   0.3286   0.4659   0.4660   0.4660   0.4660
     0.5476   0.5476   0.5476   0.5476   0.7023   0.7023   0.7023   0.7023
     6.3115   6.3115   6.3115   6.3115   6.8721   6.8721   6.8721   6.8722
     6.9057   6.9057   6.9057   6.9057   7.3059   7.3059   7.3059   7.3059
     7.3639   7.3639   7.3639   7.3640   7.3678   7.3678   7.3678   7.3678
     7.6404   7.6404   7.6404   7.6404   7.8882   7.8882   7.8882   7.8882
     7.9115   7.9115   7.9115   7.9115   8.1983   8.1983   8.1983   8.1983
     8.2103   8.2104   8.2104   8.2104   8.4853   8.4853   8.4853   8.4853
     9.3024   9.3024   9.3024   9.3024   9.4595   9.4595   9.4595   9.4596
     9.5277   9.5277   9.5277   9.5277   9.6886   9.6886   9.6886   9.6886
     9.7795   9.7795   9.7795   9.7795   9.8863   9.8863   9.8863   9.8863
    13.1662  13.1662  13.1662  13.1662  13.3646  13.3646  13.3646  13.3646
    13.5489  13.5489  13.5489  13.5489  13.7270  13.7270  13.7270  13.7270
    14.1060  14.1060  14.1060  14.1060  14.1433  14.1433  14.1433  14.1433
    15.1867  15.1867  15.1867  15.1867  16.3685  16.3685  16.3685  16.3685
    16.4431  16.4431  16.4431  16.4431  17.1796  17.1796  17.2713  17.2714

          k =-0.5000-0.5000 0.2473 ( 20776 PWs)   bands (ev):

   -46.1109 -46.1109 -46.1109 -46.1109 -46.1102 -46.1102 -46.1102 -46.1102
   -22.4362 -22.4362 -22.4362 -22.4362 -22.4030 -22.4030 -22.4030 -22.4030
   -22.3639 -22.3639 -22.3639 -22.3639 -22.3630 -22.3630 -22.3630 -22.3630
   -22.3620 -22.3620 -22.3620 -22.3620 -22.3615 -22.3615 -22.3615 -22.3615
   -14.3374 -14.3374 -14.3373 -14.3373 -14.2820 -14.2820 -14.2820 -14.2820
    -6.4678  -6.4677  -6.4677  -6.4677  -6.2227  -6.2227  -6.2227  -6.2227
    -5.8237  -5.8237  -5.8237  -5.8237  -5.7946  -5.7945  -5.7945  -5.7945
    -5.7660  -5.7660  -5.7660  -5.7660  -5.6964  -5.6964  -5.6964  -5.6964
     0.0979   0.0979   0.0979   0.0979   0.2238   0.2238   0.2239   0.2239
     0.2980   0.2980   0.2981   0.2981   0.3660   0.3660   0.3660   0.3660
     0.6317   0.6317   0.6317   0.6317   0.7641   0.7641   0.7641   0.7641
     6.4385   6.4385   6.4385   6.4385   6.8116   6.8116   6.8116   6.8116
     6.9232   6.9232   6.9232   6.9232   7.3106   7.3106   7.3106   7.3106
     7.3590   7.3591   7.3591   7.3591   7.4816   7.4816   7.4816   7.4817
     7.5485   7.5485   7.5485   7.5485   7.9232   7.9232   7.9232   7.9233
     7.9236   7.9236   7.9236   7.9236   8.1349   8.1349   8.1349   8.1349
     8.1352   8.1352   8.1352   8.1352   8.3451   8.3451   8.3451   8.3451
     9.4080   9.4080   9.4080   9.4081   9.4436   9.4436   9.4436   9.4436
     9.5518   9.5518   9.5518   9.5518   9.6790   9.6790   9.6790   9.6790
     9.7805   9.7805   9.7805   9.7805   9.8503   9.8503   9.8503   9.8503
    13.2792  13.2792  13.2792  13.2792  13.4255  13.4255  13.4255  13.4256
    13.5745  13.5745  13.5745  13.5745  13.7040  13.7040  13.7040  13.7040
    13.9894  13.9894  13.9894  13.9894  14.0290  14.0290  14.0290  14.0290
    15.5009  15.5009  15.5009  15.5009  16.3815  16.3816  16.3816  16.3816
    16.4374  16.4374  16.4374  16.4374  17.0896  17.0896  17.0896  17.0896

          k =-0.5000-0.5000 0.3709 ( 20720 PWs)   bands (ev):

   -46.1107 -46.1107 -46.1107 -46.1107 -46.1104 -46.1104 -46.1104 -46.1104
   -22.4285 -22.4285 -22.4285 -22.4285 -22.4106 -22.4106 -22.4106 -22.4106
   -22.3635 -22.3635 -22.3635 -22.3635 -22.3627 -22.3627 -22.3627 -22.3627
   -22.3624 -22.3624 -22.3624 -22.3624 -22.3618 -22.3618 -22.3618 -22.3618
   -14.3248 -14.3248 -14.3248 -14.3248 -14.2949 -14.2948 -14.2948 -14.2948
    -6.4032  -6.4032  -6.4032  -6.4032  -6.2665  -6.2664  -6.2664  -6.2664
    -5.8314  -5.8314  -5.8314  -5.8314  -5.8114  -5.8114  -5.8114  -5.8114
    -5.7503  -5.7503  -5.7503  -5.7503  -5.7127  -5.7126  -5.7126  -5.7126
     0.1440   0.1440   0.1440   0.1440   0.2081   0.2081   0.2082   0.2082
     0.2523   0.2523   0.2523   0.2524   0.2817   0.2817   0.2817   0.2817
     0.7135   0.7135   0.7135   0.7136   0.7891   0.7891   0.7891   0.7891
     6.5686   6.5686   6.5686   6.5686   6.7338   6.7338   6.7338   6.7338
     7.0367   7.0367   7.0367   7.0367   7.3194   7.3194   7.3194   7.3194
     7.3461   7.3462   7.3462   7.3462   7.4286   7.4286   7.4286   7.4286
     7.6442   7.6442   7.6442   7.6442   7.9412   7.9412   7.9412   7.9413
     7.9485   7.9485   7.9485   7.9486   8.0548   8.0548   8.0548   8.0548
     8.0553   8.0553   8.0553   8.0553   8.1047   8.1047   8.1047   8.1047
     9.4950   9.4950   9.4950   9.4950   9.5182   9.5182   9.5182   9.5182
     9.5811   9.5811   9.5811   9.5811   9.6445   9.6445   9.6445   9.6445
     9.7742   9.7742   9.7742   9.7742   9.8046   9.8046   9.8046   9.8046
    13.4400  13.4400  13.4400  13.4400  13.5281  13.5281  13.5281  13.5281
    13.6165  13.6165  13.6165  13.6165  13.6655  13.6656  13.6656  13.6656
    13.8314  13.8314  13.8314  13.8315  13.8645  13.8645  13.8645  13.8645
    15.9293  15.9294  15.9294  15.9294  16.3981  16.3981  16.3981  16.3982
    16.4277  16.4278  16.4278  16.4278  16.7859  16.7859  16.7859  16.7859

          k =-0.5000-0.5000-0.4946 ( 20704 PWs)   bands (ev):

   -46.1105 -46.1105 -46.1105 -46.1105 -46.1105 -46.1105 -46.1105 -46.1105
   -22.4195 -22.4195 -22.4195 -22.4195 -22.4195 -22.4195 -22.4195 -22.4195
   -22.3630 -22.3630 -22.3630 -22.3630 -22.3629 -22.3629 -22.3629 -22.3629
   -22.3622 -22.3622 -22.3622 -22.3622 -22.3622 -22.3622 -22.3622 -22.3622
   -14.3099 -14.3099 -14.3099 -14.3099 -14.3099 -14.3098 -14.3098 -14.3098
    -6.3309  -6.3309  -6.3309  -6.3308  -6.3307  -6.3307  -6.3307  -6.3307
    -5.8262  -5.8262  -5.8262  -5.8262  -5.8261  -5.8261  -5.8261  -5.8261
    -5.7317  -5.7317  -5.7317  -5.7317  -5.7316  -5.7315  -5.7315  -5.7315
     0.1982   0.1982   0.1982   0.1982   0.1983   0.1983   0.1983   0.1983
     0.2270   0.2270   0.2271   0.2271   0.2271   0.2271   0.2271   0.2271
     0.7706   0.7706   0.7706   0.7706   0.7706   0.7706   0.7706   0.7706
     6.6567   6.6567   6.6567   6.6567   6.6567   6.6567   6.6567   6.6567
     7.2423   7.2423   7.2423   7.2423   7.2424   7.2425   7.2425   7.2425
     7.3318   7.3319   7.3319   7.3319   7.3319   7.3320   7.3320   7.3320
     7.8484   7.8484   7.8484   7.8484   7.8484   7.8484   7.8484   7.8485
     7.9858   7.9858   7.9858   7.9859   7.9859   7.9859   7.9859   7.9859
     7.9914   7.9914   7.9914   7.9914   7.9915   7.9915   7.9915   7.9915
     9.5776   9.5776   9.5776   9.5776   9.5776   9.5776   9.5776   9.5776
     9.5828   9.5828   9.5828   9.5829   9.5829   9.5829   9.5829   9.5829
     9.7734   9.7734   9.7734   9.7734   9.7735   9.7735   9.7736   9.7736
    13.5948  13.5948  13.5948  13.5948  13.5949  13.5949  13.5949  13.5949
    13.6682  13.6682  13.6682  13.6682  13.6683  13.6683  13.6683  13.6683
    13.6982  13.6982  13.6982  13.6982  13.6982  13.6982  13.6982  13.6982
    16.3824  16.3824  16.3824  16.3824  16.3825  16.3826  16.3826  16.3826
    16.4143  16.4143  16.4143  16.4143  16.4143  16.4143  16.4143  16.4143

     highest occupied, lowest unoccupied level (ev):    10.4089   12.2321

!    total energy              =   -5964.58031325 Ry
     total all-electron energy =   -147449.033886 Ry
     estimated scf accuracy    <          5.9E-11 Ry

     The total energy is the sum of the following terms:
     one-electron contribution =    -550.39667361 Ry
     hartree contribution      =     483.83912861 Ry
     xc contribution           =    -491.50764576 Ry
     ewald contribution        =   -1653.96634398 Ry
     one-center paw contrib.   =   -3752.54877851 Ry

     convergence has been achieved in   5 iterations

     Forces acting on atoms (cartesian axes, Ry/au):

     atom    1 type  1   force =     0.00000000    0.00000000   -0.00097216
     atom    2 type  1   force =     0.00000000    0.00000000   -0.00094059
     atom    3 type  1   force =     0.00000000    0.00000000   -0.00096044
     atom    4 type  1   force =     0.00000000    0.00000000   -0.00094720
     atom    5 type  1   force =     0.00000000    0.00000000   -0.00096044
     atom    6 type  1   force =     0.00000000    0.00000000   -0.00094720
     atom    7 type  1   force =     0.00000000    0.00000000   -0.00097671
     atom    8 type  1   force =     0.00000000    0.00000000   -0.00093893
     atom    9 type  2   force =    -0.00000081   -0.00000081    0.00034335
     atom   10 type  2   force =    -0.00000142   -0.00000142    0.00035221
     atom   11 type  2   force =    -0.00000081    0.00000081    0.00034335
     atom   12 type  2   force =    -0.00000142    0.00000142    0.00035221
     atom   13 type  2   force =     0.00000081   -0.00000081    0.00034335
     atom   14 type  2   force =     0.00000142   -0.00000142    0.00035221
     atom   15 type  2   force =     0.00000081    0.00000081    0.00034335
     atom   16 type  2   force =     0.00000142    0.00000142    0.00035221
     atom   17 type  3   force =    -0.00000146   -0.00000146   -0.00021512
     atom   18 type  3   force =    -0.00000240   -0.00000240   -0.00020614
     atom   19 type  3   force =    -0.00000146    0.00000146   -0.00021512
     atom   20 type  3   force =    -0.00000240    0.00000240   -0.00020614
     atom   21 type  3   force =     0.00000146   -0.00000146   -0.00021512
     atom   22 type  3   force =     0.00000240   -0.00000240   -0.00020614
     atom   23 type  3   force =     0.00000146    0.00000146   -0.00021512
     atom   24 type  3   force =     0.00000240    0.00000240   -0.00020614
     atom   25 type  3   force =    -0.00000192    0.00000000    0.00040335
     atom   26 type  3   force =    -0.00000559    0.00000000    0.00040800
     atom   27 type  3   force =     0.00000075    0.00000000    0.00040790
     atom   28 type  3   force =     0.00000307    0.00000000    0.00041736
     atom   29 type  3   force =     0.00000192    0.00000000    0.00040335
     atom   30 type  3   force =     0.00000559    0.00000000    0.00040800
     atom   31 type  3   force =    -0.00000075    0.00000000    0.00040790
     atom   32 type  3   force =    -0.00000307    0.00000000    0.00041736
     atom   33 type  3   force =     0.00000000   -0.00000192    0.00040335
     atom   34 type  3   force =     0.00000000   -0.00000559    0.00040800
     atom   35 type  3   force =     0.00000000    0.00000192    0.00040335
     atom   36 type  3   force =     0.00000000    0.00000559    0.00040800
     atom   37 type  3   force =    -0.00000000    0.00000075    0.00040790
     atom   38 type  3   force =     0.00000000    0.00000307    0.00041736
     atom   39 type  3   force =     0.00000000   -0.00000075    0.00040790
     atom   40 type  3   force =     0.00000000   -0.00000307    0.00041736

     Total force =     0.003363     Total SCF correction =     0.000002


     Computing stress (Cartesian axis) and pressure

          total   stress  (Ry/bohr**3)                   (kbar)     P=       40.25
   0.00024320   0.00000000   0.00000000           35.78        0.00        0.00
   0.00000000   0.00024320   0.00000000            0.00       35.78        0.00
   0.00000000   0.00000000   0.00033441            0.00        0.00       49.19


     Writing all to output data dir ./tmp/50_ecut_8_kmesh_PBE.save/ :
     XML data file, charge density, pseudopotentials, collected wavefunctions

     init_run     :      2.08s CPU      4.67s WALL (       1 calls)
     electrons    :     25.38s CPU     26.12s WALL (       1 calls)
     forces       :      0.78s CPU      0.84s WALL (       1 calls)
     stress       :      2.22s CPU      2.33s WALL (       1 calls)

     Called by init_run:
     wfcinit      :      0.83s CPU      3.25s WALL (       1 calls)
     potinit      :      0.53s CPU      0.58s WALL (       1 calls)
     hinit0       :      0.40s CPU      0.49s WALL (       1 calls)

     Called by electrons:
     c_bands      :     22.35s CPU     22.91s WALL (       6 calls)
     sum_band     :      2.35s CPU      2.44s WALL (       6 calls)
     v_of_rho     :      0.10s CPU      0.14s WALL (       6 calls)
     newd         :      0.07s CPU      0.09s WALL (       6 calls)
     PAW_pot      :      0.25s CPU      0.26s WALL (       6 calls)
     mix_rho      :      0.00s CPU      0.01s WALL (       6 calls)

     Called by c_bands:
     init_us_2    :      0.42s CPU      0.43s WALL (     140 calls)
     cegterg      :     20.38s CPU     20.90s WALL (      60 calls)

     Called by *egterg:
     cdiaghg      :      3.93s CPU      4.11s WALL (     237 calls)
     h_psi        :      9.92s CPU     10.17s WALL (     257 calls)
     s_psi        :      1.46s CPU      1.48s WALL (     257 calls)
     g_psi        :      0.02s CPU      0.02s WALL (     197 calls)

     Called by h_psi:
     h_psi:calbec :      1.94s CPU      2.08s WALL (     257 calls)
     vloc_psi     :      6.44s CPU      6.54s WALL (     257 calls)
                                        0.00s GPU  (     257 calls)
     add_vuspsi   :      1.47s CPU      1.48s WALL (     257 calls)

     General routines
     calbec       :      4.79s CPU      5.10s WALL (     487 calls)
     fft          :      0.42s CPU      0.49s WALL (     102 calls)
     ffts         :      0.44s CPU      0.45s WALL (      12 calls)
     fftw         :      7.34s CPU      7.47s WALL (   68940 calls)
     interpolate  :      0.45s CPU      0.45s WALL (       6 calls)

     Parallel routines

     PWSCF        :     32.05s CPU     37.22s WALL


   This run was terminated on:   0:14:24  21May2026            

=------------------------------------------------------------------------------=
   JOB DONE.
=------------------------------------------------------------------------------=
