
     Program PWSCF v.7.5 starts on 21May2026 at  0:14:50 

     This program is part of the open-source Quantum ESPRESSO suite
     for quantum simulation of materials; please cite
         "P. Giannozzi et al., J. Phys.:Condens. Matter 21 395502 (2009);
         "P. Giannozzi et al., J. Phys.:Condens. Matter 29 465901 (2017);
         "P. Giannozzi et al., J. Chem. Phys. 152 154105 (2020);
          URL http://www.quantum-espresso.org", 
     in publications or presentations arising from this work. More details at
     http://www.quantum-espresso.org/quote

     Parallel version (MPI & OpenMP), running on     192 processor cores
     Number of MPI processes:               192
     Threads/MPI process:                     1

     MPI processes distributed on     1 nodes
     391331 MiB available memory on the printing compute node when the environment starts

     Waiting for input...
     Reading input from standard input

     Current dimensions of program PWSCF are:
     Max number of different atomic species (ntypx) = 10
     Max number of k-points (npk) =  40000
     Max angular momentum in pseudopotentials (lmaxx) =  4
     file Ba.pbe-spn-kjpaw_psl.1.0.0.UPF: wavefunction(s)  5S 6S renormalized
     file Ti.pbe-spn-kjpaw_psl.1.0.0.UPF: wavefunction(s)  3S 3P 3D renormalized
     file O.pbe-n-kjpaw_psl.1.0.0.UPF: wavefunction(s)  2S 2P renormalized

     IMPORTANT: XC functional enforced from input :
     Exchange-correlation= PBE
                           (   1   4   3   4   0   0   0)
     Any further DFT definition will be discarded
     Please, verify this is what you really want

     Found identity + ( -0.5000 -0.5000  0.0000) symmetry
     This is a supercell, fractional translations are disabled

     K-points division:     npool     =       8
     R & G space division:  proc/nbgrp/npool/nimage =      24
     Subspace diagonalization in iterative solution of the eigenvalue problem:
     one sub-group per band group will be used
     ELPA distributed-memory algorithm (size of sub-group:  2*  2 procs)


     Parallelization info
     --------------------
     sticks:   dense  smooth     PW     G-vecs:    dense   smooth      PW
     Min         422     211     57                32375    11445    1619
     Max         424     212     58                32377    11448    1623
     Sum       10137    5065   1369               777019   274705   38907

     Using Slab Decomposition



     bravais-lattice index     =            6
     lattice parameter (alat)  =      15.0876  a.u.
     unit-cell volume          =    3472.3239 (a.u.)^3
     number of atoms/cell      =           40
     number of atomic types    =            3
     number of electrons       =       320.00
     number of Kohn-Sham states=          200
     kinetic-energy cutoff     =      70.0000  Ry
     charge density cutoff     =     560.0000  Ry
     scf convergence threshold =      1.0E-10
     mixing beta               =       0.3000
     number of iterations used =           16  plain     mixing
     Exchange-correlation= PBE
                           (   1   4   3   4   0   0   0)

     celldm(1)=  15.087600  celldm(2)=   0.000000  celldm(3)=   1.011020
     celldm(4)=   0.000000  celldm(5)=   0.000000  celldm(6)=   0.000000

     crystal axes: (cart. coord. in units of alat)
               a(1) = (   1.000000   0.000000   0.000000 )  
               a(2) = (   0.000000   1.000000   0.000000 )  
               a(3) = (   0.000000   0.000000   1.011020 )  

     reciprocal axes: (cart. coord. in units 2 pi/alat)
               b(1) = (  1.000000  0.000000  0.000000 )  
               b(2) = (  0.000000  1.000000  0.000000 )  
               b(3) = (  0.000000  0.000000  0.989100 )  


     PseudoPot. # 1 for Ba read from file:
     /home/kylay/scratch/BTO/pseuds/Ba.pbe-spn-kjpaw_psl.1.0.0.UPF
     MD5 check sum: 7cfe25f1fe7574a4710541d5a11d6531
     Pseudo is Projector augmented-wave + core cor, Zval = 10.0
     Generated using &quot;atomic&quot; code by A. Dal Corso  v.6.2.2
     Shape of augmentation charge: PSQ
     Using radial grid of 1251 points,  7 beta functions with: 
                l(1) =   0
                l(2) =   0
                l(3) =   0
                l(4) =   1
                l(5) =   1
                l(6) =   2
                l(7) =   2
     Q(r) pseudized with 0 coefficients 


     PseudoPot. # 2 for Ti read from file:
     /home/kylay/scratch/BTO/pseuds/Ti.pbe-spn-kjpaw_psl.1.0.0.UPF
     MD5 check sum: 01f69b0d8ba4438b2e03ac6ea4af1c0b
     Pseudo is Projector augmented-wave + core cor, Zval = 12.0
     Generated using &quot;atomic&quot; code by A. Dal Corso  v.6.2.2
     Shape of augmentation charge: PSQ
     Using radial grid of 1177 points,  6 beta functions with: 
                l(1) =   0
                l(2) =   0
                l(3) =   1
                l(4) =   1
                l(5) =   2
                l(6) =   2
     Q(r) pseudized with 0 coefficients 


     PseudoPot. # 3 for O  read from file:
     /home/kylay/scratch/BTO/pseuds/O.pbe-n-kjpaw_psl.1.0.0.UPF
     MD5 check sum: e99d9cef9b487d1ca56f5b95ecd0fd7a
     Pseudo is Projector augmented-wave + core cor, Zval =  6.0
     Generated using &quot;atomic&quot; code by A. Dal Corso  v.6.3
     Shape of augmentation charge: PSQ
     Using radial grid of 1095 points,  4 beta functions with: 
                l(1) =   0
                l(2) =   0
                l(3) =   1
                l(4) =   1
     Q(r) pseudized with 0 coefficients 


     atomic species   valence    mass     pseudopotential
     Ba               10.00   137.32700     Ba( 1.00)
     Ti               12.00    47.86700     Ti( 1.00)
     O                 6.00    15.99900     O ( 1.00)

      8 Sym. Ops. (no inversion) found



   Cartesian axes

     site n.     atom                  positions (alat units)
         1        Ba     tau(   1) = (   0.0000000   0.0000000  -0.0010787  )
         2        Ba     tau(   2) = (   0.0000000   0.0000000   0.5044220  )
         3        Ba     tau(   3) = (   0.0000000   0.5000000  -0.0010832  )
         4        Ba     tau(   4) = (   0.0000000   0.5000000   0.5044235  )
         5        Ba     tau(   5) = (   0.5000000   0.0000000  -0.0010832  )
         6        Ba     tau(   6) = (   0.5000000   0.0000000   0.5044235  )
         7        Ba     tau(   7) = (   0.5000000   0.5000000  -0.0010766  )
         8        Ba     tau(   8) = (   0.5000000   0.5000000   0.5044202  )
         9        Ti     tau(   9) = (   0.2500002   0.2500002   0.2436990  )
        10        Ti     tau(  10) = (   0.2500007   0.2500007   0.7492042  )
        11        Ti     tau(  11) = (   0.2500002   0.7499998   0.2436990  )
        12        Ti     tau(  12) = (   0.2500007   0.7499993   0.7492042  )
        13        Ti     tau(  13) = (   0.7499998   0.2500002   0.2436990  )
        14        Ti     tau(  14) = (   0.7499993   0.2500007   0.7492042  )
        15        Ti     tau(  15) = (   0.7499998   0.7499998   0.2436990  )
        16        Ti     tau(  16) = (   0.7499993   0.7499993   0.7492042  )
        17        O      tau(  17) = (   0.2500011   0.2500011   0.0113903  )
        18        O      tau(  18) = (   0.2500007   0.2500007   0.5168954  )
        19        O      tau(  19) = (   0.2500011   0.7499989   0.0113903  )
        20        O      tau(  20) = (   0.2500007   0.7499993   0.5168954  )
        21        O      tau(  21) = (   0.7499989   0.2500011   0.0113903  )
        22        O      tau(  22) = (   0.7499993   0.2500007   0.5168954  )
        23        O      tau(  23) = (   0.7499989   0.7499989   0.0113903  )
        24        O      tau(  24) = (   0.7499993   0.7499993   0.5168954  )
        25        O      tau(  25) = (   0.2500005   0.0000000   0.2592128  )
        26        O      tau(  26) = (   0.2500020   0.0000000   0.7647195  )
        27        O      tau(  27) = (   0.2499999   0.5000000   0.2592107  )
        28        O      tau(  28) = (   0.2499998   0.5000000   0.7647148  )
        29        O      tau(  29) = (   0.7499995   0.0000000   0.2592128  )
        30        O      tau(  30) = (   0.7499980   0.0000000   0.7647195  )
        31        O      tau(  31) = (   0.7500001   0.5000000   0.2592107  )
        32        O      tau(  32) = (   0.7500002   0.5000000   0.7647148  )
        33        O      tau(  33) = (   0.0000000   0.2500005   0.2592128  )
        34        O      tau(  34) = (   0.0000000   0.2500020   0.7647195  )
        35        O      tau(  35) = (   0.0000000   0.7499995   0.2592128  )
        36        O      tau(  36) = (   0.0000000   0.7499980   0.7647195  )
        37        O      tau(  37) = (   0.5000000   0.2499999   0.2592107  )
        38        O      tau(  38) = (   0.5000000   0.2499998   0.7647148  )
        39        O      tau(  39) = (   0.5000000   0.7500001   0.2592107  )
        40        O      tau(  40) = (   0.5000000   0.7500002   0.7647148  )

     number of k points=   126

     Number of k-points >= 100: set verbosity='high' to print them.

     Dense  grid:   777019 G-vectors     FFT dimensions: ( 120, 120, 120)

     Smooth grid:   274705 G-vectors     FFT dimensions: (  81,  81,  81)

     Estimated max dynamical RAM per process >     150.06 MB

     Estimated total dynamical RAM >      25.54 GB

     Check: negative core charge=   -0.000002

     The initial density is read from file :
     ./tmp/70_ecut_10_kmesh_PBE.save/charge-density

     Starting wfcs from file
     Checking if some PAW data can be deallocated... 

     total cpu time spent up to now is        9.4 secs

     per-process dynamical memory:   194.9 Mb

     Self-consistent Calculation

     iteration #  1     ecut=    70.00 Ry     beta= 0.30
     Davidson diagonalization with overlap
     ethr =  1.00E-05,  avg # of iterations =  1.0

     Threshold (ethr) on eigenvalues was too large:
     Diagonalizing with lowered threshold

     Davidson diagonalization with overlap
     ethr =  8.79E-12,  avg # of iterations =  6.2

     total cpu time spent up to now is       31.9 secs

     total energy              =   -5964.62504419 Ry
     estimated scf accuracy    <       0.00000006 Ry

     iteration #  2     ecut=    70.00 Ry     beta= 0.30
     Davidson diagonalization with overlap
     ethr =  1.97E-11,  avg # of iterations =  2.1

     total cpu time spent up to now is       41.1 secs

     total energy              =   -5964.62504420 Ry
     estimated scf accuracy    <       0.00000002 Ry

     iteration #  3     ecut=    70.00 Ry     beta= 0.30
     Davidson diagonalization with overlap
     ethr =  5.08E-12,  avg # of iterations =  5.5

     total cpu time spent up to now is       54.3 secs

     total energy              =   -5964.62504420 Ry
     estimated scf accuracy    <          2.8E-09 Ry

     iteration #  4     ecut=    70.00 Ry     beta= 0.30
     Davidson diagonalization with overlap
     ethr =  8.66E-13,  avg # of iterations =  5.1

     total cpu time spent up to now is       65.5 secs

     total energy              =   -5964.62504421 Ry
     estimated scf accuracy    <          1.4E-09 Ry

     iteration #  5     ecut=    70.00 Ry     beta= 0.30
     Davidson diagonalization with overlap
     ethr =  4.23E-13,  avg # of iterations =  4.0

     total cpu time spent up to now is       76.3 secs

     total energy              =   -5964.62504421 Ry
     estimated scf accuracy    <          4.1E-10 Ry

     iteration #  6     ecut=    70.00 Ry     beta= 0.30
     Davidson diagonalization with overlap
     ethr =  1.29E-13,  avg # of iterations =  4.4

     total cpu time spent up to now is       87.4 secs

     total energy              =   -5964.62504421 Ry
     estimated scf accuracy    <          1.2E-10 Ry

     iteration #  7     ecut=    70.00 Ry     beta= 0.30
     Davidson diagonalization with overlap
     ethr =  1.00E-13,  avg # of iterations =  2.0

     total cpu time spent up to now is       96.5 secs

     End of self-consistent calculation

     Number of k-points >= 100: set verbosity='high' to print the bands.

     highest occupied, lowest unoccupied level (ev):    10.4080   12.2295

!    total energy              =   -5964.62504421 Ry
     total all-electron energy =   -147449.078617 Ry
     estimated scf accuracy    <          2.6E-11 Ry

     The total energy is the sum of the following terms:
     one-electron contribution =    -550.49448020 Ry
     hartree contribution      =     483.89710808 Ry
     xc contribution           =    -491.50921926 Ry
     ewald contribution        =   -1653.96634398 Ry
     one-center paw contrib.   =   -3752.55210884 Ry

     convergence has been achieved in   7 iterations

     Forces acting on atoms (cartesian axes, Ry/au):

     atom    1 type  1   force =     0.00000000    0.00000000   -0.00097722
     atom    2 type  1   force =     0.00000000    0.00000000   -0.00094513
     atom    3 type  1   force =     0.00000000    0.00000000   -0.00096485
     atom    4 type  1   force =     0.00000000    0.00000000   -0.00095235
     atom    5 type  1   force =     0.00000000    0.00000000   -0.00096485
     atom    6 type  1   force =     0.00000000    0.00000000   -0.00095235
     atom    7 type  1   force =     0.00000000    0.00000000   -0.00098180
     atom    8 type  1   force =     0.00000000    0.00000000   -0.00094399
     atom    9 type  2   force =    -0.00000081   -0.00000081    0.00023880
     atom   10 type  2   force =    -0.00000143   -0.00000143    0.00024744
     atom   11 type  2   force =    -0.00000081    0.00000081    0.00023880
     atom   12 type  2   force =    -0.00000143    0.00000143    0.00024744
     atom   13 type  2   force =     0.00000081   -0.00000081    0.00023880
     atom   14 type  2   force =     0.00000143   -0.00000143    0.00024744
     atom   15 type  2   force =     0.00000081    0.00000081    0.00023880
     atom   16 type  2   force =     0.00000143    0.00000143    0.00024744
     atom   17 type  3   force =    -0.00000144   -0.00000144   -0.00014204
     atom   18 type  3   force =    -0.00000239   -0.00000239   -0.00013328
     atom   19 type  3   force =    -0.00000144    0.00000144   -0.00014204
     atom   20 type  3   force =    -0.00000239    0.00000239   -0.00013328
     atom   21 type  3   force =     0.00000144   -0.00000144   -0.00014204
     atom   22 type  3   force =     0.00000239   -0.00000239   -0.00013328
     atom   23 type  3   force =     0.00000144    0.00000144   -0.00014204
     atom   24 type  3   force =     0.00000239    0.00000239   -0.00013328
     atom   25 type  3   force =    -0.00000189    0.00000000    0.00042166
     atom   26 type  3   force =    -0.00000558    0.00000000    0.00042625
     atom   27 type  3   force =     0.00000074    0.00000000    0.00042620
     atom   28 type  3   force =     0.00000307    0.00000000    0.00043560
     atom   29 type  3   force =     0.00000189    0.00000000    0.00042166
     atom   30 type  3   force =     0.00000558    0.00000000    0.00042625
     atom   31 type  3   force =    -0.00000074    0.00000000    0.00042620
     atom   32 type  3   force =    -0.00000307    0.00000000    0.00043560
     atom   33 type  3   force =     0.00000000   -0.00000189    0.00042166
     atom   34 type  3   force =     0.00000000   -0.00000558    0.00042625
     atom   35 type  3   force =     0.00000000    0.00000189    0.00042166
     atom   36 type  3   force =     0.00000000    0.00000558    0.00042625
     atom   37 type  3   force =     0.00000000    0.00000074    0.00042620
     atom   38 type  3   force =     0.00000000    0.00000307    0.00043560
     atom   39 type  3   force =     0.00000000   -0.00000074    0.00042620
     atom   40 type  3   force =     0.00000000   -0.00000307    0.00043560

     Total force =     0.003306     Total SCF correction =     0.000003


     Computing stress (Cartesian axis) and pressure

          total   stress  (Ry/bohr**3)                   (kbar)     P=       40.15
   0.00024363   0.00000000   0.00000000           35.84        0.00        0.00
   0.00000000   0.00024363   0.00000000            0.00       35.84        0.00
   0.00000000   0.00000000   0.00033153            0.00        0.00       48.77


     Writing all to output data dir ./tmp/70_ecut_10_kmesh_PBE.save/ :
     XML data file, charge density, pseudopotentials, collected wavefunctions

     init_run     :      2.91s CPU      8.13s WALL (       1 calls)
     electrons    :     84.91s CPU     87.16s WALL (       1 calls)
     forces       :      1.81s CPU      1.88s WALL (       1 calls)
     stress       :      5.31s CPU      5.43s WALL (       1 calls)

     Called by init_run:
     wfcinit      :      1.28s CPU      6.31s WALL (       1 calls)
     potinit      :      0.16s CPU      0.24s WALL (       1 calls)
     hinit0       :      1.25s CPU      1.33s WALL (       1 calls)

     Called by electrons:
     c_bands      :     75.49s CPU     77.45s WALL (       8 calls)
     sum_band     :      8.42s CPU      8.60s WALL (       8 calls)
     v_of_rho     :      0.22s CPU      0.27s WALL (       8 calls)
     newd         :      0.18s CPU      0.19s WALL (       8 calls)
     PAW_pot      :      0.37s CPU      0.38s WALL (       8 calls)
     mix_rho      :      0.01s CPU      0.02s WALL (       8 calls)

     Called by c_bands:
     init_us_2    :      1.72s CPU      1.74s WALL (     288 calls)
     cegterg      :     67.89s CPU     69.76s WALL (     128 calls)

     Called by *egterg:
     cdiaghg      :      9.46s CPU      9.98s WALL (     586 calls)
     h_psi        :     35.28s CPU     36.04s WALL (     618 calls)
     s_psi        :      4.93s CPU      4.97s WALL (     618 calls)
     g_psi        :      0.07s CPU      0.08s WALL (     490 calls)

     Called by h_psi:
     h_psi:calbec :      6.69s CPU      6.91s WALL (     618 calls)
     vloc_psi     :     23.33s CPU     23.57s WALL (     618 calls)
                                        0.00s GPU  (     618 calls)
     add_vuspsi   :      5.04s CPU      5.12s WALL (     618 calls)

     General routines
     calbec       :     14.57s CPU     15.04s WALL (    1018 calls)
     fft          :      0.87s CPU      0.96s WALL (     128 calls)
     ffts         :      0.09s CPU      0.09s WALL (      16 calls)
     fftw         :     26.67s CPU     26.94s WALL (  143832 calls)
     interpolate  :      0.10s CPU      0.11s WALL (       8 calls)

     Parallel routines

     PWSCF        :     97.02s CPU    107.24s WALL


   This run was terminated on:   0:16:38  21May2026            

=------------------------------------------------------------------------------=
   JOB DONE.
=------------------------------------------------------------------------------=
