
     Program PWSCF v.7.5 starts on 21May2026 at  0:16:23 

     This program is part of the open-source Quantum ESPRESSO suite
     for quantum simulation of materials; please cite
         "P. Giannozzi et al., J. Phys.:Condens. Matter 21 395502 (2009);
         "P. Giannozzi et al., J. Phys.:Condens. Matter 29 465901 (2017);
         "P. Giannozzi et al., J. Chem. Phys. 152 154105 (2020);
          URL http://www.quantum-espresso.org", 
     in publications or presentations arising from this work. More details at
     http://www.quantum-espresso.org/quote

     Parallel version (MPI & OpenMP), running on     192 processor cores
     Number of MPI processes:               192
     Threads/MPI process:                     1

     MPI processes distributed on     1 nodes
     293825 MiB available memory on the printing compute node when the environment starts

     Waiting for input...
     Reading input from standard input

     Current dimensions of program PWSCF are:
     Max number of different atomic species (ntypx) = 10
     Max number of k-points (npk) =  40000
     Max angular momentum in pseudopotentials (lmaxx) =  4
     file Ba.pbe-spn-kjpaw_psl.1.0.0.UPF: wavefunction(s)  5S 6S renormalized
     file Ti.pbe-spn-kjpaw_psl.1.0.0.UPF: wavefunction(s)  3S 3P 3D renormalized
     file O.pbe-n-kjpaw_psl.1.0.0.UPF: wavefunction(s)  2S 2P renormalized

     IMPORTANT: XC functional enforced from input :
     Exchange-correlation= PBE
                           (   1   4   3   4   0   0   0)
     Any further DFT definition will be discarded
     Please, verify this is what you really want

     Found identity + ( -0.5000 -0.5000  0.0000) symmetry
     This is a supercell, fractional translations are disabled

     K-points division:     npool     =       8
     R & G space division:  proc/nbgrp/npool/nimage =      24
     Subspace diagonalization in iterative solution of the eigenvalue problem:
     one sub-group per band group will be used
     ELPA distributed-memory algorithm (size of sub-group:  2*  2 procs)


     Parallelization info
     --------------------
     sticks:   dense  smooth     PW     G-vecs:    dense   smooth      PW
     Min         543     271     73                47197    16689    2333
     Max         545     272     74                47200    16692    2336
     Sum       13053    6525   1757              1132751   400585   56003

     Using Slab Decomposition



     bravais-lattice index     =            6
     lattice parameter (alat)  =      15.0876  a.u.
     unit-cell volume          =    3472.3239 (a.u.)^3
     number of atoms/cell      =           40
     number of atomic types    =            3
     number of electrons       =       320.00
     number of Kohn-Sham states=          200
     kinetic-energy cutoff     =      90.0000  Ry
     charge density cutoff     =     720.0000  Ry
     scf convergence threshold =      1.0E-10
     mixing beta               =       0.3000
     number of iterations used =           16  plain     mixing
     Exchange-correlation= PBE
                           (   1   4   3   4   0   0   0)

     celldm(1)=  15.087600  celldm(2)=   0.000000  celldm(3)=   1.011020
     celldm(4)=   0.000000  celldm(5)=   0.000000  celldm(6)=   0.000000

     crystal axes: (cart. coord. in units of alat)
               a(1) = (   1.000000   0.000000   0.000000 )  
               a(2) = (   0.000000   1.000000   0.000000 )  
               a(3) = (   0.000000   0.000000   1.011020 )  

     reciprocal axes: (cart. coord. in units 2 pi/alat)
               b(1) = (  1.000000  0.000000  0.000000 )  
               b(2) = (  0.000000  1.000000  0.000000 )  
               b(3) = (  0.000000  0.000000  0.989100 )  


     PseudoPot. # 1 for Ba read from file:
     /home/kylay/scratch/BTO/pseuds/Ba.pbe-spn-kjpaw_psl.1.0.0.UPF
     MD5 check sum: 7cfe25f1fe7574a4710541d5a11d6531
     Pseudo is Projector augmented-wave + core cor, Zval = 10.0
     Generated using &quot;atomic&quot; code by A. Dal Corso  v.6.2.2
     Shape of augmentation charge: PSQ
     Using radial grid of 1251 points,  7 beta functions with: 
                l(1) =   0
                l(2) =   0
                l(3) =   0
                l(4) =   1
                l(5) =   1
                l(6) =   2
                l(7) =   2
     Q(r) pseudized with 0 coefficients 


     PseudoPot. # 2 for Ti read from file:
     /home/kylay/scratch/BTO/pseuds/Ti.pbe-spn-kjpaw_psl.1.0.0.UPF
     MD5 check sum: 01f69b0d8ba4438b2e03ac6ea4af1c0b
     Pseudo is Projector augmented-wave + core cor, Zval = 12.0
     Generated using &quot;atomic&quot; code by A. Dal Corso  v.6.2.2
     Shape of augmentation charge: PSQ
     Using radial grid of 1177 points,  6 beta functions with: 
                l(1) =   0
                l(2) =   0
                l(3) =   1
                l(4) =   1
                l(5) =   2
                l(6) =   2
     Q(r) pseudized with 0 coefficients 


     PseudoPot. # 3 for O  read from file:
     /home/kylay/scratch/BTO/pseuds/O.pbe-n-kjpaw_psl.1.0.0.UPF
     MD5 check sum: e99d9cef9b487d1ca56f5b95ecd0fd7a
     Pseudo is Projector augmented-wave + core cor, Zval =  6.0
     Generated using &quot;atomic&quot; code by A. Dal Corso  v.6.3
     Shape of augmentation charge: PSQ
     Using radial grid of 1095 points,  4 beta functions with: 
                l(1) =   0
                l(2) =   0
                l(3) =   1
                l(4) =   1
     Q(r) pseudized with 0 coefficients 


     atomic species   valence    mass     pseudopotential
     Ba               10.00   137.32700     Ba( 1.00)
     Ti               12.00    47.86700     Ti( 1.00)
     O                 6.00    15.99900     O ( 1.00)

      8 Sym. Ops. (no inversion) found



   Cartesian axes

     site n.     atom                  positions (alat units)
         1        Ba     tau(   1) = (   0.0000000   0.0000000  -0.0010787  )
         2        Ba     tau(   2) = (   0.0000000   0.0000000   0.5044220  )
         3        Ba     tau(   3) = (   0.0000000   0.5000000  -0.0010832  )
         4        Ba     tau(   4) = (   0.0000000   0.5000000   0.5044235  )
         5        Ba     tau(   5) = (   0.5000000   0.0000000  -0.0010832  )
         6        Ba     tau(   6) = (   0.5000000   0.0000000   0.5044235  )
         7        Ba     tau(   7) = (   0.5000000   0.5000000  -0.0010766  )
         8        Ba     tau(   8) = (   0.5000000   0.5000000   0.5044202  )
         9        Ti     tau(   9) = (   0.2500002   0.2500002   0.2436990  )
        10        Ti     tau(  10) = (   0.2500007   0.2500007   0.7492042  )
        11        Ti     tau(  11) = (   0.2500002   0.7499998   0.2436990  )
        12        Ti     tau(  12) = (   0.2500007   0.7499993   0.7492042  )
        13        Ti     tau(  13) = (   0.7499998   0.2500002   0.2436990  )
        14        Ti     tau(  14) = (   0.7499993   0.2500007   0.7492042  )
        15        Ti     tau(  15) = (   0.7499998   0.7499998   0.2436990  )
        16        Ti     tau(  16) = (   0.7499993   0.7499993   0.7492042  )
        17        O      tau(  17) = (   0.2500011   0.2500011   0.0113903  )
        18        O      tau(  18) = (   0.2500007   0.2500007   0.5168954  )
        19        O      tau(  19) = (   0.2500011   0.7499989   0.0113903  )
        20        O      tau(  20) = (   0.2500007   0.7499993   0.5168954  )
        21        O      tau(  21) = (   0.7499989   0.2500011   0.0113903  )
        22        O      tau(  22) = (   0.7499993   0.2500007   0.5168954  )
        23        O      tau(  23) = (   0.7499989   0.7499989   0.0113903  )
        24        O      tau(  24) = (   0.7499993   0.7499993   0.5168954  )
        25        O      tau(  25) = (   0.2500005   0.0000000   0.2592128  )
        26        O      tau(  26) = (   0.2500020   0.0000000   0.7647195  )
        27        O      tau(  27) = (   0.2499999   0.5000000   0.2592107  )
        28        O      tau(  28) = (   0.2499998   0.5000000   0.7647148  )
        29        O      tau(  29) = (   0.7499995   0.0000000   0.2592128  )
        30        O      tau(  30) = (   0.7499980   0.0000000   0.7647195  )
        31        O      tau(  31) = (   0.7500001   0.5000000   0.2592107  )
        32        O      tau(  32) = (   0.7500002   0.5000000   0.7647148  )
        33        O      tau(  33) = (   0.0000000   0.2500005   0.2592128  )
        34        O      tau(  34) = (   0.0000000   0.2500020   0.7647195  )
        35        O      tau(  35) = (   0.0000000   0.7499995   0.2592128  )
        36        O      tau(  36) = (   0.0000000   0.7499980   0.7647195  )
        37        O      tau(  37) = (   0.5000000   0.2499999   0.2592107  )
        38        O      tau(  38) = (   0.5000000   0.2499998   0.7647148  )
        39        O      tau(  39) = (   0.5000000   0.7500001   0.2592107  )
        40        O      tau(  40) = (   0.5000000   0.7500002   0.7647148  )

     number of k points=    40
                       cart. coord. in units 2pi/alat
        k(    1) = (   0.0000000   0.0000000   0.0000000), wk =   0.0092593
        k(    2) = (   0.0000000   0.0000000   0.1648500), wk =   0.0185185
        k(    3) = (   0.0000000   0.0000000   0.3297000), wk =   0.0185185
        k(    4) = (   0.0000000   0.0000000  -0.4945501), wk =   0.0092593
        k(    5) = (   0.0000000   0.1666667   0.0000000), wk =   0.0370370
        k(    6) = (   0.0000000   0.1666667   0.1648500), wk =   0.0740741
        k(    7) = (   0.0000000   0.1666667   0.3297000), wk =   0.0740741
        k(    8) = (   0.0000000   0.1666667  -0.4945501), wk =   0.0370370
        k(    9) = (   0.0000000   0.3333333   0.0000000), wk =   0.0370370
        k(   10) = (   0.0000000   0.3333333   0.1648500), wk =   0.0740741
        k(   11) = (   0.0000000   0.3333333   0.3297000), wk =   0.0740741
        k(   12) = (   0.0000000   0.3333333  -0.4945501), wk =   0.0370370
        k(   13) = (   0.0000000  -0.5000000   0.0000000), wk =   0.0185185
        k(   14) = (   0.0000000  -0.5000000   0.1648500), wk =   0.0370370
        k(   15) = (   0.0000000  -0.5000000   0.3297000), wk =   0.0370370
        k(   16) = (   0.0000000  -0.5000000  -0.4945501), wk =   0.0185185
        k(   17) = (   0.1666667   0.1666667   0.0000000), wk =   0.0370370
        k(   18) = (   0.1666667   0.1666667   0.1648500), wk =   0.0740741
        k(   19) = (   0.1666667   0.1666667   0.3297000), wk =   0.0740741
        k(   20) = (   0.1666667   0.1666667  -0.4945501), wk =   0.0370370
        k(   21) = (   0.1666667   0.3333333   0.0000000), wk =   0.0740741
        k(   22) = (   0.1666667   0.3333333   0.1648500), wk =   0.1481481
        k(   23) = (   0.1666667   0.3333333   0.3297000), wk =   0.1481481
        k(   24) = (   0.1666667   0.3333333  -0.4945501), wk =   0.0740741
        k(   25) = (   0.1666667  -0.5000000   0.0000000), wk =   0.0370370
        k(   26) = (   0.1666667  -0.5000000   0.1648500), wk =   0.0740741
        k(   27) = (   0.1666667  -0.5000000   0.3297000), wk =   0.0740741
        k(   28) = (   0.1666667  -0.5000000  -0.4945501), wk =   0.0370370
        k(   29) = (   0.3333333   0.3333333   0.0000000), wk =   0.0370370
        k(   30) = (   0.3333333   0.3333333   0.1648500), wk =   0.0740741
        k(   31) = (   0.3333333   0.3333333   0.3297000), wk =   0.0740741
        k(   32) = (   0.3333333   0.3333333  -0.4945501), wk =   0.0370370
        k(   33) = (   0.3333333  -0.5000000   0.0000000), wk =   0.0370370
        k(   34) = (   0.3333333  -0.5000000   0.1648500), wk =   0.0740741
        k(   35) = (   0.3333333  -0.5000000   0.3297000), wk =   0.0740741
        k(   36) = (   0.3333333  -0.5000000  -0.4945501), wk =   0.0370370
        k(   37) = (  -0.5000000  -0.5000000   0.0000000), wk =   0.0092593
        k(   38) = (  -0.5000000  -0.5000000   0.1648500), wk =   0.0185185
        k(   39) = (  -0.5000000  -0.5000000   0.3297000), wk =   0.0185185
        k(   40) = (  -0.5000000  -0.5000000  -0.4945501), wk =   0.0092593

     Dense  grid:  1132751 G-vectors     FFT dimensions: ( 135, 135, 135)

     Smooth grid:   400585 G-vectors     FFT dimensions: (  96,  96,  96)

     Estimated max dynamical RAM per process >     145.16 MB

     Estimated total dynamical RAM >      23.44 GB

     The initial density is read from file :
     ./tmp/90_ecut_6_kmesh_PBE.save/charge-density

     Starting wfcs from file
     Checking if some PAW data can be deallocated... 

     total cpu time spent up to now is        5.9 secs

     per-process dynamical memory:   166.4 Mb

     Self-consistent Calculation

     iteration #  1     ecut=    90.00 Ry     beta= 0.30
     Davidson diagonalization with overlap
     ethr =  1.00E-05,  avg # of iterations =  1.0

     Threshold (ethr) on eigenvalues was too large:
     Diagonalizing with lowered threshold

     Davidson diagonalization with overlap
     ethr =  3.13E-13,  avg # of iterations =  5.5

     total cpu time spent up to now is       15.3 secs

     total energy              =   -5964.63708232 Ry
     estimated scf accuracy    <          1.8E-09 Ry

     iteration #  2     ecut=    90.00 Ry     beta= 0.30
     Davidson diagonalization with overlap
     ethr =  5.78E-13,  avg # of iterations =  1.6

     total cpu time spent up to now is       19.0 secs

     total energy              =   -5964.63708232 Ry
     estimated scf accuracy    <          4.0E-10 Ry

     iteration #  3     ecut=    90.00 Ry     beta= 0.30
     Davidson diagonalization with overlap
     ethr =  1.24E-13,  avg # of iterations =  4.4

     total cpu time spent up to now is       23.7 secs

     total energy              =   -5964.63708232 Ry
     estimated scf accuracy    <          2.0E-10 Ry

     iteration #  4     ecut=    90.00 Ry     beta= 0.30
     Davidson diagonalization with overlap
     ethr =  1.00E-13,  avg # of iterations =  1.9

     total cpu time spent up to now is       27.5 secs

     End of self-consistent calculation

          k = 0.0000 0.0000 0.0000 ( 50063 PWs)   bands (ev):

   -46.1070 -46.1061 -46.1060 -46.1060 -46.1051 -46.1051 -46.1050 -46.1041
   -22.4423 -22.4388 -22.4388 -22.4361 -22.3941 -22.3919 -22.3919 -22.3899
   -22.3881 -22.3881 -22.3849 -22.3849 -22.3846 -22.3846 -22.3823 -22.3823
   -22.3340 -22.3340 -22.3321 -22.3321 -22.3319 -22.3319 -22.3301 -22.3301
   -14.4583 -14.3467 -14.3373 -14.3373 -14.2679 -14.2678 -14.2599 -14.1994
    -6.7735  -6.7735  -6.7211  -6.5306  -6.2523  -6.1393  -6.1393  -5.9049
    -5.9049  -5.9041  -5.8434  -5.8434  -5.8096  -5.7774  -5.7456  -5.7456
    -5.7425  -5.7425  -5.7340  -5.6681  -5.5747  -5.5747  -5.5131  -5.5131
    -0.3543  -0.3543  -0.2922   0.2988   0.2988   0.3149   0.3149   0.3647
     0.3704   0.3705   0.3743   0.3743   0.5274   0.5274   0.5323   0.5323
     0.5491   0.5491   0.7379   0.7422   0.7422   0.7625   0.7625   0.8063
     5.9194   6.0770   6.1021   6.1021   6.2943   6.2943   6.3335   6.3489
     6.4059   6.4059   6.5582   6.5582   6.5587   6.5800   6.5958   7.5252
     7.5252   7.5766   7.5766   7.6240   7.6240   7.6250   7.6250   7.6382
     7.6382   7.7374   7.7374   7.9229   7.9229   7.9524   8.0506   8.0853
     8.0853   8.0904   8.0904   8.3845   8.3845   8.4537   8.4572   8.4695
     8.4695   8.5500   8.5500   8.6149   8.6904   8.6904   8.7145   8.7145
     9.0492   9.0492   9.2278   9.3427   9.3428   9.3756   9.3756   9.4725
     9.4725   9.4812   9.4812   9.4995   9.4995   9.7140   9.7140   9.9942
    10.0590  10.0590  10.1756  10.1756  10.2458  10.2458  10.3371  10.4077
    12.2288  12.3750  12.5469  12.5469  12.6634  12.6634  13.9440  13.9440
    13.9725  13.9725  14.0000  14.0000  14.0060  14.0060  14.0207  14.0207
    14.0226  14.0226  14.3638  14.3638  14.3927  14.4622  14.4626  14.5491
    14.5491  14.6094  14.6094  14.6144  14.6172  15.0982  15.2983  15.2983
    15.3434  15.4898  16.2943  16.2943  16.4902  16.8974  17.1086  17.1086

          k = 0.0000 0.0000 0.1649 ( 50034 PWs)   bands (ev):

   -46.1070 -46.1062 -46.1059 -46.1059 -46.1052 -46.1052 -46.1049 -46.1041
   -22.4391 -22.4357 -22.4357 -22.4331 -22.3974 -22.3951 -22.3951 -22.3930
   -22.3879 -22.3879 -22.3851 -22.3851 -22.3845 -22.3845 -22.3824 -22.3824
   -22.3339 -22.3339 -22.3322 -22.3322 -22.3318 -22.3318 -22.3302 -22.3302
   -14.4510 -14.3544 -14.3327 -14.3327 -14.2726 -14.2726 -14.2559 -14.2035
    -6.7403  -6.7403  -6.6992  -6.5285  -6.2197  -6.2077  -6.2077  -5.9062
    -5.8764  -5.8764  -5.8398  -5.8398  -5.8074  -5.7796  -5.7711  -5.7320
    -5.7320  -5.7298  -5.7298  -5.6963  -5.5867  -5.5867  -5.5285  -5.5285
    -0.3128  -0.3128  -0.2345   0.2522   0.2522   0.3421   0.3421   0.3787
     0.3788   0.3841   0.3841   0.3948   0.5167   0.5167   0.5186   0.5186
     0.5614   0.5614   0.6533   0.7285   0.7285   0.7297   0.7297   0.7770
     5.9637   6.0784   6.1582   6.1582   6.3655   6.3655   6.3936   6.3936
     6.4409   6.4713   6.5811   6.5947   6.6149   6.6149   6.6368   7.5299
     7.5299   7.5742   7.5743   7.6029   7.6029   7.6651   7.6651   7.6735
     7.6735   7.7867   7.7867   7.7886   7.7886   7.8559   7.9166   7.9166
     7.9279   8.0657   8.0657   8.4082   8.4082   8.4223   8.4916   8.4916
     8.4980   8.5336   8.5343   8.5343   8.7232   8.7232   8.9741   8.9741
     9.0108   9.0108   9.1661   9.2838   9.2838   9.3766   9.3766   9.4119
     9.4119   9.4241   9.4241   9.4314   9.4314   9.7346   9.7346   9.8421
    10.0347  10.0347  10.1369  10.1369  10.1658  10.1658  10.3418  10.4029
    12.2382  12.3648  12.6594  12.6594  12.7649  12.7649  13.9166  13.9166
    13.9352  13.9352  13.9461  13.9461  13.9708  13.9708  14.0047  14.0048
    14.0577  14.0577  14.3193  14.3193  14.4071  14.4619  14.4620  14.5623
    14.5623  14.6016  14.6815  14.6815  14.7949  15.2891  15.2891  15.3114
    15.4743  15.6201  16.3754  16.3754  16.3967  16.8906  17.1951  17.2777

          k = 0.0000 0.0000 0.3297 ( 50030 PWs)   bands (ev):

   -46.1068 -46.1064 -46.1058 -46.1058 -46.1053 -46.1053 -46.1047 -46.1043
   -22.4304 -22.4271 -22.4271 -22.4246 -22.4063 -22.4037 -22.4037 -22.4015
   -22.3873 -22.3873 -22.3857 -22.3857 -22.3840 -22.3840 -22.3829 -22.3829
   -22.3335 -22.3335 -22.3326 -22.3326 -22.3314 -22.3314 -22.3305 -22.3305
   -14.4310 -14.3752 -14.3202 -14.3202 -14.2855 -14.2854 -14.2449 -14.2147
    -6.6463  -6.6463  -6.6427  -6.5369  -6.3504  -6.3504  -6.1294  -5.8958
    -5.8707  -5.8416  -5.8416  -5.8319  -5.8319  -5.8016  -5.7855  -5.7674
    -5.7026  -5.7026  -5.6869  -5.6869  -5.6188  -5.6188  -5.5707  -5.5706
    -0.1980  -0.1980  -0.0705   0.1276   0.1276   0.4031   0.4031   0.4112
     0.4112   0.4185   0.4185   0.4373   0.4765   0.4835   0.4836   0.4878
     0.4878   0.5953   0.5953   0.6423   0.6423   0.6917   0.6917   0.6970
     6.0358   6.0797   6.2556   6.2556   6.3626   6.3626   6.5736   6.5736
     6.5840   6.5918   6.7395   6.7913   6.8260   6.8260   6.9111   7.3230
     7.3230   7.4728   7.4728   7.5417   7.5417   7.5671   7.5671   7.5862
     7.5979   7.7562   7.7562   7.7704   7.7704   7.8925   7.8925   7.9304
     7.9304   7.9465   8.0042   8.0042   8.3354   8.3354   8.4826   8.4826
     8.6234   8.7267   8.7267   8.7534   8.7987   8.7987   8.8189   8.8189
     9.0065   9.1379   9.1379   9.2118   9.2118   9.2447   9.2448   9.3052
     9.3052   9.4313   9.4313   9.4855   9.5273   9.5273   9.7931   9.7931
     9.9632   9.9632   9.9676   9.9676  10.0102  10.0103  10.3545  10.3898
    12.2641  12.3372  12.9500  12.9500  13.0299  13.0299  13.6690  13.6690
    13.7000  13.7000  13.9518  13.9518  13.9659  13.9659  14.0320  14.0320
    14.1553  14.1553  14.2130  14.2130  14.4429  14.4429  14.4469  14.4610
    14.4614  14.5592  14.9468  14.9468  15.2252  15.2504  15.2504  15.8294
    15.8354  15.9900  16.1263  16.6407  16.6407  16.7917  16.8149  17.1616

          k = 0.0000 0.0000-0.4946 ( 50046 PWs)   bands (ev):

   -46.1066 -46.1066 -46.1056 -46.1056 -46.1055 -46.1055 -46.1045 -46.1045
   -22.4183 -22.4183 -22.4155 -22.4155 -22.4154 -22.4154 -22.4131 -22.4131
   -22.3865 -22.3865 -22.3865 -22.3865 -22.3835 -22.3835 -22.3834 -22.3834
   -22.3330 -22.3330 -22.3330 -22.3330 -22.3310 -22.3310 -22.3310 -22.3310
   -14.4033 -14.4032 -14.3030 -14.3029 -14.3029 -14.3028 -14.2299 -14.2298
    -6.5779  -6.5778  -6.5080  -6.5080  -6.5079  -6.5079  -6.0024  -6.0022
    -5.8467  -5.8466  -5.8287  -5.8287  -5.8286  -5.8286  -5.7936  -5.7935
    -5.6615  -5.6615  -5.6614  -5.6614  -5.6287  -5.6287  -5.6286  -5.6285
    -0.0377  -0.0377  -0.0376  -0.0376   0.1708   0.1709   0.4406   0.4406
     0.4407   0.4407   0.4490   0.4490   0.4491   0.4491   0.5276   0.5276
     0.5277   0.5277   0.5871   0.5872   0.6428   0.6428   0.6429   0.6429
     6.0716   6.0717   6.3198   6.3198   6.3199   6.3199   6.5879   6.5879
     6.9020   6.9020   6.9021   6.9021   7.1606   7.1607   7.1703   7.1703
     7.1705   7.1705   7.2009   7.2009   7.3849   7.3851   7.5555   7.5555
     7.5556   7.5556   7.8391   7.8391   7.8392   7.8392   7.8990   7.8990
     7.8991   7.8991   8.1293   8.1293   8.1294   8.1294   8.6155   8.6155
     8.6156   8.6156   8.8066   8.8067   8.9663   8.9663   8.9664   8.9664
     8.9875   8.9875   8.9876   8.9876   9.0883   9.0883   9.1951   9.1951
     9.1952   9.1952   9.7235   9.7235   9.7235   9.7235   9.7763   9.7763
     9.7763   9.7763   9.8779   9.8779   9.8780   9.8780  10.3720  10.3721
    12.3002  12.3003  13.3196  13.3196  13.3197  13.3197  13.3718  13.3719
    13.3719  13.3719  13.9590  13.9590  13.9591  13.9591  14.1028  14.1028
    14.1028  14.1028  14.2942  14.2942  14.2942  14.2942  14.4609  14.4610
    14.5025  14.5025  15.1497  15.1497  15.1497  15.1497  15.7127  15.7128
    16.3160  16.3162  16.4191  16.4193  16.5391  16.5393  17.0750  17.0750

          k = 0.0000 0.1667 0.0000 ( 50059 PWs)   bands (ev):

   -46.1070 -46.1061 -46.1061 -46.1059 -46.1052 -46.1050 -46.1050 -46.1041
   -22.4421 -22.4390 -22.4386 -22.4363 -22.3940 -22.3921 -22.3918 -22.3900
   -22.3879 -22.3848 -22.3847 -22.3845 -22.3824 -22.3814 -22.3811 -22.3788
   -22.3376 -22.3357 -22.3354 -22.3338 -22.3336 -22.3320 -22.3320 -22.3302
   -14.4504 -14.3456 -14.3416 -14.3322 -14.2732 -14.2652 -14.2633 -14.2041
    -6.7501  -6.7420  -6.6878  -6.5345  -6.2926  -6.1889  -6.1042  -5.8989
    -5.8939  -5.8899  -5.8460  -5.8349  -5.8064  -5.7712  -5.7465  -5.7457
    -5.7378  -5.7348  -5.7268  -5.6838  -5.6150  -5.5869  -5.5450  -5.5281
    -0.3119  -0.2990  -0.2442   0.2670   0.3116   0.3222   0.3261   0.3267
     0.3753   0.3854   0.3967   0.4010   0.5098   0.5200   0.5205   0.5368
     0.5410   0.5538   0.6525   0.7239   0.7269   0.7283   0.7370   0.7742
     5.9673   6.1023   6.1351   6.1536   6.3234   6.3409   6.3912   6.4206
     6.4221   6.5122   6.5585   6.5653   6.6374   6.6489   6.6640   7.5614
     7.5634   7.5733   7.5759   7.6224   7.6292   7.6346   7.6358   7.6628
     7.6891   7.7334   7.7663   7.8239   7.9152   7.9196   7.9199   7.9513
     7.9616   8.0396   8.0672   8.1433   8.1676   8.3246   8.4997   8.5256
     8.5277   8.5611   8.6527   8.6819   8.7453   8.7506   8.9394   8.9409
     8.9866   9.0561   9.1122   9.1917   9.3128   9.3380   9.3793   9.4021
     9.4637   9.5101   9.5157   9.5411   9.5466   9.5893   9.6183   9.8266
     9.9847  10.0587  10.1355  10.1738  10.1802  10.2396  10.2945  10.3297
    12.3745  12.5073  12.5572  12.6055  12.6540  12.7163  13.8467  13.8780
    13.8892  13.9116  13.9525  13.9852  14.0022  14.0068  14.0098  14.0196
    14.0206  14.0380  14.3110  14.3412  14.3802  14.5532  14.5552  14.5560
    14.5614  14.5949  14.6179  14.6863  14.7334  15.1132  15.2869  15.4803
    15.5211  15.6243  16.2237  16.3933  16.5733  16.9570  17.2103  17.3153

          k = 0.0000 0.1667 0.1649 ( 50074 PWs)   bands (ev):

   -46.1069 -46.1061 -46.1060 -46.1059 -46.1052 -46.1051 -46.1050 -46.1042
   -22.4389 -22.4359 -22.4355 -22.4332 -22.3972 -22.3953 -22.3950 -22.3932
   -22.3876 -22.3849 -22.3847 -22.3843 -22.3826 -22.3816 -22.3809 -22.3790
   -22.3375 -22.3358 -22.3353 -22.3338 -22.3337 -22.3321 -22.3319 -22.3304
   -14.4433 -14.3490 -14.3409 -14.3277 -14.2782 -14.2680 -14.2611 -14.2082
    -6.7182  -6.7088  -6.6675  -6.5296  -6.2598  -6.2377  -6.1747  -5.9026
    -5.8779  -5.8638  -5.8430  -5.8309  -5.8041  -5.7915  -5.7739  -5.7358
    -5.7241  -5.7206  -5.7179  -5.7110  -5.6184  -5.5967  -5.5595  -5.5416
    -0.2831  -0.2715  -0.1663   0.2607   0.2811   0.2951   0.3245   0.3359
     0.3686   0.3954   0.4185   0.4424   0.4726   0.4968   0.5033   0.5301
     0.5489   0.5922   0.6536   0.6548   0.6946   0.7134   0.7142   0.7537
     6.0159   6.1364   6.1582   6.2170   6.3799   6.4128   6.4291   6.4779
     6.4982   6.5297   6.6152   6.6213   6.6384   6.6786   6.6971   7.5498
     7.5628   7.5777   7.6041   7.6182   7.6201   7.6326   7.6630   7.6692
     7.7141   7.7185   7.7546   7.7848   7.8097   7.8645   7.8676   7.9139
     7.9275   7.9792   7.9907   8.0499   8.1109   8.3475   8.4657   8.5007
     8.5317   8.5778   8.5906   8.7776   8.8252   8.9124   8.9324   8.9622
     9.0143   9.0357   9.0809   9.1948   9.3017   9.3226   9.3586   9.3711
     9.4288   9.4573   9.4622   9.4633   9.4842   9.6180   9.6399   9.7234
     9.9580   9.9975  10.0960  10.1034  10.1387  10.1576  10.2971  10.3340
    12.3829  12.4980  12.6686  12.7034  12.7561  12.8149  13.8492  13.8730
    13.8961  13.8968  13.9177  13.9366  13.9520  13.9534  13.9571  14.0063
    14.0093  14.0540  14.2607  14.3355  14.3554  14.5045  14.5388  14.5546
    14.5917  14.6174  14.6865  14.8329  14.8771  15.2776  15.3255  15.5142
    15.6053  15.7527  16.3043  16.4585  16.4790  16.9799  17.2679  17.3379

          k = 0.0000 0.1667 0.3297 ( 50043 PWs)   bands (ev):

   -46.1067 -46.1063 -46.1058 -46.1057 -46.1054 -46.1053 -46.1048 -46.1044
   -22.4301 -22.4274 -22.4270 -22.4248 -22.4061 -22.4039 -22.4036 -22.4017
   -22.3871 -22.3855 -22.3842 -22.3837 -22.3830 -22.3821 -22.3805 -22.3794
   -22.3371 -22.3362 -22.3350 -22.3341 -22.3334 -22.3324 -22.3316 -22.3307
   -14.4237 -14.3693 -14.3278 -14.3152 -14.2916 -14.2808 -14.2500 -14.2195
    -6.6286  -6.6160  -6.6148  -6.5297  -6.3562  -6.3184  -6.1687  -5.9016
    -5.8972  -5.8542  -5.8375  -5.8291  -5.8221  -5.7977  -5.7862  -5.7740
    -5.7087  -5.6930  -5.6916  -5.6821  -5.6379  -5.6231  -5.5981  -5.5787
    -0.1948  -0.1595   0.0088   0.1266   0.1589   0.3360   0.3644   0.3740
     0.3840   0.4128   0.4229   0.4601   0.4627   0.4708   0.4795   0.5007
     0.5211   0.5823   0.6047   0.6293   0.6512   0.6571   0.6772   0.6960
     6.0940   6.1379   6.2533   6.3326   6.3518   6.4623   6.6251   6.6413
     6.6475   6.6496   6.7223   6.8128   6.8283   6.8846   6.9106   7.3048
     7.3482   7.4637   7.5225   7.5374   7.5565   7.5668   7.5890   7.5941
     7.6132   7.6858   7.6913   7.7732   7.7859   7.8956   7.9049   7.9110
     7.9212   7.9278   7.9948   8.0395   8.1116   8.1394   8.3398   8.4202
     8.5997   8.6195   8.7278   8.7371   8.7532   8.8717   8.8733   9.0333
     9.0378   9.1204   9.1230   9.1819   9.1914   9.3069   9.3351   9.3488
     9.3790   9.4142   9.4412   9.4788   9.4966   9.4978   9.6956   9.7011
     9.8855   9.8989   9.9030   9.9589   9.9952  10.0048  10.3050  10.3288
    12.4064  12.4728  12.9568  12.9654  13.0225  13.0714  13.6515  13.6712
    13.6941  13.7223  13.8557  13.8736  13.9315  13.9687  13.9967  14.0414
    14.0616  14.1403  14.1474  14.2284  14.3757  14.3947  14.4266  14.5062
    14.6092  14.6160  14.9467  15.1348  15.2398  15.2961  15.4777  15.8519
    15.9439  16.1194  16.2061  16.5689  16.6839  16.8685  16.8935  17.2878

          k = 0.0000 0.1667-0.4946 ( 50052 PWs)   bands (ev):

   -46.1065 -46.1065 -46.1056 -46.1056 -46.1055 -46.1055 -46.1046 -46.1046
   -22.4182 -22.4181 -22.4157 -22.4156 -22.4153 -22.4153 -22.4133 -22.4133
   -22.3863 -22.3863 -22.3837 -22.3836 -22.3829 -22.3829 -22.3800 -22.3799
   -22.3367 -22.3366 -22.3345 -22.3345 -22.3329 -22.3329 -22.3311 -22.3311
   -14.3967 -14.3966 -14.3098 -14.3097 -14.2981 -14.2980 -14.2349 -14.2348
    -6.5599  -6.5598  -6.4988  -6.4987  -6.4763  -6.4762  -6.0392  -6.0391
    -5.8551  -5.8550  -5.8386  -5.8385  -5.8176  -5.8175  -5.7886  -5.7884
    -5.6722  -5.6721  -5.6585  -5.6584  -5.6473  -5.6472  -5.6301  -5.6300
    -0.0437  -0.0437  -0.0029  -0.0028   0.2363   0.2363   0.3648   0.3649
     0.4086   0.4086   0.4199   0.4200   0.4613   0.4614   0.4866   0.4866
     0.5648   0.5648   0.6125   0.6125   0.6291   0.6291   0.6506   0.6506
     6.1305   6.1306   6.3131   6.3132   6.4112   6.4113   6.6451   6.6451
     6.9312   6.9313   6.9507   6.9508   7.1333   7.1335   7.1754   7.1755
     7.1781   7.1782   7.2166   7.2167   7.3580   7.3582   7.5740   7.5741
     7.6022   7.6023   7.8007   7.8008   7.8515   7.8516   7.8855   7.8855
     7.8971   7.8972   8.0466   8.0467   8.1293   8.1294   8.3588   8.3589
     8.5528   8.5529   8.7374   8.7374   8.9324   8.9325   8.9440   8.9441
     9.0156   9.0157   9.1572   9.1573   9.1781   9.1781   9.2445   9.2446
     9.2613   9.2614   9.6664   9.6664   9.7134   9.7134   9.7621   9.7621
     9.7896   9.7897   9.7903   9.7904   9.7994   9.7994  10.3167  10.3169
    12.4392  12.4392  13.3127  13.3128  13.3237  13.3238  13.3658  13.3659
    13.4028  13.4028  13.8644  13.8644  13.9830  13.9831  14.0145  14.0145
    14.1162  14.1163  14.2142  14.2142  14.2814  14.2815  14.4495  14.4496
    14.6138  14.6138  15.1430  15.1430  15.3681  15.3681  15.7877  15.7878
    16.4099  16.4101  16.4532  16.4534  16.6661  16.6662  17.0011  17.0012

          k = 0.0000 0.3333 0.0000 ( 50072 PWs)   bands (ev):

   -46.1068 -46.1063 -46.1059 -46.1057 -46.1054 -46.1052 -46.1049 -46.1043
   -22.4415 -22.4397 -22.4381 -22.4368 -22.3936 -22.3925 -22.3914 -22.3904
   -22.3872 -22.3855 -22.3842 -22.3829 -22.3746 -22.3718 -22.3715 -22.3693
   -22.3476 -22.3454 -22.3451 -22.3432 -22.3335 -22.3324 -22.3316 -22.3306
   -14.4287 -14.3682 -14.3273 -14.3182 -14.2879 -14.2795 -14.2509 -14.2167
    -6.6889  -6.6543  -6.5942  -6.5582  -6.3968  -6.3108  -6.0067  -5.8832
    -5.8633  -5.8534  -5.8470  -5.8122  -5.7844  -5.7813  -5.7589  -5.7566
    -5.7306  -5.7259  -5.7216  -5.7049  -5.6842  -5.6265  -5.6196  -5.5694
    -0.1947  -0.1570  -0.0960   0.1389   0.1925   0.3490   0.3587   0.4048
     0.4053   0.4163   0.4248   0.4644   0.4697   0.4706   0.4732   0.4886
     0.5036   0.5785   0.5872   0.6373   0.6671   0.6858   0.6861   0.6887
     6.0472   6.1008   6.2278   6.2384   6.2988   6.3555   6.5231   6.5599
     6.5650   6.6367   6.7487   6.8066   6.8500   6.9197   6.9287   7.2695
     7.4209   7.4815   7.5534   7.6071   7.6217   7.6248   7.6261   7.6413
     7.6434   7.6596   7.7429   7.7648   7.7723   7.8272   7.8326   7.8883
     7.9355   7.9853   8.0054   8.0605   8.1453   8.1646   8.2826   8.6023
     8.6841   8.7114   8.7167   8.7261   8.7348   8.8391   8.8578   8.8823
     8.8996   9.0619   9.1410   9.2206   9.2725   9.3684   9.3708   9.3900
     9.4027   9.4621   9.4830   9.5128   9.5302   9.6139   9.6142   9.6694
     9.8186   9.9319   9.9932  10.0052  10.1223  10.1568  10.1930  10.2306
    12.5620  12.6291  12.7527  12.8372  12.8384  12.9217  13.5745  13.5973
    13.6155  13.6258  13.9854  13.9896  14.0090  14.0134  14.0153  14.0164
    14.1141  14.1156  14.1861  14.2174  14.4195  14.4253  14.4276  14.5493
    14.5663  14.5718  14.9064  14.9299  15.1259  15.1742  15.2406  15.8627
    15.9960  16.0068  16.0508  16.7049  16.8318  16.9267  16.9564  17.1844

          k = 0.0000 0.3333 0.1649 ( 50054 PWs)   bands (ev):

   -46.1067 -46.1062 -46.1059 -46.1057 -46.1054 -46.1052 -46.1049 -46.1044
   -22.4383 -22.4365 -22.4350 -22.4337 -22.3968 -22.3957 -22.3946 -22.3935
   -22.3870 -22.3853 -22.3844 -22.3831 -22.3744 -22.3720 -22.3713 -22.3695
   -22.3474 -22.3455 -22.3450 -22.3434 -22.3333 -22.3323 -22.3317 -22.3307
   -14.4221 -14.3629 -14.3343 -14.3138 -14.2934 -14.2754 -14.2555 -14.2210
    -6.6610  -6.6210  -6.5793  -6.5458  -6.3637  -6.3281  -6.0844  -5.8887
    -5.8594  -5.8557  -5.8526  -5.8274  -5.8073  -5.7838  -5.7691  -5.7506
    -5.7410  -5.7215  -5.6952  -5.6935  -5.6796  -5.6381  -5.6237  -5.5778
    -0.1769  -0.1570   0.0025   0.1695   0.1799   0.2882   0.3509   0.3622
     0.3808   0.4028   0.4267   0.4477   0.4641   0.4658   0.4989   0.5152
     0.5172   0.5672   0.6010   0.6235   0.6517   0.6685   0.6729   0.6885
     6.1023   6.1568   6.2377   6.3113   6.3470   6.4001   6.5853   6.6165
     6.6227   6.7052   6.7716   6.7866   6.8529   6.9282   6.9564   7.3088
     7.3703   7.4761   7.5018   7.5925   7.6039   7.6287   7.6403   7.6510
     7.6766   7.6805   7.6835   7.7404   7.8117   7.8329   7.8566   7.8945
     7.9013   7.9236   7.9943   8.0193   8.0549   8.1062   8.1859   8.5368
     8.5649   8.5660   8.7448   8.7501   8.7614   8.7662   8.9304   8.9662
     9.0539   9.1221   9.1399   9.2190   9.2900   9.2976   9.3910   9.4061
     9.4143   9.4323   9.4459   9.5123   9.5166   9.5579   9.5603   9.6380
     9.7849   9.8806   9.9213   9.9915  10.0923  10.1450  10.1539  10.1951
    12.6542  12.7326  12.7760  12.8297  12.9014  13.0084  13.5781  13.6107
    13.6126  13.6788  13.9025  13.9209  13.9315  13.9964  14.0249  14.0356
    14.0439  14.1063  14.1221  14.2309  14.3598  14.3799  14.4120  14.5029
    14.6789  14.6935  14.9049  15.1091  15.2321  15.2562  15.3363  15.9701
    16.0508  16.0857  16.1226  16.7345  16.7358  16.9896  17.0158  17.5292

          k = 0.0000 0.3333 0.3297 ( 50097 PWs)   bands (ev):

   -46.1066 -46.1061 -46.1060 -46.1056 -46.1055 -46.1051 -46.1050 -46.1046
   -22.4296 -22.4280 -22.4265 -22.4253 -22.4056 -22.4044 -22.4032 -22.4021
   -22.3865 -22.3850 -22.3848 -22.3836 -22.3739 -22.3725 -22.3710 -22.3699
   -22.3470 -22.3459 -22.3447 -22.3437 -22.3330 -22.3321 -22.3320 -22.3311
   -14.4038 -14.3531 -14.3484 -14.3083 -14.3016 -14.2680 -14.2640 -14.2326
    -6.5848  -6.5449  -6.5269  -6.5223  -6.3867  -6.2710  -6.2306  -5.9884
    -5.8947  -5.8701  -5.8539  -5.8200  -5.7957  -5.7939  -5.7792  -5.7570
    -5.7288  -5.7071  -5.6854  -5.6691  -5.6674  -5.6652  -5.6350  -5.6014
    -0.1330  -0.0525   0.1437   0.1773   0.1782   0.2469   0.2552   0.2991
     0.3492   0.3653   0.4110   0.4143   0.4554   0.5042   0.5364   0.5436
     0.5468   0.5473   0.5575   0.5859   0.6383   0.6445   0.6560   0.6778
     6.1884   6.2354   6.2474   6.3263   6.4987   6.6774   6.7325   6.7662
     6.8116   6.8351   6.8499   6.8604   6.8877   6.9681   7.1010   7.2002
     7.3503   7.4010   7.4091   7.4181   7.4419   7.5690   7.5751   7.6065
     7.7015   7.7058   7.7278   7.7328   7.7789   7.7933   7.8486   7.8980
     7.9059   7.9337   7.9415   7.9435   7.9574   8.1955   8.2174   8.2570
     8.3058   8.3652   8.5415   8.5890   8.8249   8.8286   8.9698   9.0192
     9.1569   9.1929   9.2635   9.2868   9.2949   9.3054   9.3642   9.3678
     9.3967   9.4265   9.4305   9.4837   9.4974   9.5656   9.6235   9.6434
     9.6971   9.7391   9.8204   9.9359   9.9453   9.9942  10.1486  10.1587
    12.7473  12.8093  12.9838  13.0019  13.0878  13.2349  13.5867  13.5882
    13.6705  13.6713  13.6777  13.7085  13.8191  13.8210  13.9653  14.0227
    14.0679  14.0847  14.1251  14.2060  14.2685  14.2707  14.3643  14.3939
    14.8206  14.8978  14.9396  15.1987  15.5134  15.5714  15.8622  16.0173
    16.2591  16.3490  16.4583  16.4884  16.8518  16.9385  17.1047  17.1665

          k = 0.0000 0.3333-0.4946 ( 50094 PWs)   bands (ev):

   -46.1063 -46.1063 -46.1058 -46.1058 -46.1053 -46.1053 -46.1048 -46.1048
   -22.4176 -22.4176 -22.4162 -22.4162 -22.4149 -22.4149 -22.4137 -22.4137
   -22.3857 -22.3857 -22.3842 -22.3842 -22.3732 -22.3732 -22.3704 -22.3704
   -22.3465 -22.3465 -22.3442 -22.3442 -22.3325 -22.3325 -22.3315 -22.3315
   -14.3787 -14.3786 -14.3285 -14.3284 -14.2849 -14.2848 -14.2484 -14.2483
    -6.5183  -6.5181  -6.4824  -6.4822  -6.3885  -6.3884  -6.1369  -6.1368
    -5.8741  -5.8740  -5.8627  -5.8626  -5.7869  -5.7868  -5.7695  -5.7694
    -5.7024  -5.7023  -5.6907  -5.6906  -5.6510  -5.6509  -5.6347  -5.6346
    -0.0154  -0.0153   0.0945   0.0946   0.2168   0.2169   0.3708   0.3708
     0.3734   0.3734   0.3768   0.3769   0.3777   0.3778   0.4954   0.4954
     0.5922   0.5922   0.6160   0.6160   0.6164   0.6164   0.6437   0.6438
     6.2259   6.2260   6.2975   6.2976   6.6464   6.6465   6.8667   6.8668
     6.9976   6.9976   7.0526   7.0528   7.0637   7.0639   7.1262   7.1262
     7.1909   7.1911   7.3074   7.3076   7.3914   7.3915   7.5425   7.5426
     7.5437   7.5438   7.7198   7.7199   7.8714   7.8715   7.8850   7.8851
     7.9352   7.9352   7.9887   7.9887   8.0297   8.0298   8.1460   8.1461
     8.3577   8.3578   8.3954   8.3955   8.8643   8.8644   8.9650   8.9650
     9.1532   9.1533   9.2682   9.2683   9.3054   9.3055   9.3098   9.3099
     9.5036   9.5037   9.5278   9.5279   9.5858   9.5859   9.6962   9.6962
     9.7318   9.7318   9.7515   9.7515   9.8098   9.8098  10.1479  10.1480
    12.7809  12.7810  13.3368  13.3369  13.3448  13.3449  13.3682  13.3683
    13.5306  13.5306  13.6053  13.6054  13.7937  13.7937  14.0093  14.0094
    14.0544  14.0544  14.1532  14.1532  14.2449  14.2450  14.3219  14.3220
    14.8775  14.8775  15.1151  15.1151  15.8632  15.8632  16.0373  16.0374
    16.4796  16.4797  16.6647  16.6649  16.7769  16.7771  17.0358  17.0359

          k = 0.0000-0.5000 0.0000 ( 50018 PWs)   bands (ev):

   -46.1065 -46.1065 -46.1056 -46.1056 -46.1055 -46.1055 -46.1046 -46.1046
   -22.4406 -22.4406 -22.4375 -22.4375 -22.3930 -22.3930 -22.3909 -22.3909
   -22.3864 -22.3864 -22.3836 -22.3836 -22.3611 -22.3611 -22.3586 -22.3586
   -22.3583 -22.3583 -22.3563 -22.3563 -22.3329 -22.3329 -22.3311 -22.3311
   -14.3987 -14.3987 -14.3077 -14.3077 -14.2990 -14.2990 -14.2339 -14.2339
    -6.6145  -6.6145  -6.5294  -6.5294  -6.4588  -6.4588  -5.8712  -5.8711
    -5.8656  -5.8656  -5.8187  -5.8187  -5.7880  -5.7880  -5.7835  -5.7834
    -5.7371  -5.7371  -5.7206  -5.7206  -5.6629  -5.6629  -5.6264  -5.6264
    -0.0306  -0.0305   0.0187   0.0187   0.1471   0.1471   0.4058   0.4059
     0.4083   0.4084   0.4461   0.4461   0.4594   0.4594   0.5182   0.5182
     0.5707   0.5707   0.5768   0.5768   0.6313   0.6313   0.6358   0.6358
     6.0889   6.0889   6.2684   6.2684   6.3081   6.3081   6.5623   6.5623
     6.8541   6.8542   6.9779   6.9779   7.1651   7.1651   7.1977   7.1977
     7.2187   7.2187   7.2915   7.2915   7.3717   7.3718   7.6190   7.6191
     7.6581   7.6582   7.8505   7.8506   7.8883   7.8883   7.8899   7.8899
     7.8966   7.8966   7.9553   7.9553   8.0075   8.0075   8.4773   8.4774
     8.6931   8.6931   8.7786   8.7786   8.8765   8.8765   8.9125   8.9125
     8.9717   8.9717   9.1279   9.1279   9.1556   9.1556   9.2962   9.2962
     9.3119   9.3119   9.6376   9.6376   9.7620   9.7620   9.7638   9.7638
     9.7832   9.7832   9.8780   9.8780   9.9044   9.9044  10.2110  10.2110
    12.5965  12.5965  13.1817  13.1817  13.2102  13.2102  13.2415  13.2415
    13.2600  13.2600  14.0071  14.0071  14.0125  14.0125  14.0605  14.0605
    14.0874  14.0874  14.2557  14.2557  14.2642  14.2642  14.4872  14.4872
    14.5718  14.5718  15.0813  15.0813  15.1262  15.1263  15.6439  15.6439
    16.3972  16.3973  16.5413  16.5413  16.6272  16.6272  17.1777  17.1778

          k = 0.0000-0.5000 0.1649 ( 50082 PWs)   bands (ev):

   -46.1065 -46.1065 -46.1057 -46.1057 -46.1054 -46.1054 -46.1047 -46.1047
   -22.4374 -22.4374 -22.4344 -22.4344 -22.3963 -22.3963 -22.3941 -22.3941
   -22.3862 -22.3862 -22.3838 -22.3838 -22.3610 -22.3610 -22.3588 -22.3588
   -22.3582 -22.3582 -22.3564 -22.3564 -22.3328 -22.3328 -22.3312 -22.3312
   -14.3927 -14.3927 -14.3139 -14.3139 -14.2947 -14.2947 -14.2383 -14.2383
    -6.5934  -6.5934  -6.4962  -6.4962  -6.4552  -6.4552  -5.9639  -5.9639
    -5.8685  -5.8685  -5.8136  -5.8136  -5.7770  -5.7770  -5.7698  -5.7698
    -5.7319  -5.7319  -5.7263  -5.7263  -5.6598  -5.6598  -5.6282  -5.6282
    -0.0070  -0.0070   0.0035   0.0035   0.2283   0.2283   0.3370   0.3370
     0.3921   0.3921   0.4174   0.4174   0.4703   0.4703   0.4785   0.4785
     0.5961   0.5961   0.5984   0.5985   0.6192   0.6192   0.6429   0.6429
     6.1453   6.1453   6.3035   6.3035   6.3632   6.3632   6.6194   6.6194
     6.9075   6.9075   6.9933   6.9933   7.1475   7.1475   7.1869   7.1869
     7.2030   7.2031   7.3248   7.3249   7.3531   7.3531   7.6221   7.6221
     7.6941   7.6941   7.7892   7.7892   7.8849   7.8849   7.8896   7.8896
     7.8998   7.8998   7.9566   7.9566   7.9773   7.9773   8.3004   8.3005
     8.6227   8.6227   8.6475   8.6475   8.9328   8.9328   8.9717   8.9717
     9.0578   9.0578   9.1558   9.1558   9.1822   9.1822   9.2838   9.2838
     9.3180   9.3180   9.5951   9.5951   9.7199   9.7199   9.7207   9.7207
     9.7803   9.7803   9.8664   9.8664   9.8943   9.8943  10.1580  10.1580
    12.7010  12.7010  13.1881  13.1881  13.2357  13.2357  13.2425  13.2425
    13.3294  13.3294  13.9259  13.9259  13.9822  13.9822  14.0286  14.0286
    14.0995  14.0995  14.1849  14.1850  14.2516  14.2517  14.4411  14.4411
    14.6938  14.6938  15.1208  15.1208  15.2839  15.2839  15.7203  15.7203
    16.4769  16.4769  16.6458  16.6458  16.6724  16.6725  17.1308  17.1308

          k = 0.0000-0.5000 0.3297 ( 50124 PWs)   bands (ev):

   -46.1063 -46.1063 -46.1059 -46.1059 -46.1053 -46.1053 -46.1048 -46.1048
   -22.4288 -22.4288 -22.4259 -22.4259 -22.4050 -22.4050 -22.4026 -22.4026
   -22.3857 -22.3857 -22.3843 -22.3843 -22.3605 -22.3605 -22.3592 -22.3592
   -22.3578 -22.3578 -22.3568 -22.3568 -22.3325 -22.3325 -22.3316 -22.3316
   -14.3763 -14.3763 -14.3308 -14.3308 -14.2829 -14.2829 -14.2504 -14.2504
    -6.5405  -6.5405  -6.4562  -6.4561  -6.4024  -6.4023  -6.1094  -6.1094
    -5.8773  -5.8773  -5.8573  -5.8573  -5.7609  -5.7609  -5.7425  -5.7425
    -5.7350  -5.7350  -5.7314  -5.7314  -5.6518  -5.6518  -5.6336  -5.6336
     0.0015   0.0015   0.0984   0.0984   0.2016   0.2016   0.3667   0.3667
     0.3724   0.3724   0.3738   0.3738   0.3771   0.3772   0.5007   0.5007
     0.5866   0.5866   0.6117   0.6117   0.6292   0.6292   0.6350   0.6350
     6.2332   6.2332   6.2923   6.2923   6.6122   6.6122   6.8433   6.8433
     7.0275   7.0275   7.0465   7.0465   7.0898   7.0898   7.1076   7.1076
     7.2165   7.2166   7.3161   7.3161   7.4489   7.4489   7.5334   7.5334
     7.5518   7.5518   7.7727   7.7727   7.8685   7.8685   7.8959   7.8959
     7.8987   7.8987   7.9847   7.9847   8.0053   8.0054   8.0606   8.0606
     8.3432   8.3432   8.4435   8.4435   8.8728   8.8728   8.9692   8.9692
     9.2325   9.2325   9.2357   9.2357   9.2859   9.2859   9.3406   9.3406
     9.3718   9.3718   9.4872   9.4872   9.5613   9.5613   9.7392   9.7392
     9.8064   9.8064   9.8373   9.8373   9.8738   9.8738  10.0030  10.0030
    12.9664  12.9664  13.2119  13.2119  13.2186  13.2186  13.3508  13.3508
    13.5119  13.5119  13.6882  13.6882  13.7821  13.7821  13.9990  13.9991
    14.0907  14.0907  14.1344  14.1344  14.2170  14.2170  14.3293  14.3293
    14.9103  14.9103  15.0989  15.0989  15.7799  15.7799  15.9890  15.9890
    16.6095  16.6096  16.6987  16.6987  16.8441  16.8441  17.0460  17.0460

          k = 0.0000-0.5000-0.4946 ( 50120 PWs)   bands (ev):

   -46.1061 -46.1061 -46.1061 -46.1061 -46.1050 -46.1050 -46.1050 -46.1050
   -22.4169 -22.4169 -22.4169 -22.4169 -22.4143 -22.4143 -22.4143 -22.4143
   -22.3850 -22.3850 -22.3850 -22.3850 -22.3599 -22.3599 -22.3599 -22.3599
   -22.3573 -22.3573 -22.3573 -22.3573 -22.3320 -22.3320 -22.3320 -22.3320
   -14.3537 -14.3537 -14.3537 -14.3536 -14.2668 -14.2668 -14.2667 -14.2667
    -6.4847  -6.4847  -6.4846  -6.4846  -6.2651  -6.2651  -6.2650  -6.2650
    -5.8808  -5.8808  -5.8807  -5.8807  -5.7447  -5.7446  -5.7446  -5.7445
    -5.7357  -5.7357  -5.7356  -5.7355  -5.6421  -5.6421  -5.6420  -5.6420
     0.0762   0.0762   0.0762   0.0762   0.2326   0.2326   0.2327   0.2327
     0.3585   0.3585   0.3585   0.3586   0.5150   0.5150   0.5150   0.5150
     0.5430   0.5430   0.5431   0.5431   0.6465   0.6465   0.6465   0.6465
     6.2746   6.2746   6.2747   6.2747   6.9007   6.9007   6.9007   6.9007
     7.0656   7.0656   7.0656   7.0656   7.1745   7.1745   7.1746   7.1746
     7.2485   7.2485   7.2486   7.2486   7.3242   7.3242   7.3243   7.3243
     7.6959   7.6959   7.6960   7.6960   7.8350   7.8350   7.8351   7.8351
     7.8872   7.8872   7.8873   7.8873   8.1155   8.1155   8.1156   8.1156
     8.2295   8.2295   8.2296   8.2296   8.8737   8.8737   8.8737   8.8737
     9.3146   9.3146   9.3146   9.3146   9.3547   9.3547   9.3548   9.3548
     9.3878   9.3878   9.3878   9.3878   9.6942   9.6942   9.6942   9.6942
     9.7970   9.7970   9.7971   9.7971   9.8712   9.8712   9.8713   9.8713
    13.1813  13.1813  13.1814  13.1814  13.3693  13.3693  13.3694  13.3694
    13.5436  13.5436  13.5437  13.5437  13.7545  13.7545  13.7546  13.7546
    14.1664  14.1664  14.1664  14.1664  14.2070  14.2071  14.2071  14.2071
    15.0422  15.0422  15.0422  15.0422  16.3155  16.3155  16.3156  16.3156
    16.4209  16.4210  16.4211  16.4211  17.0225  17.0226  17.0229  17.2823

          k = 0.1667 0.1667 0.0000 ( 50050 PWs)   bands (ev):

   -46.1069 -46.1060 -46.1060 -46.1060 -46.1051 -46.1051 -46.1051 -46.1042
   -22.4419 -22.4388 -22.4388 -22.4365 -22.3938 -22.3920 -22.3920 -22.3902
   -22.3843 -22.3843 -22.3814 -22.3812 -22.3812 -22.3812 -22.3790 -22.3789
   -22.3376 -22.3374 -22.3356 -22.3356 -22.3356 -22.3355 -22.3338 -22.3338
   -14.4427 -14.3404 -14.3403 -14.3364 -14.2707 -14.2687 -14.2686 -14.2088
    -6.7203  -6.7203  -6.6544  -6.5357  -6.3230  -6.1541  -6.1541  -5.8927
    -5.8805  -5.8805  -5.8375  -5.8375  -5.8056  -5.7647  -5.7569  -5.7476
    -5.7271  -5.7271  -5.7214  -5.6975  -5.6642  -5.5892  -5.5596  -5.5596
    -0.3024  -0.2290  -0.1848   0.2730   0.2730   0.3041   0.3496   0.3497
     0.3700   0.3710   0.3862   0.4485   0.4598   0.5053   0.5053   0.5397
     0.5397   0.5790   0.6525   0.6525   0.7100   0.7143   0.7143   0.7412
     6.0181   6.1541   6.1541   6.1982   6.3149   6.4403   6.4403   6.4958
     6.4958   6.5019   6.6043   6.6594   6.6594   6.6826   6.6944   7.5239
     7.5955   7.5955   7.6026   7.6026   7.6303   7.6597   7.6680   7.6680
     7.7132   7.7338   7.7588   7.7588   7.7977   7.8803   7.9128   7.9521
     7.9996   7.9996   8.0137   8.0243   8.1092   8.2032   8.2032   8.5557
     8.5557   8.6798   8.7067   8.7067   8.8252   8.8651   8.9130   8.9935
     8.9948   8.9948   9.2050   9.2208   9.2364   9.2364   9.3544   9.4162
     9.4468   9.4468   9.5068   9.5068   9.5775   9.5775   9.5821   9.6169
    10.0013  10.0267  10.1381  10.1381  10.1413  10.1984  10.2560  10.2581
    12.4810  12.6025  12.6246  12.6381  12.7071  12.7071  13.8550  13.8550
    13.8799  13.8932  13.8932  13.9169  13.9169  13.9401  13.9791  14.0030
    14.0352  14.0352  14.2848  14.3276  14.3276  14.5024  14.5380  14.5437
    14.6946  14.6946  14.7086  14.7819  14.7895  15.1259  15.5118  15.5118
    15.6173  15.7495  16.3203  16.3203  16.6422  17.0646  17.2367  17.4058

          k = 0.1667 0.1667 0.1649 ( 50093 PWs)   bands (ev):

   -46.1068 -46.1061 -46.1059 -46.1059 -46.1052 -46.1052 -46.1050 -46.1043
   -22.4387 -22.4357 -22.4357 -22.4334 -22.3971 -22.3951 -22.3951 -22.3933
   -22.3841 -22.3841 -22.3814 -22.3814 -22.3813 -22.3811 -22.3792 -22.3791
   -22.3375 -22.3373 -22.3357 -22.3356 -22.3355 -22.3355 -22.3339 -22.3339
   -14.4357 -14.3437 -14.3356 -14.3356 -14.2736 -14.2735 -14.2666 -14.2130
    -6.6883  -6.6883  -6.6356  -6.5284  -6.2903  -6.2045  -6.2045  -5.8977
    -5.8672  -5.8672  -5.8342  -5.8342  -5.8108  -5.8029  -5.7675  -5.7375
    -5.7243  -5.7153  -5.7153  -5.7145  -5.6544  -5.6005  -5.5724  -5.5723
    -0.2636  -0.2318  -0.0927   0.2612   0.2894   0.2894   0.3115   0.3568
     0.3569   0.3754   0.3759   0.4537   0.4653   0.4653   0.4927   0.5519
     0.5557   0.5557   0.6561   0.6577   0.6577   0.7021   0.7021   0.7366
     6.0730   6.2002   6.2179   6.2179   6.4187   6.4825   6.4825   6.4979
     6.4979   6.5943   6.6670   6.6831   6.6935   6.7076   6.7076   7.5420
     7.5551   7.5551   7.6054   7.6054   7.6502   7.6502   7.6607   7.6812
     7.6826   7.7380   7.7945   7.8026   7.8026   7.8325   7.8325   7.8797
     7.9082   7.9272   7.9671   7.9969   8.1375   8.1423   8.1423   8.4969
     8.5824   8.5824   8.7605   8.7836   8.8991   8.9329   8.9329   8.9651
     8.9651   8.9915   9.2241   9.2241   9.2392   9.2635   9.3570   9.3570
     9.3958   9.4619   9.4949   9.4949   9.5109   9.5109   9.5461   9.6059
     9.9482   9.9673  10.0675  10.1031  10.1031  10.1126  10.2589  10.2726
    12.4956  12.6156  12.7032  12.7282  12.8059  12.8059  13.8603  13.8603
    13.8897  13.9028  13.9028  13.9082  13.9082  13.9145  13.9224  13.9551
    13.9551  13.9747  14.2773  14.2774  14.2990  14.4766  14.4876  14.5026
    14.7824  14.7881  14.8399  14.8399  14.8939  15.3374  15.5045  15.5046
    15.7355  15.8746  16.3846  16.3846  16.5466  17.0713  17.3427  17.3687

          k = 0.1667 0.1667 0.3297 ( 50052 PWs)   bands (ev):

   -46.1067 -46.1062 -46.1058 -46.1058 -46.1053 -46.1053 -46.1049 -46.1044
   -22.4299 -22.4272 -22.4272 -22.4250 -22.4059 -22.4037 -22.4037 -22.4018
   -22.3835 -22.3835 -22.3820 -22.3820 -22.3808 -22.3807 -22.3796 -22.3795
   -22.3371 -22.3369 -22.3361 -22.3360 -22.3351 -22.3351 -22.3342 -22.3342
   -14.4166 -14.3635 -14.3227 -14.3227 -14.2869 -14.2868 -14.2554 -14.2244
    -6.5984  -6.5984  -6.5890  -6.5210  -6.3247  -6.3247  -6.1990  -5.9282
    -5.8967  -5.8427  -5.8427  -5.8277  -5.8277  -5.7955  -5.7906  -5.7750
    -5.7098  -5.6962  -5.6874  -5.6874  -5.6557  -5.6307  -5.6062  -5.6062
    -0.1597  -0.1565   0.0859   0.1461   0.1619   0.3223   0.3223   0.3855
     0.3922   0.3946   0.3947   0.4076   0.4076   0.4371   0.4911   0.5074
     0.5355   0.5355   0.5731   0.6682   0.6683   0.6839   0.6839   0.7103
     6.1608   6.2036   6.3301   6.3301   6.4491   6.4491   6.6797   6.6797
     6.6849   6.6909   6.7054   6.8403   6.8927   6.8927   6.9078   7.3102
     7.3102   7.4883   7.5079   7.5347   7.5347   7.6120   7.6120   7.6145
     7.6468   7.6468   7.6836   7.7439   7.7957   7.8636   7.8907   7.9054
     7.9180   7.9180   7.9435   8.0850   8.0892   8.1331   8.1331   8.2196
     8.5570   8.5881   8.6494   8.6494   8.8218   8.8218   8.9932   9.0152
     9.1097   9.1097   9.2194   9.2198   9.2198   9.3102   9.3102   9.3327
     9.3992   9.4393   9.4393   9.4822   9.4822   9.5192   9.5718   9.6734
     9.8226   9.8712   9.8802   9.9298   9.9875   9.9875  10.2621  10.2750
    12.5233  12.5909  12.9752  12.9760  13.0632  13.0632  13.6458  13.6708
    13.7147  13.7147  13.8732  13.8732  13.9059  13.9059  13.9422  13.9423
    14.0358  14.0711  14.1567  14.1567  14.3382  14.3558  14.3623  14.4504
    14.7834  14.7859  15.1375  15.1375  15.3381  15.4687  15.4687  15.8652
    16.0575  16.2335  16.2694  16.6088  16.6088  16.9291  16.9738  17.4573

          k = 0.1667 0.1667-0.4946 ( 50010 PWs)   bands (ev):

   -46.1065 -46.1065 -46.1056 -46.1056 -46.1055 -46.1055 -46.1047 -46.1047
   -22.4180 -22.4180 -22.4155 -22.4155 -22.4155 -22.4155 -22.4134 -22.4134
   -22.3827 -22.3827 -22.3827 -22.3827 -22.3802 -22.3802 -22.3801 -22.3801
   -22.3366 -22.3366 -22.3364 -22.3364 -22.3347 -22.3347 -22.3347 -22.3347
   -14.3903 -14.3902 -14.3049 -14.3049 -14.3048 -14.3048 -14.2400 -14.2399
    -6.5411  -6.5410  -6.4682  -6.4682  -6.4680  -6.4680  -6.0686  -6.0685
    -5.8604  -5.8603  -5.8277  -5.8277  -5.8276  -5.8276  -5.7853  -5.7852
    -5.6733  -5.6732  -5.6709  -5.6708  -5.6493  -5.6493  -5.6491  -5.6491
    -0.0152  -0.0152  -0.0073  -0.0072   0.3012   0.3013   0.3583   0.3583
     0.3584   0.3584   0.4145   0.4146   0.4282   0.4282   0.4677   0.4677
     0.4677   0.4678   0.6527   0.6527   0.6764   0.6764   0.6764   0.6764
     6.1984   6.1986   6.4023   6.4023   6.4024   6.4024   6.6876   6.6877
     6.9639   6.9640   6.9640   6.9640   7.1038   7.1040   7.1461   7.1461
     7.2244   7.2244   7.2245   7.2245   7.3750   7.3752   7.6222   7.6222
     7.6223   7.6223   7.7357   7.7358   7.8519   7.8520   7.8532   7.8532
     7.9105   7.9106   8.0530   8.0530   8.0531   8.0531   8.3452   8.3453
     8.3576   8.3577   8.7224   8.7224   8.7224   8.7224   9.1182   9.1182
     9.1199   9.1199   9.1470   9.1471   9.1471   9.1471   9.3227   9.3227
     9.3227   9.3227   9.6205   9.6205   9.7008   9.7009   9.7112   9.7112
     9.7721   9.7722   9.7732   9.7732   9.7732   9.7732  10.2684  10.2686
    12.5574  12.5574  13.3116  13.3117  13.3305  13.3306  13.3952  13.3952
    13.3953  13.3953  13.8895  13.8895  13.8896  13.8896  14.0292  14.0292
    14.0293  14.0293  14.1919  14.1920  14.2101  14.2101  14.3931  14.3932
    14.7844  14.7844  15.3637  15.3637  15.3637  15.3637  15.8428  15.8429
    16.4790  16.4792  16.5044  16.5046  16.7723  16.7724  17.0083  17.0083

          k = 0.1667 0.3333 0.0000 ( 50069 PWs)   bands (ev):

   -46.1067 -46.1062 -46.1058 -46.1058 -46.1053 -46.1053 -46.1049 -46.1044
   -22.4412 -22.4395 -22.4383 -22.4370 -22.3934 -22.3924 -22.3916 -22.3906
   -22.3836 -22.3819 -22.3807 -22.3794 -22.3744 -22.3717 -22.3716 -22.3695
   -22.3474 -22.3453 -22.3452 -22.3434 -22.3371 -22.3360 -22.3352 -22.3341
   -14.4215 -14.3624 -14.3258 -14.3223 -14.2856 -14.2832 -14.2561 -14.2216
    -6.6641  -6.6381  -6.5605  -6.5516  -6.4077  -6.2766  -6.0576  -5.8743
    -5.8547  -5.8446  -5.8421  -5.8145  -5.7907  -5.7898  -5.7701  -5.7595
    -5.7493  -5.7343  -5.7208  -5.6976  -5.6967  -5.6398  -5.6156  -5.5990
    -0.2079  -0.1058  -0.0137   0.1325   0.2237   0.2942   0.3265   0.3816
     0.3934   0.4164   0.4265   0.4465   0.4528   0.4609   0.4663   0.5040
     0.5241   0.5713   0.6148   0.6499   0.6505   0.6534   0.6719   0.6730
     6.1008   6.1526   6.2319   6.2947   6.3165   6.4551   6.5770   6.5956
     6.6259   6.7220   6.7839   6.7934   6.8735   6.9250   6.9295   7.2320
     7.4292   7.4908   7.5641   7.5864   7.5895   7.6311   7.6326   7.6611
     7.6645   7.6680   7.6826   7.7669   7.7959   7.8091   7.8437   7.8933
     7.9279   7.9512   7.9774   8.0449   8.1448   8.1747   8.1983   8.3059
     8.6100   8.6636   8.7031   8.7120   8.7335   8.7900   8.9514   8.9629
     8.9919   9.1200   9.1315   9.1536   9.2837   9.2918   9.3031   9.3925
     9.4178   9.4301   9.4417   9.4572   9.5745   9.5947   9.6263   9.6642
     9.8732   9.9220   9.9821  10.0023  10.0541  10.1384  10.1462  10.1786
    12.6081  12.6822  12.8158  12.8594  12.9132  12.9255  13.5838  13.6072
    13.6155  13.6622  13.8846  13.9138  13.9139  13.9872  14.0163  14.0265
    14.0266  14.1097  14.1486  14.2030  14.3602  14.3724  14.4064  14.4956
    14.7086  14.7221  14.9392  15.0996  15.1352  15.2420  15.4676  15.9992
    16.0486  16.0969  16.0991  16.6270  16.8661  17.0158  17.0538  17.2942

          k = 0.1667 0.3333 0.1649 ( 50052 PWs)   bands (ev):

   -46.1066 -46.1061 -46.1059 -46.1057 -46.1054 -46.1052 -46.1050 -46.1045
   -22.4381 -22.4364 -22.4352 -22.4339 -22.3967 -22.3955 -22.3947 -22.3937
   -22.3834 -22.3818 -22.3809 -22.3796 -22.3742 -22.3718 -22.3716 -22.3696
   -22.3473 -22.3454 -22.3452 -22.3435 -22.3370 -22.3359 -22.3353 -22.3343
   -14.4150 -14.3572 -14.3291 -14.3212 -14.2886 -14.2814 -14.2609 -14.2259
    -6.6360  -6.6059  -6.5471  -6.5376  -6.3750  -6.2949  -6.1132  -5.8810
    -5.8762  -5.8529  -5.8436  -5.8366  -5.8102  -5.7881  -5.7664  -5.7512
    -5.7449  -5.7252  -5.7141  -5.6936  -5.6910  -5.6499  -5.6233  -5.6071
    -0.1759  -0.1207   0.0797   0.1590   0.2074   0.2828   0.2996   0.3789
     0.3793   0.3901   0.3949   0.3967   0.4238   0.4453   0.4862   0.5053
     0.5322   0.5512   0.5727   0.6615   0.6645   0.6800   0.6917   0.6994
     6.1659   6.2177   6.3137   6.3157   6.3936   6.4442   6.6272   6.6346
     6.6695   6.7637   6.7726   6.8256   6.8795   6.9234   6.9660   7.2621
     7.3642   7.4657   7.5321   7.5619   7.6113   7.6167   7.6244   7.6769
     7.6790   7.6815   7.6960   7.7347   7.8272   7.8357   7.8473   7.8731
     7.8950   7.9320   7.9338   8.0457   8.0693   8.0717   8.1714   8.2351
     8.5295   8.5547   8.6321   8.6975   8.7089   8.8930   8.9304   9.0373
     9.0518   9.1617   9.1661   9.2052   9.2179   9.2508   9.3434   9.3988
     9.4131   9.4185   9.4613   9.4950   9.4998   9.5711   9.5967   9.6414
     9.8284   9.8677   9.9118   9.9856  10.0326  10.1046  10.1338  10.1523
    12.6983  12.7816  12.8397  12.9171  12.9185  12.9995  13.5921  13.6229
    13.6553  13.6680  13.8985  13.8988  13.9260  13.9303  13.9424  13.9452
    14.0070  14.0406  14.1395  14.1626  14.3223  14.3338  14.3568  14.4457
    14.8523  14.8633  15.1003  15.1182  15.2904  15.3449  15.4608  16.0466
    16.0983  16.1580  16.2192  16.6549  16.7682  17.0793  17.0902  17.4654

          k = 0.1667 0.3333 0.3297 ( 50056 PWs)   bands (ev):

   -46.1065 -46.1060 -46.1060 -46.1056 -46.1055 -46.1051 -46.1051 -46.1046
   -22.4294 -22.4278 -22.4267 -22.4255 -22.4055 -22.4042 -22.4033 -22.4022
   -22.3829 -22.3815 -22.3813 -22.3801 -22.3737 -22.3723 -22.3712 -22.3700
   -22.3469 -22.3458 -22.3448 -22.3439 -22.3366 -22.3356 -22.3355 -22.3346
   -14.3971 -14.3475 -14.3429 -14.3086 -14.3033 -14.2738 -14.2698 -14.2378
    -6.5588  -6.5170  -6.5153  -6.5090  -6.3561  -6.2835  -6.2382  -6.0062
    -5.8900  -5.8615  -5.8443  -5.8213  -5.8099  -5.8010  -5.7811  -5.7564
    -5.7299  -5.7044  -5.7042  -5.6847  -5.6760  -5.6730  -5.6441  -5.6284
    -0.1036  -0.0577   0.1609   0.1954   0.2323   0.2356   0.2523   0.3038
     0.3147   0.3610   0.3800   0.3908   0.4016   0.4271   0.4475   0.4657
     0.4772   0.5863   0.5915   0.6497   0.6940   0.6968   0.7154   0.7250
     6.2699   6.3150   6.3253   6.4178   6.4897   6.6615   6.7091   6.7896
     6.7914   6.8276   6.8544   6.9506   6.9510   6.9567   7.1043   7.1943
     7.3385   7.3566   7.3723   7.3763   7.5331   7.6066   7.6068   7.6402
     7.6536   7.6856   7.6962   7.7150   7.8268   7.8580   7.8629   7.8796
     7.8964   7.8985   7.9125   7.9333   7.9583   8.1455   8.1881   8.1999
     8.2377   8.3151   8.4716   8.5144   8.7029   8.7746   8.8883   9.0544
     9.1622   9.2161   9.2298   9.3054   9.3059   9.3144   9.3816   9.3874
     9.4010   9.4667   9.4797   9.4849   9.5434   9.6047   9.6062   9.6138
     9.7143   9.7425   9.7989   9.9060   9.9223   9.9715  10.1242  10.1250
    12.8172  12.8940  13.0119  13.0400  13.1024  13.2251  13.6105  13.6219
    13.6619  13.6851  13.6962  13.7279  13.8067  13.8095  13.9301  13.9730
    13.9834  13.9996  14.0338  14.1890  14.2008  14.2014  14.2963  14.3299
    15.0426  15.0994  15.1386  15.4299  15.5217  15.5703  15.8711  16.0129
    16.3706  16.3790  16.4840  16.5673  16.7684  16.9750  17.1870  17.2130

          k = 0.1667 0.3333-0.4946 ( 50072 PWs)   bands (ev):

   -46.1063 -46.1063 -46.1057 -46.1057 -46.1054 -46.1054 -46.1048 -46.1048
   -22.4174 -22.4174 -22.4160 -22.4160 -22.4151 -22.4151 -22.4139 -22.4139
   -22.3822 -22.3822 -22.3807 -22.3807 -22.3730 -22.3730 -22.3706 -22.3706
   -22.3463 -22.3463 -22.3443 -22.3443 -22.3361 -22.3361 -22.3351 -22.3351
   -14.3725 -14.3724 -14.3232 -14.3231 -14.2913 -14.2913 -14.2539 -14.2538
    -6.4974  -6.4973  -6.4545  -6.4543  -6.3838  -6.3837  -6.1516  -6.1515
    -5.8733  -5.8732  -5.8531  -5.8530  -5.7973  -5.7972  -5.7694  -5.7693
    -5.7083  -5.7081  -5.6932  -5.6931  -5.6688  -5.6687  -5.6547  -5.6545
     0.0106   0.0106   0.0782   0.0782   0.2284   0.2285   0.3394   0.3395
     0.3431   0.3431   0.3652   0.3653   0.4268   0.4268   0.4375   0.4375
     0.4441   0.4441   0.6649   0.6649   0.7070   0.7070   0.7157   0.7157
     6.3093   6.3095   6.3830   6.3831   6.6250   6.6250   6.8691   6.8692
     6.9916   6.9916   7.0155   7.0156   7.0632   7.0633   7.1100   7.1101
     7.2537   7.2538   7.3766   7.3767   7.3797   7.3798   7.5096   7.5097
     7.5911   7.5912   7.7466   7.7467   7.7906   7.7907   7.8750   7.8751
     7.9428   7.9429   7.9663   7.9664   8.0818   8.0819   8.0844   8.0844
     8.2869   8.2870   8.3405   8.3406   8.6913   8.6913   8.9139   8.9139
     9.2112   9.2112   9.2944   9.2945   9.3099   9.3099   9.4011   9.4011
     9.5244   9.5245   9.5448   9.5450   9.5937   9.5938   9.6932   9.6932
     9.7203   9.7204   9.7360   9.7361   9.7882   9.7882  10.1186  10.1188
    12.8605  12.8606  13.3407  13.3407  13.3704  13.3704  13.3858  13.3859
    13.5199  13.5200  13.6362  13.6363  13.8107  13.8108  13.9656  13.9657
    13.9945  13.9945  14.0690  14.0690  14.1641  14.1641  14.2565  14.2566
    15.0891  15.0892  15.3412  15.3413  15.8658  15.8658  16.0503  16.0504
    16.4948  16.4949  16.7592  16.7594  16.7782  16.7783  17.0445  17.0943

          k = 0.1667-0.5000 0.0000 ( 50020 PWs)   bands (ev):

   -46.1064 -46.1064 -46.1056 -46.1056 -46.1055 -46.1055 -46.1047 -46.1047
   -22.4404 -22.4404 -22.4377 -22.4377 -22.3929 -22.3929 -22.3911 -22.3911
   -22.3828 -22.3828 -22.3801 -22.3801 -22.3610 -22.3610 -22.3585 -22.3585
   -22.3584 -22.3584 -22.3565 -22.3565 -22.3365 -22.3365 -22.3346 -22.3346
   -14.3921 -14.3921 -14.3058 -14.3058 -14.3029 -14.3028 -14.2389 -14.2389
    -6.5980  -6.5980  -6.5238  -6.5237  -6.4249  -6.4249  -5.9216  -5.9216
    -5.8561  -5.8561  -5.8185  -5.8185  -5.7890  -5.7890  -5.7849  -5.7849
    -5.7313  -5.7312  -5.7292  -5.7292  -5.6566  -5.6566  -5.6506  -5.6506
    -0.0472  -0.0472   0.0569   0.0569   0.2182   0.2182   0.3349   0.3349
     0.3786   0.3786   0.4186   0.4186   0.4590   0.4590   0.5364   0.5364
     0.5504   0.5504   0.6045   0.6045   0.6253   0.6253   0.6391   0.6391
     6.1415   6.1415   6.2698   6.2698   6.3997   6.3997   6.6214   6.6214
     6.8621   6.8621   7.0442   7.0442   7.1333   7.1333   7.1835   7.1836
     7.2261   7.2261   7.2924   7.2925   7.3635   7.3636   7.6487   7.6488
     7.6615   7.6616   7.8074   7.8074   7.8524   7.8524   7.8883   7.8883
     7.9337   7.9337   7.9542   7.9542   8.0280   8.0280   8.4104   8.4104
     8.4977   8.4978   8.6692   8.6692   8.8985   8.8985   8.9668   8.9668
     9.0353   9.0353   9.0710   9.0710   9.1049   9.1049   9.3240   9.3240
     9.3620   9.3620   9.6543   9.6543   9.7545   9.7545   9.7679   9.7679
     9.7883   9.7883   9.8203   9.8203   9.9137   9.9137  10.1599  10.1599
    12.6481  12.6481  13.2027  13.2027  13.2290  13.2290  13.2517  13.2517
    13.3046  13.3046  13.9022  13.9022  14.0046  14.0046  14.0122  14.0122
    14.0785  14.0785  14.1859  14.1859  14.2459  14.2460  14.4339  14.4339
    14.7181  14.7181  15.0896  15.0896  15.3452  15.3452  15.7242  15.7242
    16.5150  16.5151  16.6382  16.6382  16.6490  16.6490  17.0925  17.0925

          k = 0.1667-0.5000 0.1649 ( 50058 PWs)   bands (ev):

   -46.1064 -46.1064 -46.1056 -46.1056 -46.1055 -46.1055 -46.1047 -46.1047
   -22.4372 -22.4372 -22.4346 -22.4346 -22.3961 -22.3961 -22.3942 -22.3942
   -22.3826 -22.3826 -22.3803 -22.3803 -22.3608 -22.3608 -22.3586 -22.3586
   -22.3584 -22.3584 -22.3566 -22.3566 -22.3364 -22.3364 -22.3348 -22.3348
   -14.3863 -14.3863 -14.3090 -14.3089 -14.3014 -14.3014 -14.2435 -14.2435
    -6.5761  -6.5761  -6.4913  -6.4912  -6.4225  -6.4225  -5.9895  -5.9895
    -5.8592  -5.8592  -5.8122  -5.8122  -5.7892  -5.7892  -5.7789  -5.7789
    -5.7358  -5.7357  -5.7269  -5.7269  -5.6572  -5.6572  -5.6528  -5.6528
    -0.0196  -0.0196   0.0363   0.0363   0.2957   0.2957   0.3300   0.3300
     0.3344   0.3344   0.4144   0.4144   0.4254   0.4254   0.4634   0.4634
     0.5009   0.5009   0.6458   0.6458   0.6679   0.6679   0.6747   0.6747
     6.2084   6.2084   6.3621   6.3621   6.3929   6.3929   6.6619   6.6619
     6.9059   6.9059   7.0395   7.0396   7.1168   7.1168   7.1487   7.1487
     7.2389   7.2389   7.3236   7.3236   7.3728   7.3729   7.6670   7.6670
     7.6882   7.6882   7.7401   7.7401   7.8458   7.8458   7.8647   7.8647
     7.9545   7.9545   7.9586   7.9586   7.9767   7.9767   8.3134   8.3135
     8.4165   8.4165   8.5864   8.5864   8.8434   8.8434   8.9718   8.9718
     9.1210   9.1210   9.1433   9.1433   9.1455   9.1455   9.3055   9.3055
     9.3904   9.3905   9.6298   9.6298   9.6951   9.6951   9.7330   9.7330
     9.7667   9.7667   9.8364   9.8364   9.9018   9.9018  10.1139  10.1139
    12.7475  12.7475  13.2173  13.2173  13.2574  13.2574  13.2971  13.2972
    13.3203  13.3203  13.9260  13.9260  13.9265  13.9265  14.0011  14.0011
    14.0175  14.0175  14.1591  14.1592  14.1885  14.1885  14.3836  14.3836
    14.8609  14.8609  15.2919  15.2919  15.3419  15.3419  15.7789  15.7790
    16.5895  16.5895  16.6594  16.6594  16.7554  16.7554  17.0959  17.0959

          k = 0.1667-0.5000 0.3297 ( 50104 PWs)   bands (ev):

   -46.1062 -46.1062 -46.1058 -46.1058 -46.1053 -46.1053 -46.1049 -46.1049
   -22.4286 -22.4286 -22.4261 -22.4261 -22.4048 -22.4048 -22.4028 -22.4028
   -22.3821 -22.3821 -22.3808 -22.3808 -22.3603 -22.3603 -22.3591 -22.3591
   -22.3580 -22.3580 -22.3570 -22.3570 -22.3361 -22.3361 -22.3351 -22.3351
   -14.3702 -14.3702 -14.3255 -14.3255 -14.2893 -14.2893 -14.2559 -14.2559
    -6.5206  -6.5206  -6.4269  -6.4269  -6.3999  -6.3999  -6.1205  -6.1205
    -5.8692  -5.8692  -5.8534  -5.8534  -5.7648  -5.7648  -5.7610  -5.7609
    -5.7410  -5.7410  -5.7298  -5.7298  -5.6603  -5.6603  -5.6581  -5.6581
     0.0241   0.0241   0.0835   0.0835   0.2122   0.2122   0.3333   0.3333
     0.3379   0.3379   0.3668   0.3668   0.4238   0.4238   0.4388   0.4388
     0.4563   0.4563   0.6600   0.6600   0.7030   0.7030   0.7180   0.7180
     6.3150   6.3150   6.3782   6.3782   6.5978   6.5978   6.8399   6.8399
     7.0289   7.0289   7.0353   7.0353   7.0438   7.0438   7.1041   7.1041
     7.2721   7.2721   7.3757   7.3757   7.4296   7.4296   7.5148   7.5148
     7.6001   7.6001   7.7810   7.7810   7.7829   7.7829   7.8911   7.8911
     7.9089   7.9089   7.9833   7.9833   8.0289   8.0289   8.0686   8.0686
     8.3077   8.3077   8.3242   8.3242   8.7540   8.7540   8.8294   8.8295
     9.2304   9.2304   9.2913   9.2913   9.2941   9.2941   9.4149   9.4149
     9.4337   9.4337   9.5437   9.5437   9.5601   9.5601   9.7194   9.7194
     9.7844   9.7844   9.8234   9.8234   9.8767   9.8767   9.9792   9.9792
    13.0010  13.0010  13.2494  13.2494  13.2750  13.2751  13.3664  13.3664
    13.5007  13.5007  13.6933  13.6933  13.8014  13.8014  13.9839  13.9839
    13.9959  13.9959  14.0546  14.0546  14.1411  14.1411  14.2611  14.2611
    15.1225  15.1225  15.3250  15.3250  15.7889  15.7890  16.0020  16.0020
    16.6183  16.6184  16.7995  16.7995  16.8440  16.8440  17.0954  17.1132

          k = 0.1667-0.5000-0.4946 ( 50104 PWs)   bands (ev):

   -46.1060 -46.1060 -46.1060 -46.1060 -46.1051 -46.1051 -46.1051 -46.1051
   -22.4167 -22.4167 -22.4167 -22.4167 -22.4145 -22.4145 -22.4145 -22.4145
   -22.3815 -22.3815 -22.3814 -22.3814 -22.3597 -22.3597 -22.3597 -22.3597
   -22.3575 -22.3575 -22.3575 -22.3575 -22.3356 -22.3356 -22.3356 -22.3356
   -14.3480 -14.3480 -14.3479 -14.3479 -14.2727 -14.2727 -14.2726 -14.2726
    -6.4605  -6.4605  -6.4603  -6.4603  -6.2676  -6.2676  -6.2675  -6.2675
    -5.8746  -5.8746  -5.8746  -5.8746  -5.7540  -5.7540  -5.7540  -5.7539
    -5.7375  -5.7375  -5.7374  -5.7374  -5.6622  -5.6622  -5.6620  -5.6620
     0.0949   0.0949   0.0949   0.0949   0.2041   0.2041   0.2042   0.2042
     0.3391   0.3392   0.3392   0.3392   0.4325   0.4325   0.4326   0.4326
     0.5749   0.5749   0.5749   0.5749   0.7303   0.7303   0.7304   0.7304
     6.3597   6.3597   6.3598   6.3598   6.8595   6.8595   6.8595   6.8595
     7.0077   7.0077   7.0078   7.0078   7.2471   7.2471   7.2471   7.2472
     7.2472   7.2472   7.2472   7.2472   7.3899   7.3899   7.3899   7.3899
     7.6198   7.6198   7.6199   7.6199   7.8913   7.8913   7.8914   7.8914
     7.8915   7.8915   7.8915   7.8915   8.0839   8.0840   8.0840   8.0840
     8.1714   8.1714   8.1714   8.1715   8.7268   8.7268   8.7269   8.7269
     9.3222   9.3222   9.3222   9.3222   9.4112   9.4112   9.4113   9.4113
     9.4589   9.4589   9.4590   9.4590   9.6923   9.6923   9.6923   9.6923
     9.7697   9.7697   9.7697   9.7697   9.8694   9.8694   9.8696   9.8696
    13.2272  13.2273  13.2273  13.2273  13.3890  13.3890  13.3891  13.3891
    13.5615  13.5615  13.5616  13.5616  13.7411  13.7411  13.7412  13.7412
    14.0844  14.0845  14.0845  14.0845  14.1284  14.1284  14.1285  14.1285
    15.2713  15.2713  15.2713  15.2713  16.3280  16.3281  16.3282  16.3282
    16.4177  16.4177  16.4178  16.4178  17.1860  17.1861  17.1862  17.1863

          k = 0.3333 0.3333 0.0000 ( 50042 PWs)   bands (ev):

   -46.1065 -46.1060 -46.1060 -46.1056 -46.1055 -46.1051 -46.1051 -46.1046
   -22.4406 -22.4390 -22.4390 -22.4375 -22.3931 -22.3920 -22.3920 -22.3910
   -22.3739 -22.3739 -22.3726 -22.3720 -22.3712 -22.3712 -22.3701 -22.3698
   -22.3473 -22.3467 -22.3458 -22.3457 -22.3450 -22.3447 -22.3438 -22.3438
   -14.4016 -14.3464 -14.3464 -14.3085 -14.3021 -14.2703 -14.2703 -14.2347
    -6.5986  -6.5986  -6.5444  -6.4662  -6.4464  -6.1811  -6.1811  -5.8992
    -5.8478  -5.8289  -5.8289  -5.8200  -5.8200  -5.7945  -5.7944  -5.7609
    -5.7593  -5.7294  -5.7207  -5.6943  -5.6943  -5.6735  -5.6735  -5.6281
    -0.1560   0.0035   0.1407   0.1408   0.1610   0.2823   0.3089   0.3090
     0.3188   0.3574   0.4012   0.4013   0.4471   0.5290   0.5355   0.5355
     0.5370   0.5371   0.5557   0.5925   0.6360   0.6391   0.6602   0.6602
     6.1840   6.2333   6.2333   6.2849   6.4888   6.7111   6.7111   6.7239
     6.7239   6.8071   6.9624   6.9683   6.9750   6.9750   6.9819   7.0874
     7.3335   7.4000   7.4885   7.4885   7.5487   7.5531   7.6068   7.6068
     7.7314   7.7530   7.7530   7.7652   7.7966   7.7966   7.8447   7.8448
     7.8957   7.9271   7.9479   7.9683   7.9902   8.2606   8.2606   8.3106
     8.3107   8.3593   8.5923   8.6171   8.6171   8.6268   8.7799   8.9157
     9.0888   9.0888   9.1748   9.2179   9.3049   9.3448   9.3993   9.4147
     9.4751   9.4751   9.5133   9.5133   9.5286   9.5286   9.7088   9.7088
     9.8149   9.8807   9.8830   9.9267   9.9982   9.9982  10.0585  10.0702
    12.7619  12.8888  12.8888  12.9384  13.0279  13.1638  13.5350  13.6072
    13.6072  13.6598  13.6598  13.7017  13.7956  13.7956  13.9790  14.0085
    14.0462  14.0878  14.0878  14.1956  14.2469  14.2469  14.3543  14.3723
    14.9019  14.9530  14.9530  15.1398  15.5079  15.5497  16.0085  16.0085
    16.3847  16.3885  16.3910  16.3910  16.9925  17.0906  17.2357  17.2685

          k = 0.3333 0.3333 0.1649 ( 50077 PWs)   bands (ev):

   -46.1065 -46.1059 -46.1059 -46.1057 -46.1054 -46.1052 -46.1052 -46.1047
   -22.4375 -22.4358 -22.4358 -22.4344 -22.3963 -22.3952 -22.3952 -22.3941
   -22.3737 -22.3737 -22.3724 -22.3718 -22.3713 -22.3713 -22.3703 -22.3699
   -22.3471 -22.3465 -22.3456 -22.3456 -22.3451 -22.3448 -22.3439 -22.3439
   -14.3955 -14.3414 -14.3414 -14.3149 -14.2976 -14.2755 -14.2755 -14.2393
    -6.5695  -6.5695  -6.5259  -6.4575  -6.4147  -6.2031  -6.2031  -5.9518
    -5.8570  -5.8352  -5.8352  -5.8180  -5.8180  -5.7901  -5.7813  -5.7749
    -5.7524  -5.7338  -5.7219  -5.6935  -5.6935  -5.6800  -5.6800  -5.6375
    -0.1251  -0.0194   0.1601   0.1601   0.2471   0.2800   0.2801   0.2860
     0.2878   0.3528   0.3778   0.3779   0.4018   0.4125   0.4654   0.4655
     0.4823   0.5878   0.5878   0.6507   0.6852   0.7021   0.7136   0.7136
     6.2661   6.3148   6.3148   6.3782   6.4810   6.7032   6.7032   6.7305
     6.7305   6.8159   6.9620   6.9670   7.0070   7.0119   7.0119   7.1087
     7.3377   7.3567   7.4286   7.4286   7.5654   7.6221   7.6315   7.6315
     7.6798   7.6798   7.7397   7.7539   7.8595   7.8595   7.8626   7.8660
     7.8660   7.8954   7.9207   7.9553   7.9864   8.1273   8.1273   8.3033
     8.3033   8.3431   8.4841   8.5084   8.6255   8.6255   8.7332   8.8655
     9.1780   9.1841   9.1841   9.2973   9.3614   9.3631   9.4004   9.4004
     9.4465   9.4512   9.4642   9.4642   9.5922   9.5922   9.6811   9.6811
     9.7551   9.8500   9.8621   9.8804   9.9742   9.9742  10.0475  10.0606
    12.8463  12.9739  12.9739  12.9917  13.0458  13.1540  13.5912  13.6291
    13.6291  13.6731  13.6731  13.7351  13.7841  13.7841  13.9216  13.9633
    13.9938  14.0083  14.0083  14.1780  14.1847  14.1847  14.2940  14.3138
    15.0967  15.1337  15.1337  15.3482  15.5123  15.5472  16.0059  16.0059
    16.4132  16.4132  16.4672  16.4904  16.8899  17.1169  17.2644  17.3061

          k = 0.3333 0.3333 0.3297 ( 50070 PWs)   bands (ev):

   -46.1063 -46.1059 -46.1058 -46.1058 -46.1053 -46.1053 -46.1053 -46.1048
   -22.4288 -22.4273 -22.4273 -22.4260 -22.4050 -22.4038 -22.4038 -22.4027
   -22.3732 -22.3732 -22.3720 -22.3718 -22.3718 -22.3714 -22.3707 -22.3703
   -22.3467 -22.3462 -22.3456 -22.3453 -22.3453 -22.3452 -22.3443 -22.3443
   -14.3787 -14.3322 -14.3277 -14.3276 -14.2896 -14.2896 -14.2854 -14.2518
    -6.4894  -6.4894  -6.4828  -6.4424  -6.3263  -6.2731  -6.2731  -6.0651
    -5.8737  -5.8371  -5.8371  -5.8311  -5.8169  -5.8169  -5.7784  -5.7509
    -5.7459  -5.7289  -5.7261  -5.6955  -5.6955  -5.6930  -5.6930  -5.6626
    -0.0400  -0.0044   0.1972   0.2126   0.2126   0.2363   0.2506   0.2506
     0.3023   0.3159   0.3159   0.3399   0.3542   0.3731   0.3732   0.3983
     0.4082   0.6706   0.6775   0.6776   0.7317   0.7575   0.7575   0.7638
     6.4126   6.4693   6.4747   6.4747   6.6199   6.6495   6.6495   6.8463
     6.8463   6.9232   6.9615   6.9641   7.0779   7.1290   7.1290   7.1610
     7.2054   7.2675   7.2675   7.3954   7.6009   7.6009   7.6038   7.6647
     7.6811   7.6811   7.7003   7.7186   7.8108   7.8196   7.8196   7.8955
     7.8971   7.9081   7.9130   7.9130   8.0102   8.0102   8.0408   8.1683
     8.2569   8.2830   8.2830   8.2935   8.4624   8.4624   8.6481   8.7095
     9.3008   9.3487   9.3487   9.3595   9.3595   9.4037   9.4056   9.4789
     9.4789   9.5034   9.5318   9.5515   9.6233   9.6233   9.6402   9.6402
     9.6806   9.7406   9.7623   9.7966   9.8914   9.8914  10.0265  10.0388
    13.0127  13.1259  13.1491  13.1535  13.1968  13.1968  13.6820  13.6820
    13.6944  13.7272  13.7272  13.7333  13.7333  13.7384  13.7384  13.8151
    13.8151  13.8307  14.0302  14.0302  14.0348  14.1134  14.1466  14.1775
    15.5221  15.5392  15.5392  15.5409  15.5724  15.8735  15.9799  15.9799
    16.5129  16.5129  16.5897  16.6907  16.8021  17.0390  17.1723  17.1916

          k = 0.3333 0.3333-0.4946 ( 50096 PWs)   bands (ev):

   -46.1061 -46.1061 -46.1056 -46.1056 -46.1056 -46.1056 -46.1050 -46.1050
   -22.4169 -22.4169 -22.4156 -22.4156 -22.4156 -22.4156 -22.4143 -22.4143
   -22.3725 -22.3725 -22.3725 -22.3725 -22.3713 -22.3713 -22.3709 -22.3709
   -22.3462 -22.3461 -22.3457 -22.3457 -22.3448 -22.3448 -22.3447 -22.3447
   -14.3556 -14.3555 -14.3088 -14.3087 -14.3087 -14.3087 -14.2687 -14.2686
    -6.4469  -6.4467  -6.3797  -6.3797  -6.3796  -6.3796  -6.2004  -6.2003
    -5.8703  -5.8702  -5.8256  -5.8256  -5.8255  -5.8255  -5.7623  -5.7622
    -5.7352  -5.7351  -5.6988  -5.6988  -5.6987  -5.6987  -5.6963  -5.6961
     0.0777   0.0778   0.0849   0.0850   0.2591   0.2591   0.2592   0.2592
     0.2912   0.2912   0.2913   0.2913   0.3215   0.3215   0.3515   0.3515
     0.5666   0.5666   0.7439   0.7439   0.7439   0.7439   0.7753   0.7753
     6.4622   6.4623   6.5779   6.5779   6.5780   6.5780   6.9087   6.9088
     6.9620   6.9620   7.0654   7.0654   7.0654   7.0654   7.1112   7.1112
     7.3681   7.3681   7.3682   7.3682   7.4120   7.4121   7.4961   7.4961
     7.6622   7.6623   7.7302   7.7302   7.7302   7.7302   7.8988   7.8989
     7.9247   7.9248   7.9788   7.9788   7.9789   7.9789   8.0557   8.0557
     8.1387   8.1388   8.3056   8.3056   8.3056   8.3056   8.6123   8.6124
     9.3533   9.3533   9.3534   9.3534   9.4355   9.4356   9.5250   9.5250
     9.6039   9.6039   9.6040   9.6040   9.6309   9.6309   9.6464   9.6465
     9.6688   9.6688   9.7342   9.7342   9.7342   9.7342  10.0220  10.0221
    13.0828  13.0829  13.4081  13.4081  13.4339  13.4340  13.4871  13.4871
    13.4871  13.4872  13.7314  13.7314  13.7315  13.7315  13.8560  13.8560
    13.8560  13.8560  13.9348  13.9349  13.9762  13.9762  14.0936  14.0937
    15.5323  15.5323  15.8622  15.8622  15.8622  15.8623  16.1229  16.1231
    16.5060  16.5061  16.7907  16.7907  16.7908  16.7908  17.2198  17.2208

          k = 0.3333-0.5000 0.0000 ( 50042 PWs)   bands (ev):

   -46.1063 -46.1063 -46.1057 -46.1057 -46.1054 -46.1054 -46.1049 -46.1049
   -22.4398 -22.4398 -22.4382 -22.4382 -22.3925 -22.3925 -22.3915 -22.3915
   -22.3731 -22.3731 -22.3705 -22.3705 -22.3605 -22.3605 -22.3590 -22.3590
   -22.3580 -22.3580 -22.3569 -22.3569 -22.3464 -22.3464 -22.3443 -22.3443
   -14.3742 -14.3742 -14.3244 -14.3244 -14.2895 -14.2895 -14.2526 -14.2526
    -6.5596  -6.5596  -6.5160  -6.5159  -6.3300  -6.3300  -6.0450  -6.0450
    -5.8269  -5.8269  -5.8115  -5.8115  -5.7935  -5.7935  -5.7857  -5.7857
    -5.7558  -5.7557  -5.7102  -5.7102  -5.7074  -5.7074  -5.6591  -5.6591
    -0.0288  -0.0288   0.1537   0.1537   0.1907   0.1907   0.3453   0.3453
     0.3607   0.3607   0.3657   0.3657   0.4296   0.4296   0.4904   0.4904
     0.5724   0.5724   0.6056   0.6056   0.6216   0.6216   0.6418   0.6419
     6.2224   6.2224   6.2702   6.2702   6.6330   6.6330   6.8168   6.8168
     6.8845   6.8845   7.0782   7.0782   7.1008   7.1008   7.1939   7.1940
     7.2960   7.2961   7.3374   7.3374   7.3705   7.3705   7.5639   7.5639
     7.6056   7.6056   7.7615   7.7616   7.8793   7.8793   7.8809   7.8809
     7.9186   7.9186   8.0659   8.0659   8.0746   8.0746   8.0992   8.0992
     8.4069   8.4069   8.5071   8.5071   8.5505   8.5505   8.6754   8.6754
     9.1899   9.1899   9.1985   9.1985   9.3596   9.3596   9.3853   9.3853
     9.4396   9.4396   9.6500   9.6500   9.6749   9.6749   9.7363   9.7363
     9.7377   9.7377   9.8164   9.8164   9.9245   9.9245  10.0050  10.0050
    12.8490  12.8490  13.2230  13.2230  13.2412  13.2412  13.3320  13.3320
    13.4820  13.4820  13.6324  13.6324  13.7917  13.7917  13.9886  13.9886
    14.0536  14.0536  14.1190  14.1190  14.2096  14.2096  14.3061  14.3061
    14.9508  14.9508  15.0960  15.0960  15.8496  15.8496  16.0072  16.0072
    16.6242  16.6242  16.7921  16.7922  16.8384  16.8384  16.9711  16.9711

          k = 0.3333-0.5000 0.1649 ( 50040 PWs)   bands (ev):

   -46.1062 -46.1062 -46.1057 -46.1057 -46.1054 -46.1054 -46.1049 -46.1049
   -22.4367 -22.4367 -22.4351 -22.4351 -22.3957 -22.3957 -22.3946 -22.3946
   -22.3729 -22.3729 -22.3707 -22.3707 -22.3603 -22.3603 -22.3589 -22.3589
   -22.3582 -22.3582 -22.3570 -22.3570 -22.3462 -22.3462 -22.3444 -22.3444
   -14.3686 -14.3686 -14.3196 -14.3196 -14.2953 -14.2953 -14.2575 -14.2575
    -6.5354  -6.5354  -6.4856  -6.4856  -6.3317  -6.3317  -6.0760  -6.0760
    -5.8306  -5.8306  -5.8112  -5.8112  -5.8096  -5.8096  -5.7814  -5.7814
    -5.7570  -5.7570  -5.7130  -5.7130  -5.7108  -5.7108  -5.6648  -5.6648
    -0.0035  -0.0035   0.1241   0.1241   0.2027   0.2028   0.3170   0.3170
     0.3549   0.3549   0.3809   0.3809   0.4247   0.4247   0.4346   0.4346
     0.4433   0.4434   0.6634   0.6634   0.7033   0.7033   0.7083   0.7083
     6.3067   6.3067   6.3581   6.3581   6.6146   6.6146   6.8156   6.8156
     6.9055   6.9055   7.0358   7.0358   7.1103   7.1104   7.1730   7.1731
     7.3280   7.3281   7.3668   7.3668   7.3820   7.3820   7.5756   7.5756
     7.6063   7.6063   7.7765   7.7766   7.7875   7.7875   7.8842   7.8842
     7.9320   7.9320   8.0394   8.0394   8.0490   8.0490   8.1149   8.1149
     8.2925   8.2925   8.4708   8.4708   8.4820   8.4820   8.6427   8.6427
     9.2563   9.2563   9.2767   9.2767   9.3474   9.3474   9.3669   9.3669
     9.5026   9.5026   9.6020   9.6020   9.6349   9.6349   9.7399   9.7399
     9.7600   9.7600   9.7863   9.7863   9.9077   9.9077   9.9789   9.9789
    12.9329  12.9329  13.2770  13.2770  13.2901  13.2902  13.3473  13.3473
    13.4711  13.4711  13.6632  13.6632  13.8064  13.8064  13.9707  13.9707
    13.9732  13.9732  14.0438  14.0438  14.1388  14.1388  14.2453  14.2453
    15.1378  15.1378  15.2990  15.2990  15.8519  15.8519  16.0177  16.0178
    16.6296  16.6296  16.8383  16.8384  16.8761  16.8762  17.0332  17.1496

          k = 0.3333-0.5000 0.3297 ( 50088 PWs)   bands (ev):

   -46.1060 -46.1060 -46.1056 -46.1056 -46.1055 -46.1055 -46.1051 -46.1051
   -22.4281 -22.4280 -22.4266 -22.4266 -22.4044 -22.4044 -22.4032 -22.4032
   -22.3724 -22.3724 -22.3712 -22.3712 -22.3598 -22.3598 -22.3586 -22.3586
   -22.3585 -22.3585 -22.3574 -22.3574 -22.3458 -22.3458 -22.3448 -22.3448
   -14.3534 -14.3533 -14.3110 -14.3110 -14.3067 -14.3067 -14.2708 -14.2708
    -6.4725  -6.4724  -6.4014  -6.4014  -6.3483  -6.3483  -6.1636  -6.1636
    -5.8442  -5.8442  -5.8437  -5.8437  -5.7994  -5.7994  -5.7756  -5.7755
    -5.7528  -5.7528  -5.7222  -5.7222  -5.7150  -5.7150  -5.6812  -5.6812
     0.0640   0.0640   0.1137   0.1137   0.2354   0.2354   0.2383   0.2383
     0.2977   0.2977   0.3215   0.3215   0.3252   0.3252   0.3415   0.3415
     0.5689   0.5689   0.7390   0.7390   0.7458   0.7458   0.7724   0.7724
     6.4636   6.4636   6.5639   6.5639   6.5736   6.5736   6.8976   6.8976
     6.9190   6.9190   7.0143   7.0143   7.1270   7.1270   7.1450   7.1450
     7.3641   7.3641   7.4030   7.4030   7.4658   7.4658   7.4817   7.4817
     7.6497   7.6497   7.7301   7.7301   7.7441   7.7441   7.8991   7.8991
     7.9607   7.9607   7.9781   7.9781   7.9854   7.9854   8.0955   8.0956
     8.1253   8.1253   8.2264   8.2265   8.3896   8.3896   8.4690   8.4690
     9.3575   9.3575   9.3933   9.3933   9.4185   9.4185   9.4736   9.4736
     9.5726   9.5726   9.5774   9.5774   9.5792   9.5792   9.7223   9.7224
     9.7326   9.7326   9.7595   9.7596   9.8697   9.8697   9.9029   9.9029
    13.1497  13.1497  13.3651  13.3651  13.4169  13.4169  13.4389  13.4389
    13.4667  13.4667  13.7531  13.7531  13.7538  13.7538  13.8476  13.8476
    13.8480  13.8480  13.9135  13.9135  13.9719  13.9720  14.0932  14.0932
    15.5549  15.5549  15.8018  15.8018  15.8502  15.8502  16.0880  16.0881
    16.6097  16.6098  16.8425  16.8425  16.8475  16.8475  17.1466  17.1466

          k = 0.3333-0.5000-0.4946 ( 50072 PWs)   bands (ev):

   -46.1058 -46.1058 -46.1058 -46.1058 -46.1053 -46.1053 -46.1053 -46.1053
   -22.4163 -22.4163 -22.4163 -22.4163 -22.4150 -22.4150 -22.4149 -22.4149
   -22.3718 -22.3718 -22.3718 -22.3718 -22.3592 -22.3592 -22.3592 -22.3592
   -22.3580 -22.3580 -22.3579 -22.3579 -22.3453 -22.3453 -22.3453 -22.3453
   -14.3323 -14.3323 -14.3323 -14.3322 -14.2888 -14.2888 -14.2888 -14.2887
    -6.3986  -6.3986  -6.3985  -6.3985  -6.2838  -6.2838  -6.2836  -6.2836
    -5.8562  -5.8562  -5.8562  -5.8562  -5.7834  -5.7834  -5.7833  -5.7833
    -5.7389  -5.7389  -5.7387  -5.7387  -5.7025  -5.7025  -5.7023  -5.7023
     0.1437   0.1437   0.1437   0.1437   0.1813   0.1813   0.1813   0.1813
     0.2799   0.2799   0.2799   0.2799   0.3051   0.3051   0.3052   0.3052
     0.6853   0.6853   0.6853   0.6853   0.7889   0.7889   0.7889   0.7889
     6.5336   6.5336   6.5337   6.5337   6.7601   6.7601   6.7601   6.7601
     7.0604   7.0604   7.0605   7.0605   7.2512   7.2512   7.2513   7.2513
     7.2716   7.2716   7.2716   7.2716   7.5105   7.5105   7.5105   7.5105
     7.6011   7.6011   7.6011   7.6011   7.9046   7.9046   7.9046   7.9046
     7.9106   7.9106   7.9106   7.9106   8.0148   8.0148   8.0149   8.0149
     8.0648   8.0648   8.0648   8.0649   8.3443   8.3443   8.3444   8.3444
     9.4425   9.4425   9.4425   9.4425   9.4793   9.4793   9.4794   9.4794
     9.6141   9.6141   9.6142   9.6142   9.6653   9.6653   9.6653   9.6654
     9.6994   9.6994   9.6995   9.6995   9.8473   9.8473   9.8474   9.8474
    13.3729  13.3729  13.3729  13.3729  13.4870  13.4870  13.4871  13.4871
    13.6079  13.6079  13.6079  13.6080  13.7010  13.7010  13.7011  13.7011
    13.8764  13.8764  13.8764  13.8764  13.9278  13.9278  13.9278  13.9278
    15.8069  15.8069  15.8069  15.8069  16.3563  16.3564  16.3565  16.3565
    16.4066  16.4067  16.4067  16.4068  16.8906  16.8906  16.8906  16.8906

          k =-0.5000-0.5000 0.0000 ( 50056 PWs)   bands (ev):

   -46.1060 -46.1060 -46.1060 -46.1060 -46.1051 -46.1051 -46.1051 -46.1051
   -22.4390 -22.4390 -22.4390 -22.4390 -22.3920 -22.3920 -22.3920 -22.3920
   -22.3601 -22.3601 -22.3601 -22.3601 -22.3593 -22.3593 -22.3593 -22.3593
   -22.3577 -22.3577 -22.3577 -22.3577 -22.3572 -22.3572 -22.3572 -22.3572
   -14.3495 -14.3494 -14.3494 -14.3494 -14.2712 -14.2711 -14.2711 -14.2711
    -6.5257  -6.5257  -6.5257  -6.5256  -6.1935  -6.1935  -6.1935  -6.1935
    -5.8017  -5.8017  -5.8017  -5.8017  -5.7782  -5.7782  -5.7782  -5.7782
    -5.7755  -5.7755  -5.7755  -5.7755  -5.6797  -5.6797  -5.6797  -5.6797
     0.0554   0.0554   0.0555   0.0555   0.2889   0.2890   0.2890   0.2890
     0.3386   0.3386   0.3387   0.3387   0.5047   0.5047   0.5047   0.5047
     0.5339   0.5339   0.5339   0.5339   0.6463   0.6463   0.6463   0.6463
     6.2600   6.2600   6.2600   6.2600   6.8936   6.8936   6.8936   6.8936
     6.9106   6.9106   6.9106   6.9106   7.3028   7.3028   7.3028   7.3028
     7.3161   7.3161   7.3161   7.3161   7.3693   7.3693   7.3693   7.3693
     7.6955   7.6955   7.6955   7.6955   7.8489   7.8489   7.8489   7.8489
     7.9065   7.9065   7.9065   7.9065   8.2210   8.2210   8.2210   8.2210
     8.2416   8.2416   8.2416   8.2416   8.5208   8.5208   8.5208   8.5208
     9.2559   9.2559   9.2559   9.2559   9.4836   9.4836   9.4836   9.4836
     9.5176   9.5176   9.5176   9.5176   9.6879   9.6879   9.6879   9.6879
     9.7764   9.7764   9.7764   9.7764   9.8984   9.8984   9.8984   9.8984
    13.1217  13.1218  13.1218  13.1218  13.3411  13.3411  13.3411  13.3411
    13.5366  13.5366  13.5366  13.5366  13.7311  13.7312  13.7312  13.7312
    14.1454  14.1454  14.1454  14.1454  14.1804  14.1804  14.1804  14.1804
    15.0663  15.0663  15.0663  15.0663  16.3598  16.3599  16.3599  16.3599
    16.4412  16.4412  16.4412  16.4412  17.3247  17.3267  17.3274  17.3277

          k =-0.5000-0.5000 0.1649 ( 50128 PWs)   bands (ev):

   -46.1059 -46.1059 -46.1059 -46.1059 -46.1052 -46.1052 -46.1052 -46.1052
   -22.4359 -22.4359 -22.4359 -22.4359 -22.3952 -22.3952 -22.3952 -22.3952
   -22.3600 -22.3600 -22.3600 -22.3600 -22.3592 -22.3592 -22.3592 -22.3592
   -22.3578 -22.3578 -22.3578 -22.3578 -22.3574 -22.3574 -22.3574 -22.3574
   -14.3443 -14.3443 -14.3443 -14.3443 -14.2765 -14.2765 -14.2765 -14.2765
    -6.4983  -6.4983  -6.4983  -6.4983  -6.2045  -6.2045  -6.2045  -6.2045
    -5.8126  -5.8126  -5.8126  -5.8126  -5.7836  -5.7836  -5.7836  -5.7836
    -5.7718  -5.7718  -5.7718  -5.7718  -5.6865  -5.6865  -5.6865  -5.6865
     0.0745   0.0745   0.0746   0.0746   0.2481   0.2482   0.2482   0.2482
     0.3198   0.3198   0.3198   0.3198   0.4317   0.4317   0.4317   0.4317
     0.5734   0.5734   0.5734   0.5734   0.7254   0.7254   0.7254   0.7254
     6.3469   6.3469   6.3469   6.3469   6.8542   6.8542   6.8542   6.8542
     6.9037   6.9038   6.9038   6.9038   7.3054   7.3054   7.3055   7.3055
     7.3639   7.3639   7.3639   7.3639   7.3957   7.3957   7.3957   7.3957
     7.6094   7.6094   7.6094   7.6095   7.9019   7.9020   7.9020   7.9020
     7.9129   7.9129   7.9129   7.9129   8.1791   8.1791   8.1791   8.1791
     8.1864   8.1864   8.1864   8.1864   8.4509   8.4509   8.4509   8.4509
     9.3322   9.3323   9.3323   9.3323   9.4472   9.4472   9.4472   9.4472
     9.5329   9.5329   9.5329   9.5329   9.6859   9.6859   9.6859   9.6859
     9.7790   9.7790   9.7790   9.7790   9.8751   9.8751   9.8751   9.8751
    13.1933  13.1934  13.1934  13.1934  13.3769  13.3769  13.3769  13.3769
    13.5522  13.5522  13.5522  13.5522  13.7174  13.7174  13.7174  13.7174
    14.0703  14.0703  14.0703  14.0703  14.1088  14.1088  14.1088  14.1088
    15.2693  15.2694  15.2694  15.2694  16.3685  16.3686  16.3686  16.3686
    16.4379  16.4380  16.4380  16.4380  17.2211  17.2211  17.2211  17.2211

          k =-0.5000-0.5000 0.3297 ( 50112 PWs)   bands (ev):

   -46.1058 -46.1058 -46.1058 -46.1058 -46.1053 -46.1053 -46.1053 -46.1053
   -22.4273 -22.4273 -22.4273 -22.4273 -22.4038 -22.4038 -22.4038 -22.4038
   -22.3595 -22.3595 -22.3595 -22.3595 -22.3588 -22.3588 -22.3588 -22.3588
   -22.3583 -22.3583 -22.3583 -22.3583 -22.3578 -22.3578 -22.3578 -22.3578
   -14.3302 -14.3301 -14.3301 -14.3301 -14.2910 -14.2910 -14.2910 -14.2910
    -6.4246  -6.4246  -6.4246  -6.4246  -6.2475  -6.2475  -6.2475  -6.2475
    -5.8283  -5.8283  -5.8283  -5.8283  -5.8038  -5.8038  -5.8038  -5.8038
    -5.7542  -5.7542  -5.7542  -5.7542  -5.7050  -5.7049  -5.7049  -5.7049
     0.1266   0.1266   0.1266   0.1266   0.2092   0.2092   0.2092   0.2092
     0.2682   0.2682   0.2683   0.2683   0.3064   0.3064   0.3064   0.3064
     0.6877   0.6877   0.6877   0.6877   0.7851   0.7851   0.7851   0.7851
     6.5289   6.5289   6.5289   6.5289   6.7590   6.7590   6.7590   6.7590
     6.9835   6.9835   6.9835   6.9835   7.3144   7.3144   7.3144   7.3144
     7.3492   7.3492   7.3492   7.3492   7.4734   7.4734   7.4734   7.4734
     7.5844   7.5844   7.5844   7.5844   7.9335   7.9335   7.9335   7.9335
     7.9369   7.9369   7.9369   7.9369   8.0792   8.0792   8.0792   8.0792
     8.0802   8.0802   8.0802   8.0802   8.1897   8.1897   8.1897   8.1897
     9.4702   9.4702   9.4702   9.4702   9.4830   9.4830   9.4830   9.4830
     9.5707   9.5707   9.5708   9.5708   9.6583   9.6583   9.6583   9.6583
     9.7758   9.7758   9.7758   9.7758   9.8184   9.8184   9.8184   9.8184
    13.3797  13.3797  13.3797  13.3797  13.4859  13.4859  13.4859  13.4859
    13.5969  13.5969  13.5969  13.5969  13.6767  13.6767  13.6767  13.6767
    13.8828  13.8828  13.8828  13.8828  13.9192  13.9192  13.9192  13.9192
    15.7758  15.7758  15.7758  15.7759  16.3888  16.3889  16.3889  16.3889
    16.4277  16.4278  16.4278  16.4278  16.8961  16.8961  16.8961  16.8962

          k =-0.5000-0.5000-0.4946 ( 50144 PWs)   bands (ev):

   -46.1056 -46.1056 -46.1056 -46.1056 -46.1056 -46.1056 -46.1056 -46.1056
   -22.4156 -22.4156 -22.4156 -22.4156 -22.4156 -22.4156 -22.4156 -22.4156
   -22.3589 -22.3589 -22.3589 -22.3589 -22.3589 -22.3589 -22.3589 -22.3589
   -22.3583 -22.3583 -22.3583 -22.3583 -22.3583 -22.3583 -22.3583 -22.3583
   -14.3107 -14.3107 -14.3107 -14.3107 -14.3107 -14.3106 -14.3106 -14.3106
    -6.3291  -6.3291  -6.3291  -6.3291  -6.3290  -6.3290  -6.3290  -6.3290
    -5.8244  -5.8244  -5.8244  -5.8244  -5.8243  -5.8243  -5.8243  -5.8243
    -5.7299  -5.7299  -5.7299  -5.7298  -5.7297  -5.7297  -5.7297  -5.7297
     0.1975   0.1975   0.1975   0.1976   0.1976   0.1976   0.1976   0.1976
     0.2264   0.2264   0.2264   0.2264   0.2264   0.2265   0.2265   0.2265
     0.7701   0.7701   0.7701   0.7702   0.7702   0.7702   0.7702   0.7702
     6.6555   6.6555   6.6555   6.6555   6.6556   6.6556   6.6556   6.6556
     7.2409   7.2409   7.2409   7.2409   7.2410   7.2410   7.2410   7.2410
     7.3302   7.3303   7.3303   7.3303   7.3303   7.3304   7.3304   7.3304
     7.8472   7.8473   7.8473   7.8473   7.8473   7.8473   7.8473   7.8473
     7.9843   7.9843   7.9843   7.9843   7.9844   7.9844   7.9844   7.9844
     7.9898   7.9899   7.9899   7.9899   7.9899   7.9899   7.9899   7.9900
     9.5763   9.5763   9.5763   9.5763   9.5763   9.5763   9.5763   9.5763
     9.5815   9.5815   9.5815   9.5815   9.5816   9.5816   9.5816   9.5816
     9.7721   9.7721   9.7721   9.7721   9.7722   9.7722   9.7723   9.7723
    13.5913  13.5913  13.5913  13.5913  13.5913  13.5913  13.5913  13.5914
    13.6647  13.6647  13.6647  13.6647  13.6648  13.6648  13.6648  13.6648
    13.6946  13.6946  13.6946  13.6946  13.6946  13.6946  13.6946  13.6946
    16.3786  16.3786  16.3786  16.3786  16.3788  16.3788  16.3788  16.3788
    16.4106  16.4106  16.4106  16.4106  16.4106  16.4107  16.4107  16.4107

     highest occupied, lowest unoccupied level (ev):    10.4077   12.2288

!    total energy              =   -5964.63708232 Ry
     total all-electron energy =   -147449.090655 Ry
     estimated scf accuracy    <          8.1E-11 Ry

     The total energy is the sum of the following terms:
     one-electron contribution =    -550.52055900 Ry
     hartree contribution      =     483.91578596 Ry
     xc contribution           =    -491.51476077 Ry
     ewald contribution        =   -1653.96634398 Ry
     one-center paw contrib.   =   -3752.55120453 Ry

     convergence has been achieved in   4 iterations

     Forces acting on atoms (cartesian axes, Ry/au):

     atom    1 type  1   force =     0.00000000    0.00000000   -0.00097821
     atom    2 type  1   force =     0.00000000    0.00000000   -0.00094804
     atom    3 type  1   force =     0.00000000    0.00000000   -0.00096785
     atom    4 type  1   force =     0.00000000    0.00000000   -0.00095354
     atom    5 type  1   force =     0.00000000    0.00000000   -0.00096785
     atom    6 type  1   force =     0.00000000    0.00000000   -0.00095354
     atom    7 type  1   force =     0.00000000    0.00000000   -0.00098252
     atom    8 type  1   force =     0.00000000    0.00000000   -0.00094536
     atom    9 type  2   force =    -0.00000117   -0.00000117    0.00024613
     atom   10 type  2   force =    -0.00000181   -0.00000181    0.00025259
     atom   11 type  2   force =    -0.00000117    0.00000117    0.00024613
     atom   12 type  2   force =    -0.00000181    0.00000181    0.00025259
     atom   13 type  2   force =     0.00000117   -0.00000117    0.00024613
     atom   14 type  2   force =     0.00000181   -0.00000181    0.00025259
     atom   15 type  2   force =     0.00000117    0.00000117    0.00024613
     atom   16 type  2   force =     0.00000181    0.00000181    0.00025259
     atom   17 type  3   force =    -0.00000144   -0.00000144   -0.00014344
     atom   18 type  3   force =    -0.00000235   -0.00000235   -0.00013415
     atom   19 type  3   force =    -0.00000144    0.00000144   -0.00014344
     atom   20 type  3   force =    -0.00000235    0.00000235   -0.00013415
     atom   21 type  3   force =     0.00000144   -0.00000144   -0.00014344
     atom   22 type  3   force =     0.00000235   -0.00000235   -0.00013415
     atom   23 type  3   force =     0.00000144    0.00000144   -0.00014344
     atom   24 type  3   force =     0.00000235    0.00000235   -0.00013415
     atom   25 type  3   force =    -0.00000175    0.00000000    0.00042045
     atom   26 type  3   force =    -0.00000576    0.00000000    0.00042417
     atom   27 type  3   force =     0.00000091   -0.00000000    0.00042526
     atom   28 type  3   force =     0.00000337    0.00000000    0.00043322
     atom   29 type  3   force =     0.00000175    0.00000000    0.00042045
     atom   30 type  3   force =     0.00000576    0.00000000    0.00042417
     atom   31 type  3   force =    -0.00000091    0.00000000    0.00042526
     atom   32 type  3   force =    -0.00000337    0.00000000    0.00043322
     atom   33 type  3   force =     0.00000000   -0.00000175    0.00042045
     atom   34 type  3   force =     0.00000000   -0.00000576    0.00042417
     atom   35 type  3   force =     0.00000000    0.00000175    0.00042045
     atom   36 type  3   force =     0.00000000    0.00000576    0.00042417
     atom   37 type  3   force =     0.00000000    0.00000091    0.00042526
     atom   38 type  3   force =     0.00000000    0.00000337    0.00043322
     atom   39 type  3   force =     0.00000000   -0.00000091    0.00042526
     atom   40 type  3   force =     0.00000000   -0.00000337    0.00043322

     Total force =     0.003311     Total SCF correction =     0.000004


     Computing stress (Cartesian axis) and pressure

          total   stress  (Ry/bohr**3)                   (kbar)     P=       43.10
   0.00026334   0.00000000   0.00000000           38.74        0.00        0.00
   0.00000000   0.00026334   0.00000000            0.00       38.74        0.00
   0.00000000   0.00000000   0.00035235            0.00        0.00       51.83


     Writing all to output data dir ./tmp/90_ecut_6_kmesh_PBE.save/ :
     XML data file, charge density, pseudopotentials, collected wavefunctions

     init_run     :      2.51s CPU      4.72s WALL (       1 calls)
     electrons    :     21.11s CPU     21.62s WALL (       1 calls)
     forces       :      1.06s CPU      1.09s WALL (       1 calls)
     stress       :      2.65s CPU      2.69s WALL (       1 calls)

     Called by init_run:
     wfcinit      :      0.66s CPU      2.64s WALL (       1 calls)
     potinit      :      0.73s CPU      0.80s WALL (       1 calls)
     hinit0       :      0.21s CPU      0.32s WALL (       1 calls)

     Called by electrons:
     c_bands      :     17.85s CPU     18.19s WALL (       5 calls)
     sum_band     :      2.46s CPU      2.53s WALL (       5 calls)
     v_of_rho     :      0.22s CPU      0.25s WALL (       5 calls)
     newd         :      0.54s CPU      0.55s WALL (       5 calls)
     PAW_pot      :      0.23s CPU      0.24s WALL (       5 calls)
     mix_rho      :      0.01s CPU      0.01s WALL (       5 calls)

     Called by c_bands:
     init_us_2    :      0.58s CPU      0.60s WALL (      60 calls)
     cegterg      :     16.65s CPU     16.95s WALL (      25 calls)

     Called by *egterg:
     cdiaghg      :      1.74s CPU      1.81s WALL (     101 calls)
     h_psi        :      8.65s CPU      8.77s WALL (     111 calls)
     s_psi        :      1.41s CPU      1.42s WALL (     111 calls)
     g_psi        :      0.03s CPU      0.03s WALL (      86 calls)

     Called by h_psi:
     h_psi:calbec :      1.73s CPU      1.77s WALL (     111 calls)
     vloc_psi     :      5.35s CPU      5.42s WALL (     111 calls)
                                        0.00s GPU  (     111 calls)
     add_vuspsi   :      1.44s CPU      1.45s WALL (     111 calls)

     General routines
     calbec       :      4.83s CPU      4.93s WALL (     221 calls)
     fft          :      0.72s CPU      0.81s WALL (      89 calls)
     ffts         :      0.53s CPU      0.54s WALL (      10 calls)
     fftw         :      6.10s CPU      6.18s WALL (   27802 calls)
     interpolate  :      0.54s CPU      0.55s WALL (       5 calls)

     Parallel routines

     PWSCF        :     28.69s CPU     33.67s WALL


   This run was terminated on:   0:16:56  21May2026            

=------------------------------------------------------------------------------=
   JOB DONE.
=------------------------------------------------------------------------------=
