
     Program PWSCF v.7.5 starts on 21May2026 at  0:15:21 

     This program is part of the open-source Quantum ESPRESSO suite
     for quantum simulation of materials; please cite
         "P. Giannozzi et al., J. Phys.:Condens. Matter 21 395502 (2009);
         "P. Giannozzi et al., J. Phys.:Condens. Matter 29 465901 (2017);
         "P. Giannozzi et al., J. Chem. Phys. 152 154105 (2020);
          URL http://www.quantum-espresso.org", 
     in publications or presentations arising from this work. More details at
     http://www.quantum-espresso.org/quote

     Parallel version (MPI & OpenMP), running on     192 processor cores
     Number of MPI processes:               192
     Threads/MPI process:                     1

     MPI processes distributed on     1 nodes
     513803 MiB available memory on the printing compute node when the environment starts

     Waiting for input...
     Reading input from standard input

     Current dimensions of program PWSCF are:
     Max number of different atomic species (ntypx) = 10
     Max number of k-points (npk) =  40000
     Max angular momentum in pseudopotentials (lmaxx) =  4
     file Ba.pbe-spn-kjpaw_psl.1.0.0.UPF: wavefunction(s)  5S 6S renormalized
     file Ti.pbe-spn-kjpaw_psl.1.0.0.UPF: wavefunction(s)  3S 3P 3D renormalized
     file O.pbe-n-kjpaw_psl.1.0.0.UPF: wavefunction(s)  2S 2P renormalized

     IMPORTANT: XC functional enforced from input :
     Exchange-correlation= PBE
                           (   1   4   3   4   0   0   0)
     Any further DFT definition will be discarded
     Please, verify this is what you really want

     Found identity + ( -0.5000 -0.5000  0.0000) symmetry
     This is a supercell, fractional translations are disabled

     K-points division:     npool     =       8
     R & G space division:  proc/nbgrp/npool/nimage =      24
     Subspace diagonalization in iterative solution of the eigenvalue problem:
     one sub-group per band group will be used
     ELPA distributed-memory algorithm (size of sub-group:  2*  2 procs)


     Parallelization info
     --------------------
     sticks:   dense  smooth     PW     G-vecs:    dense   smooth      PW
     Min         482     240     65                39550    13981    1967
     Max         485     242     66                39552    13987    1972
     Sum       11585    5785   1565               949235   335575   47241

     Using Slab Decomposition



     bravais-lattice index     =            6
     lattice parameter (alat)  =      15.0876  a.u.
     unit-cell volume          =    3472.3239 (a.u.)^3
     number of atoms/cell      =           40
     number of atomic types    =            3
     number of electrons       =       320.00
     number of Kohn-Sham states=          200
     kinetic-energy cutoff     =      80.0000  Ry
     charge density cutoff     =     640.0000  Ry
     scf convergence threshold =      1.0E-10
     mixing beta               =       0.3000
     number of iterations used =           16  plain     mixing
     Exchange-correlation= PBE
                           (   1   4   3   4   0   0   0)

     celldm(1)=  15.087600  celldm(2)=   0.000000  celldm(3)=   1.011020
     celldm(4)=   0.000000  celldm(5)=   0.000000  celldm(6)=   0.000000

     crystal axes: (cart. coord. in units of alat)
               a(1) = (   1.000000   0.000000   0.000000 )  
               a(2) = (   0.000000   1.000000   0.000000 )  
               a(3) = (   0.000000   0.000000   1.011020 )  

     reciprocal axes: (cart. coord. in units 2 pi/alat)
               b(1) = (  1.000000  0.000000  0.000000 )  
               b(2) = (  0.000000  1.000000  0.000000 )  
               b(3) = (  0.000000  0.000000  0.989100 )  


     PseudoPot. # 1 for Ba read from file:
     /home/kylay/scratch/BTO/pseuds/Ba.pbe-spn-kjpaw_psl.1.0.0.UPF
     MD5 check sum: 7cfe25f1fe7574a4710541d5a11d6531
     Pseudo is Projector augmented-wave + core cor, Zval = 10.0
     Generated using &quot;atomic&quot; code by A. Dal Corso  v.6.2.2
     Shape of augmentation charge: PSQ
     Using radial grid of 1251 points,  7 beta functions with: 
                l(1) =   0
                l(2) =   0
                l(3) =   0
                l(4) =   1
                l(5) =   1
                l(6) =   2
                l(7) =   2
     Q(r) pseudized with 0 coefficients 


     PseudoPot. # 2 for Ti read from file:
     /home/kylay/scratch/BTO/pseuds/Ti.pbe-spn-kjpaw_psl.1.0.0.UPF
     MD5 check sum: 01f69b0d8ba4438b2e03ac6ea4af1c0b
     Pseudo is Projector augmented-wave + core cor, Zval = 12.0
     Generated using &quot;atomic&quot; code by A. Dal Corso  v.6.2.2
     Shape of augmentation charge: PSQ
     Using radial grid of 1177 points,  6 beta functions with: 
                l(1) =   0
                l(2) =   0
                l(3) =   1
                l(4) =   1
                l(5) =   2
                l(6) =   2
     Q(r) pseudized with 0 coefficients 


     PseudoPot. # 3 for O  read from file:
     /home/kylay/scratch/BTO/pseuds/O.pbe-n-kjpaw_psl.1.0.0.UPF
     MD5 check sum: e99d9cef9b487d1ca56f5b95ecd0fd7a
     Pseudo is Projector augmented-wave + core cor, Zval =  6.0
     Generated using &quot;atomic&quot; code by A. Dal Corso  v.6.3
     Shape of augmentation charge: PSQ
     Using radial grid of 1095 points,  4 beta functions with: 
                l(1) =   0
                l(2) =   0
                l(3) =   1
                l(4) =   1
     Q(r) pseudized with 0 coefficients 


     atomic species   valence    mass     pseudopotential
     Ba               10.00   137.32700     Ba( 1.00)
     Ti               12.00    47.86700     Ti( 1.00)
     O                 6.00    15.99900     O ( 1.00)

      8 Sym. Ops. (no inversion) found



   Cartesian axes

     site n.     atom                  positions (alat units)
         1        Ba     tau(   1) = (   0.0000000   0.0000000  -0.0010787  )
         2        Ba     tau(   2) = (   0.0000000   0.0000000   0.5044220  )
         3        Ba     tau(   3) = (   0.0000000   0.5000000  -0.0010832  )
         4        Ba     tau(   4) = (   0.0000000   0.5000000   0.5044235  )
         5        Ba     tau(   5) = (   0.5000000   0.0000000  -0.0010832  )
         6        Ba     tau(   6) = (   0.5000000   0.0000000   0.5044235  )
         7        Ba     tau(   7) = (   0.5000000   0.5000000  -0.0010766  )
         8        Ba     tau(   8) = (   0.5000000   0.5000000   0.5044202  )
         9        Ti     tau(   9) = (   0.2500002   0.2500002   0.2436990  )
        10        Ti     tau(  10) = (   0.2500007   0.2500007   0.7492042  )
        11        Ti     tau(  11) = (   0.2500002   0.7499998   0.2436990  )
        12        Ti     tau(  12) = (   0.2500007   0.7499993   0.7492042  )
        13        Ti     tau(  13) = (   0.7499998   0.2500002   0.2436990  )
        14        Ti     tau(  14) = (   0.7499993   0.2500007   0.7492042  )
        15        Ti     tau(  15) = (   0.7499998   0.7499998   0.2436990  )
        16        Ti     tau(  16) = (   0.7499993   0.7499993   0.7492042  )
        17        O      tau(  17) = (   0.2500011   0.2500011   0.0113903  )
        18        O      tau(  18) = (   0.2500007   0.2500007   0.5168954  )
        19        O      tau(  19) = (   0.2500011   0.7499989   0.0113903  )
        20        O      tau(  20) = (   0.2500007   0.7499993   0.5168954  )
        21        O      tau(  21) = (   0.7499989   0.2500011   0.0113903  )
        22        O      tau(  22) = (   0.7499993   0.2500007   0.5168954  )
        23        O      tau(  23) = (   0.7499989   0.7499989   0.0113903  )
        24        O      tau(  24) = (   0.7499993   0.7499993   0.5168954  )
        25        O      tau(  25) = (   0.2500005   0.0000000   0.2592128  )
        26        O      tau(  26) = (   0.2500020   0.0000000   0.7647195  )
        27        O      tau(  27) = (   0.2499999   0.5000000   0.2592107  )
        28        O      tau(  28) = (   0.2499998   0.5000000   0.7647148  )
        29        O      tau(  29) = (   0.7499995   0.0000000   0.2592128  )
        30        O      tau(  30) = (   0.7499980   0.0000000   0.7647195  )
        31        O      tau(  31) = (   0.7500001   0.5000000   0.2592107  )
        32        O      tau(  32) = (   0.7500002   0.5000000   0.7647148  )
        33        O      tau(  33) = (   0.0000000   0.2500005   0.2592128  )
        34        O      tau(  34) = (   0.0000000   0.2500020   0.7647195  )
        35        O      tau(  35) = (   0.0000000   0.7499995   0.2592128  )
        36        O      tau(  36) = (   0.0000000   0.7499980   0.7647195  )
        37        O      tau(  37) = (   0.5000000   0.2499999   0.2592107  )
        38        O      tau(  38) = (   0.5000000   0.2499998   0.7647148  )
        39        O      tau(  39) = (   0.5000000   0.7500001   0.2592107  )
        40        O      tau(  40) = (   0.5000000   0.7500002   0.7647148  )

     number of k points=   126

     Number of k-points >= 100: set verbosity='high' to print them.

     Dense  grid:   949235 G-vectors     FFT dimensions: ( 125, 125, 125)

     Smooth grid:   335575 G-vectors     FFT dimensions: (  90,  90,  90)

     Estimated max dynamical RAM per process >     181.90 MB

     Estimated total dynamical RAM >      30.94 GB

     The initial density is read from file :
     ./tmp/80_ecut_10_kmesh_PBE.save/charge-density

     Starting wfcs from file
     Checking if some PAW data can be deallocated... 

     total cpu time spent up to now is       11.0 secs

     per-process dynamical memory:   219.5 Mb

     Self-consistent Calculation

     iteration #  1     ecut=    80.00 Ry     beta= 0.30
     Davidson diagonalization with overlap
     ethr =  1.00E-05,  avg # of iterations =  1.0

     Threshold (ethr) on eigenvalues was too large:
     Diagonalizing with lowered threshold

     Davidson diagonalization with overlap
     ethr =  4.29E-12,  avg # of iterations =  2.5

     total cpu time spent up to now is       31.8 secs

     total energy              =   -5964.63493860 Ry
     estimated scf accuracy    <       0.00000002 Ry

     iteration #  2     ecut=    80.00 Ry     beta= 0.30
     Davidson diagonalization with overlap
     ethr =  5.90E-12,  avg # of iterations =  2.2

     total cpu time spent up to now is       42.2 secs

     total energy              =   -5964.63493860 Ry
     estimated scf accuracy    <          6.8E-09 Ry

     iteration #  3     ecut=    80.00 Ry     beta= 0.30
     Davidson diagonalization with overlap
     ethr =  2.13E-12,  avg # of iterations =  2.7

     total cpu time spent up to now is       54.2 secs

     total energy              =   -5964.63493860 Ry
     estimated scf accuracy    <          3.0E-09 Ry

     iteration #  4     ecut=    80.00 Ry     beta= 0.30
     Davidson diagonalization with overlap
     ethr =  9.50E-13,  avg # of iterations =  2.1

     total cpu time spent up to now is       64.5 secs

     total energy              =   -5964.63493860 Ry
     estimated scf accuracy    <          1.6E-09 Ry

     iteration #  5     ecut=    80.00 Ry     beta= 0.30
     Davidson diagonalization with overlap
     ethr =  4.97E-13,  avg # of iterations =  2.5

     total cpu time spent up to now is       75.3 secs

     End of self-consistent calculation

     Number of k-points >= 100: set verbosity='high' to print the bands.

     highest occupied, lowest unoccupied level (ev):    10.4077   12.2289

!    total energy              =   -5964.63493860 Ry
     total all-electron energy =   -147449.088511 Ry
     estimated scf accuracy    <          6.9E-11 Ry

     The total energy is the sum of the following terms:
     one-electron contribution =    -550.51946614 Ry
     hartree contribution      =     483.91524898 Ry
     xc contribution           =    -491.51355971 Ry
     ewald contribution        =   -1653.96634398 Ry
     one-center paw contrib.   =   -3752.55081776 Ry

     convergence has been achieved in   5 iterations

     Forces acting on atoms (cartesian axes, Ry/au):

     atom    1 type  1   force =     0.00000000    0.00000000   -0.00098123
     atom    2 type  1   force =     0.00000000    0.00000000   -0.00094498
     atom    3 type  1   force =     0.00000000    0.00000000   -0.00096344
     atom    4 type  1   force =     0.00000000    0.00000000   -0.00095610
     atom    5 type  1   force =     0.00000000    0.00000000   -0.00096344
     atom    6 type  1   force =     0.00000000    0.00000000   -0.00095610
     atom    7 type  1   force =     0.00000000    0.00000000   -0.00098705
     atom    8 type  1   force =     0.00000000    0.00000000   -0.00094671
     atom    9 type  2   force =    -0.00000006   -0.00000006    0.00025956
     atom   10 type  2   force =    -0.00000065   -0.00000065    0.00026941
     atom   11 type  2   force =    -0.00000006    0.00000006    0.00025956
     atom   12 type  2   force =    -0.00000065    0.00000065    0.00026941
     atom   13 type  2   force =     0.00000006   -0.00000006    0.00025956
     atom   14 type  2   force =     0.00000065   -0.00000065    0.00026941
     atom   15 type  2   force =     0.00000006    0.00000006    0.00025956
     atom   16 type  2   force =     0.00000065    0.00000065    0.00026941
     atom   17 type  3   force =    -0.00000158   -0.00000158   -0.00015780
     atom   18 type  3   force =    -0.00000251   -0.00000251   -0.00014902
     atom   19 type  3   force =    -0.00000158    0.00000158   -0.00015780
     atom   20 type  3   force =    -0.00000251    0.00000251   -0.00014902
     atom   21 type  3   force =     0.00000158   -0.00000158   -0.00015780
     atom   22 type  3   force =     0.00000251   -0.00000251   -0.00014902
     atom   23 type  3   force =     0.00000158    0.00000158   -0.00015780
     atom   24 type  3   force =     0.00000251    0.00000251   -0.00014902
     atom   25 type  3   force =    -0.00000217    0.00000000    0.00042007
     atom   26 type  3   force =    -0.00000576    0.00000000    0.00042449
     atom   27 type  3   force =     0.00000057    0.00000000    0.00042443
     atom   28 type  3   force =     0.00000280    0.00000000    0.00043361
     atom   29 type  3   force =     0.00000217    0.00000000    0.00042007
     atom   30 type  3   force =     0.00000576    0.00000000    0.00042449
     atom   31 type  3   force =    -0.00000057    0.00000000    0.00042443
     atom   32 type  3   force =    -0.00000280    0.00000000    0.00043361
     atom   33 type  3   force =     0.00000000   -0.00000217    0.00042007
     atom   34 type  3   force =     0.00000000   -0.00000576    0.00042449
     atom   35 type  3   force =     0.00000000    0.00000217    0.00042007
     atom   36 type  3   force =     0.00000000    0.00000576    0.00042449
     atom   37 type  3   force =     0.00000000    0.00000057    0.00042443
     atom   38 type  3   force =     0.00000000    0.00000280    0.00043361
     atom   39 type  3   force =     0.00000000   -0.00000057    0.00042443
     atom   40 type  3   force =     0.00000000   -0.00000280    0.00043361

     Total force =     0.003325     Total SCF correction =     0.000017


     Computing stress (Cartesian axis) and pressure

          total   stress  (Ry/bohr**3)                   (kbar)     P=       42.22
   0.00025750   0.00000000   0.00000000           37.88        0.00        0.00
   0.00000000   0.00025750   0.00000000            0.00       37.88        0.00
   0.00000000   0.00000000   0.00034611            0.00        0.00       50.91


     Writing all to output data dir ./tmp/80_ecut_10_kmesh_PBE.save/ :
     XML data file, charge density, pseudopotentials, collected wavefunctions

     init_run     :      2.40s CPU      9.66s WALL (       1 calls)
     electrons    :     62.74s CPU     64.39s WALL (       1 calls)
     forces       :      2.17s CPU      2.24s WALL (       1 calls)
     stress       :      6.36s CPU      6.53s WALL (       1 calls)

     Called by init_run:
     wfcinit      :      1.38s CPU      8.43s WALL (       1 calls)
     potinit      :      0.39s CPU      0.48s WALL (       1 calls)
     hinit0       :      0.15s CPU      0.25s WALL (       1 calls)

     Called by electrons:
     c_bands      :     55.00s CPU     56.39s WALL (       6 calls)
     sum_band     :      6.89s CPU      7.04s WALL (       6 calls)
     v_of_rho     :      0.23s CPU      0.27s WALL (       6 calls)
     newd         :      0.34s CPU      0.36s WALL (       6 calls)
     PAW_pot      :      0.27s CPU      0.28s WALL (       6 calls)
     mix_rho      :      0.01s CPU      0.01s WALL (       6 calls)

     Called by c_bands:
     init_us_2    :      1.71s CPU      1.74s WALL (     224 calls)
     cegterg      :     50.37s CPU     51.68s WALL (      96 calls)

     Called by *egterg:
     cdiaghg      :      4.94s CPU      5.19s WALL (     326 calls)
     h_psi        :     26.96s CPU     27.60s WALL (     358 calls)
     s_psi        :      4.16s CPU      4.19s WALL (     358 calls)
     g_psi        :      0.07s CPU      0.07s WALL (     262 calls)

     Called by h_psi:
     h_psi:calbec :      5.29s CPU      5.46s WALL (     358 calls)
     vloc_psi     :     17.30s CPU     17.50s WALL (     358 calls)
                                        0.00s GPU  (     358 calls)
     add_vuspsi   :      4.20s CPU      4.23s WALL (     358 calls)

     General routines
     calbec       :     13.73s CPU     14.16s WALL (     726 calls)
     fft          :      0.26s CPU      0.35s WALL (     102 calls)
     ffts         :      0.30s CPU      0.31s WALL (      12 calls)
     fftw         :     19.71s CPU     19.94s WALL (  103060 calls)
     interpolate  :      0.32s CPU      0.32s WALL (       6 calls)

     Parallel routines

     PWSCF        :     75.70s CPU     87.65s WALL


   This run was terminated on:   0:16:49  21May2026            

=------------------------------------------------------------------------------=
   JOB DONE.
=------------------------------------------------------------------------------=
