
     Program PWSCF v.7.5 starts on 21May2026 at  0:13:15 

     This program is part of the open-source Quantum ESPRESSO suite
     for quantum simulation of materials; please cite
         "P. Giannozzi et al., J. Phys.:Condens. Matter 21 395502 (2009);
         "P. Giannozzi et al., J. Phys.:Condens. Matter 29 465901 (2017);
         "P. Giannozzi et al., J. Chem. Phys. 152 154105 (2020);
          URL http://www.quantum-espresso.org", 
     in publications or presentations arising from this work. More details at
     http://www.quantum-espresso.org/quote

     Parallel version (MPI & OpenMP), running on     192 processor cores
     Number of MPI processes:               192
     Threads/MPI process:                     1

     MPI processes distributed on     1 nodes
     396355 MiB available memory on the printing compute node when the environment starts

     Waiting for input...
     Reading input from standard input

     Current dimensions of program PWSCF are:
     Max number of different atomic species (ntypx) = 10
     Max number of k-points (npk) =  40000
     Max angular momentum in pseudopotentials (lmaxx) =  4
     file Ba.pbe-spn-kjpaw_psl.1.0.0.UPF: wavefunction(s)  5S 6S renormalized
     file Ti.pbe-spn-kjpaw_psl.1.0.0.UPF: wavefunction(s)  3S 3P 3D renormalized
     file O.pbe-n-kjpaw_psl.1.0.0.UPF: wavefunction(s)  2S 2P renormalized

     IMPORTANT: XC functional enforced from input :
     Exchange-correlation= PBE
                           (   1   4   3   4   0   0   0)
     Any further DFT definition will be discarded
     Please, verify this is what you really want

     Found identity + ( -0.5000 -0.5000  0.0000) symmetry
     This is a supercell, fractional translations are disabled

     K-points division:     npool     =       8
     R & G space division:  proc/nbgrp/npool/nimage =      24
     Subspace diagonalization in iterative solution of the eigenvalue problem:
     one sub-group per band group will be used
     ELPA distributed-memory algorithm (size of sub-group:  2*  2 procs)


     Parallelization info
     --------------------
     sticks:   dense  smooth     PW     G-vecs:    dense   smooth      PW
     Min         301     150     41                19547     6905     997
     Max         302     152     42                19550     6908    1002
     Sum        7237    3605    997               469165   165745   23993

     Using Slab Decomposition



     bravais-lattice index     =            6
     lattice parameter (alat)  =      15.0876  a.u.
     unit-cell volume          =    3472.3239 (a.u.)^3
     number of atoms/cell      =           40
     number of atomic types    =            3
     number of electrons       =       320.00
     number of Kohn-Sham states=          200
     kinetic-energy cutoff     =      50.0000  Ry
     charge density cutoff     =     400.0000  Ry
     scf convergence threshold =      1.0E-10
     mixing beta               =       0.3000
     number of iterations used =           16  plain     mixing
     Exchange-correlation= PBE
                           (   1   4   3   4   0   0   0)

     celldm(1)=  15.087600  celldm(2)=   0.000000  celldm(3)=   1.011020
     celldm(4)=   0.000000  celldm(5)=   0.000000  celldm(6)=   0.000000

     crystal axes: (cart. coord. in units of alat)
               a(1) = (   1.000000   0.000000   0.000000 )  
               a(2) = (   0.000000   1.000000   0.000000 )  
               a(3) = (   0.000000   0.000000   1.011020 )  

     reciprocal axes: (cart. coord. in units 2 pi/alat)
               b(1) = (  1.000000  0.000000  0.000000 )  
               b(2) = (  0.000000  1.000000  0.000000 )  
               b(3) = (  0.000000  0.000000  0.989100 )  


     PseudoPot. # 1 for Ba read from file:
     /home/kylay/scratch/BTO/pseuds/Ba.pbe-spn-kjpaw_psl.1.0.0.UPF
     MD5 check sum: 7cfe25f1fe7574a4710541d5a11d6531
     Pseudo is Projector augmented-wave + core cor, Zval = 10.0
     Generated using &quot;atomic&quot; code by A. Dal Corso  v.6.2.2
     Shape of augmentation charge: PSQ
     Using radial grid of 1251 points,  7 beta functions with: 
                l(1) =   0
                l(2) =   0
                l(3) =   0
                l(4) =   1
                l(5) =   1
                l(6) =   2
                l(7) =   2
     Q(r) pseudized with 0 coefficients 


     PseudoPot. # 2 for Ti read from file:
     /home/kylay/scratch/BTO/pseuds/Ti.pbe-spn-kjpaw_psl.1.0.0.UPF
     MD5 check sum: 01f69b0d8ba4438b2e03ac6ea4af1c0b
     Pseudo is Projector augmented-wave + core cor, Zval = 12.0
     Generated using &quot;atomic&quot; code by A. Dal Corso  v.6.2.2
     Shape of augmentation charge: PSQ
     Using radial grid of 1177 points,  6 beta functions with: 
                l(1) =   0
                l(2) =   0
                l(3) =   1
                l(4) =   1
                l(5) =   2
                l(6) =   2
     Q(r) pseudized with 0 coefficients 


     PseudoPot. # 3 for O  read from file:
     /home/kylay/scratch/BTO/pseuds/O.pbe-n-kjpaw_psl.1.0.0.UPF
     MD5 check sum: e99d9cef9b487d1ca56f5b95ecd0fd7a
     Pseudo is Projector augmented-wave + core cor, Zval =  6.0
     Generated using &quot;atomic&quot; code by A. Dal Corso  v.6.3
     Shape of augmentation charge: PSQ
     Using radial grid of 1095 points,  4 beta functions with: 
                l(1) =   0
                l(2) =   0
                l(3) =   1
                l(4) =   1
     Q(r) pseudized with 0 coefficients 


     atomic species   valence    mass     pseudopotential
     Ba               10.00   137.32700     Ba( 1.00)
     Ti               12.00    47.86700     Ti( 1.00)
     O                 6.00    15.99900     O ( 1.00)

      8 Sym. Ops. (no inversion) found



   Cartesian axes

     site n.     atom                  positions (alat units)
         1        Ba     tau(   1) = (   0.0000000   0.0000000  -0.0010787  )
         2        Ba     tau(   2) = (   0.0000000   0.0000000   0.5044220  )
         3        Ba     tau(   3) = (   0.0000000   0.5000000  -0.0010832  )
         4        Ba     tau(   4) = (   0.0000000   0.5000000   0.5044235  )
         5        Ba     tau(   5) = (   0.5000000   0.0000000  -0.0010832  )
         6        Ba     tau(   6) = (   0.5000000   0.0000000   0.5044235  )
         7        Ba     tau(   7) = (   0.5000000   0.5000000  -0.0010766  )
         8        Ba     tau(   8) = (   0.5000000   0.5000000   0.5044202  )
         9        Ti     tau(   9) = (   0.2500002   0.2500002   0.2436990  )
        10        Ti     tau(  10) = (   0.2500007   0.2500007   0.7492042  )
        11        Ti     tau(  11) = (   0.2500002   0.7499998   0.2436990  )
        12        Ti     tau(  12) = (   0.2500007   0.7499993   0.7492042  )
        13        Ti     tau(  13) = (   0.7499998   0.2500002   0.2436990  )
        14        Ti     tau(  14) = (   0.7499993   0.2500007   0.7492042  )
        15        Ti     tau(  15) = (   0.7499998   0.7499998   0.2436990  )
        16        Ti     tau(  16) = (   0.7499993   0.7499993   0.7492042  )
        17        O      tau(  17) = (   0.2500011   0.2500011   0.0113903  )
        18        O      tau(  18) = (   0.2500007   0.2500007   0.5168954  )
        19        O      tau(  19) = (   0.2500011   0.7499989   0.0113903  )
        20        O      tau(  20) = (   0.2500007   0.7499993   0.5168954  )
        21        O      tau(  21) = (   0.7499989   0.2500011   0.0113903  )
        22        O      tau(  22) = (   0.7499993   0.2500007   0.5168954  )
        23        O      tau(  23) = (   0.7499989   0.7499989   0.0113903  )
        24        O      tau(  24) = (   0.7499993   0.7499993   0.5168954  )
        25        O      tau(  25) = (   0.2500005   0.0000000   0.2592128  )
        26        O      tau(  26) = (   0.2500020   0.0000000   0.7647195  )
        27        O      tau(  27) = (   0.2499999   0.5000000   0.2592107  )
        28        O      tau(  28) = (   0.2499998   0.5000000   0.7647148  )
        29        O      tau(  29) = (   0.7499995   0.0000000   0.2592128  )
        30        O      tau(  30) = (   0.7499980   0.0000000   0.7647195  )
        31        O      tau(  31) = (   0.7500001   0.5000000   0.2592107  )
        32        O      tau(  32) = (   0.7500002   0.5000000   0.7647148  )
        33        O      tau(  33) = (   0.0000000   0.2500005   0.2592128  )
        34        O      tau(  34) = (   0.0000000   0.2500020   0.7647195  )
        35        O      tau(  35) = (   0.0000000   0.7499995   0.2592128  )
        36        O      tau(  36) = (   0.0000000   0.7499980   0.7647195  )
        37        O      tau(  37) = (   0.5000000   0.2499999   0.2592107  )
        38        O      tau(  38) = (   0.5000000   0.2499998   0.7647148  )
        39        O      tau(  39) = (   0.5000000   0.7500001   0.2592107  )
        40        O      tau(  40) = (   0.5000000   0.7500002   0.7647148  )

     number of k points=    18
                       cart. coord. in units 2pi/alat
        k(    1) = (   0.0000000   0.0000000   0.0000000), wk =   0.0312500
        k(    2) = (   0.0000000   0.0000000   0.2472750), wk =   0.0625000
        k(    3) = (   0.0000000   0.0000000  -0.4945501), wk =   0.0312500
        k(    4) = (   0.0000000   0.2500000   0.0000000), wk =   0.1250000
        k(    5) = (   0.0000000   0.2500000   0.2472750), wk =   0.2500000
        k(    6) = (   0.0000000   0.2500000  -0.4945501), wk =   0.1250000
        k(    7) = (   0.0000000  -0.5000000   0.0000000), wk =   0.0625000
        k(    8) = (   0.0000000  -0.5000000   0.2472750), wk =   0.1250000
        k(    9) = (   0.0000000  -0.5000000  -0.4945501), wk =   0.0625000
        k(   10) = (   0.2500000   0.2500000   0.0000000), wk =   0.1250000
        k(   11) = (   0.2500000   0.2500000   0.2472750), wk =   0.2500000
        k(   12) = (   0.2500000   0.2500000  -0.4945501), wk =   0.1250000
        k(   13) = (   0.2500000  -0.5000000   0.0000000), wk =   0.1250000
        k(   14) = (   0.2500000  -0.5000000   0.2472750), wk =   0.2500000
        k(   15) = (   0.2500000  -0.5000000  -0.4945501), wk =   0.1250000
        k(   16) = (  -0.5000000  -0.5000000   0.0000000), wk =   0.0312500
        k(   17) = (  -0.5000000  -0.5000000   0.2472750), wk =   0.0625000
        k(   18) = (  -0.5000000  -0.5000000  -0.4945501), wk =   0.0312500

     Dense  grid:   469165 G-vectors     FFT dimensions: ( 100, 100, 100)

     Smooth grid:   165745 G-vectors     FFT dimensions: (  72,  72,  72)

     Estimated max dynamical RAM per process >      59.94 MB

     Estimated total dynamical RAM >       9.67 GB

     Check: negative core charge=   -0.000005

     The initial density is read from file :
     ./tmp/50_ecut_4_kmesh_PBE.save/charge-density

     Starting wfcs from file
     Checking if some PAW data can be deallocated... 

     total cpu time spent up to now is        4.1 secs

     per-process dynamical memory:   113.8 Mb

     Self-consistent Calculation

     iteration #  1     ecut=    50.00 Ry     beta= 0.30
     Davidson diagonalization with overlap
     ethr =  1.00E-05,  avg # of iterations =  1.1

     Threshold (ethr) on eigenvalues was too large:
     Diagonalizing with lowered threshold

     Davidson diagonalization with overlap
     ethr =  7.55E-13,  avg # of iterations =  7.6

     total cpu time spent up to now is        7.2 secs

     total energy              =   -5964.58030171 Ry
     estimated scf accuracy    <          4.6E-09 Ry

     iteration #  2     ecut=    50.00 Ry     beta= 0.30
     Davidson diagonalization with overlap
     ethr =  1.44E-12,  avg # of iterations =  1.4

     total cpu time spent up to now is        8.3 secs

     total energy              =   -5964.58030171 Ry
     estimated scf accuracy    <          2.3E-09 Ry

     iteration #  3     ecut=    50.00 Ry     beta= 0.30
     Davidson diagonalization with overlap
     ethr =  7.23E-13,  avg # of iterations =  1.5

     total cpu time spent up to now is        9.4 secs

     total energy              =   -5964.58030171 Ry
     estimated scf accuracy    <          9.9E-10 Ry

     iteration #  4     ecut=    50.00 Ry     beta= 0.30
     Davidson diagonalization with overlap
     ethr =  3.09E-13,  avg # of iterations =  1.9

     total cpu time spent up to now is       10.5 secs

     total energy              =   -5964.58030171 Ry
     estimated scf accuracy    <          1.9E-10 Ry

     iteration #  5     ecut=    50.00 Ry     beta= 0.30
     Davidson diagonalization with overlap
     ethr =  1.00E-13,  avg # of iterations =  2.9

     total cpu time spent up to now is       11.7 secs

     End of self-consistent calculation

          k = 0.0000 0.0000 0.0000 ( 20651 PWs)   bands (ev):

   -46.1121 -46.1112 -46.1110 -46.1110 -46.1101 -46.1101 -46.1099 -46.1090
   -22.4465 -22.4428 -22.4428 -22.4398 -22.3978 -22.3960 -22.3960 -22.3941
   -22.3920 -22.3920 -22.3887 -22.3887 -22.3884 -22.3884 -22.3860 -22.3860
   -22.3378 -22.3378 -22.3362 -22.3362 -22.3360 -22.3360 -22.3343 -22.3343
   -14.4575 -14.3459 -14.3365 -14.3365 -14.2670 -14.2670 -14.2591 -14.1986
    -6.7750  -6.7750  -6.7227  -6.5323  -6.2540  -6.1411  -6.1411  -5.9067
    -5.9067  -5.9058  -5.8452  -5.8452  -5.8113  -5.7792  -5.7474  -5.7474
    -5.7444  -5.7444  -5.7359  -5.6701  -5.5767  -5.5767  -5.5151  -5.5151
    -0.3535  -0.3535  -0.2914   0.2992   0.2992   0.3153   0.3153   0.3655
     0.3709   0.3709   0.3750   0.3750   0.5281   0.5281   0.5329   0.5330
     0.5498   0.5498   0.7385   0.7428   0.7428   0.7628   0.7628   0.8066
     5.9200   6.0781   6.1031   6.1031   6.2960   6.2960   6.3348   6.3506
     6.4075   6.4075   6.5600   6.5600   6.5604   6.5820   6.5978   7.5269
     7.5269   7.5779   7.5779   7.6251   7.6251   7.6262   7.6262   7.6399
     7.6399   7.7391   7.7391   7.9245   7.9245   7.9540   8.0516   8.0863
     8.0863   8.0919   8.0919   8.3862   8.3862   8.4550   8.4584   8.4708
     8.4708   8.5516   8.5516   8.6155   8.6912   8.6912   8.7160   8.7160
     9.0506   9.0506   9.2292   9.3438   9.3439   9.3770   9.3770   9.4737
     9.4737   9.4822   9.4822   9.5007   9.5007   9.7149   9.7149   9.9953
    10.0601  10.0601  10.1768  10.1768  10.2470  10.2470  10.3383  10.4089
    12.2321  12.3785  12.5501  12.5501  12.6668  12.6668  13.9475  13.9475
    13.9762  13.9762  14.0035  14.0035  14.0096  14.0096  14.0243  14.0243
    14.0262  14.0262  14.3677  14.3677  14.3967  14.4664  14.4670  14.5531
    14.5531  14.6135  14.6135  14.6186  14.6212  15.1017  15.3022  15.3022
    15.3438  15.4902  16.2977  16.2977  16.4940  16.8981  17.1088  17.1088

          k = 0.0000 0.0000 0.2473 ( 20702 PWs)   bands (ev):

   -46.1119 -46.1113 -46.1109 -46.1109 -46.1102 -46.1102 -46.1098 -46.1092
   -22.4394 -22.4359 -22.4359 -22.4334 -22.4051 -22.4030 -22.4030 -22.4007
   -22.3916 -22.3916 -22.3892 -22.3892 -22.3882 -22.3882 -22.3864 -22.3864
   -22.3376 -22.3376 -22.3365 -22.3365 -22.3358 -22.3358 -22.3345 -22.3345
   -14.4415 -14.3627 -14.3265 -14.3265 -14.2774 -14.2773 -14.2503 -14.2076
    -6.7016  -6.7016  -6.6756  -6.5313  -6.2762  -6.2762  -6.1825  -5.9063
    -5.8585  -5.8585  -5.8377  -5.8377  -5.8166  -5.8066  -5.7839  -5.7301
    -5.7212  -5.7212  -5.7131  -5.7130  -5.6027  -5.6027  -5.5487  -5.5487
    -0.2624  -0.2624  -0.1636   0.1982   0.1982   0.3753   0.3753   0.3895
     0.3895   0.3966   0.3966   0.4310   0.5036   0.5036   0.5048   0.5048
     0.5577   0.5767   0.5767   0.6918   0.6918   0.7131   0.7131   0.7427
     6.0032   6.0805   6.2103   6.2103   6.3813   6.3813   6.4549   6.4549
     6.5709   6.5843   6.5955   6.6144   6.6997   6.6997   6.7477   7.5369
     7.5369   7.5561   7.5561   7.5600   7.5600   7.5726   7.5726   7.7129
     7.7129   7.7135   7.7135   7.7415   7.7846   7.8515   7.8515   7.9091
     7.9091   8.0416   8.0416   8.2085   8.4248   8.4248   8.4402   8.4402
     8.5530   8.6191   8.6191   8.6281   8.7644   8.7645   8.8946   8.8946
     9.0966   9.2190   9.2190   9.2271   9.2271   9.2860   9.2860   9.3517
     9.3517   9.3710   9.3710   9.4604   9.4604   9.6793   9.7606   9.7606
    10.0067  10.0067  10.0762  10.0762  10.0871  10.0871  10.3485  10.3984
    12.2527  12.3563  12.7914  12.7914  12.8852  12.8852  13.8132  13.8132
    13.8370  13.8370  13.9522  13.9522  13.9723  13.9723  14.0176  14.0176
    14.1034  14.1034  14.2743  14.2743  14.4282  14.4659  14.4660  14.5128
    14.5128  14.5871  14.8164  14.8164  14.9956  15.2788  15.2788  15.5523
    15.6292  15.7783  16.2860  16.4866  16.4866  16.8654  17.0281  17.4502

          k = 0.0000 0.0000-0.4946 ( 20690 PWs)   bands (ev):

   -46.1116 -46.1116 -46.1106 -46.1106 -46.1106 -46.1106 -46.1095 -46.1095
   -22.4225 -22.4225 -22.4194 -22.4194 -22.4194 -22.4194 -22.4172 -22.4172
   -22.3903 -22.3903 -22.3903 -22.3903 -22.3872 -22.3872 -22.3872 -22.3872
   -22.3371 -22.3371 -22.3371 -22.3371 -22.3352 -22.3352 -22.3352 -22.3352
   -14.4025 -14.4024 -14.3022 -14.3021 -14.3021 -14.3020 -14.2291 -14.2290
    -6.5796  -6.5795  -6.5096  -6.5096  -6.5095  -6.5095  -6.0042  -6.0041
    -5.8485  -5.8484  -5.8305  -5.8305  -5.8304  -5.8304  -5.7953  -5.7952
    -5.6634  -5.6634  -5.6633  -5.6633  -5.6306  -5.6306  -5.6305  -5.6305
    -0.0371  -0.0371  -0.0370  -0.0370   0.1715   0.1716   0.4411   0.4412
     0.4412   0.4413   0.4497   0.4497   0.4498   0.4498   0.5280   0.5280
     0.5281   0.5281   0.5876   0.5877   0.6434   0.6434   0.6435   0.6435
     6.0725   6.0726   6.3212   6.3212   6.3213   6.3213   6.5899   6.5900
     6.9036   6.9036   6.9037   6.9037   7.1617   7.1619   7.1716   7.1716
     7.1717   7.1717   7.2025   7.2025   7.3860   7.3862   7.5570   7.5570
     7.5571   7.5571   7.8407   7.8407   7.8408   7.8408   7.9000   7.9000
     7.9002   7.9002   8.1309   8.1309   8.1311   8.1311   8.6171   8.6171
     8.6172   8.6172   8.8079   8.8081   8.9673   8.9673   8.9673   8.9674
     8.9888   8.9888   8.9889   8.9889   9.0895   9.0895   9.1964   9.1964
     9.1964   9.1964   9.7248   9.7248   9.7248   9.7248   9.7776   9.7776
     9.7776   9.7776   9.8789   9.8789   9.8790   9.8790  10.3732  10.3734
    12.3036  12.3037  13.3229  13.3229  13.3229  13.3229  13.3753  13.3753
    13.3754  13.3754  13.9627  13.9627  13.9627  13.9627  14.1065  14.1065
    14.1066  14.1066  14.2979  14.2979  14.2979  14.2979  14.4653  14.4653
    14.5065  14.5065  15.1536  15.1536  15.1536  15.1536  15.7165  15.7166
    16.3163  16.3165  16.4219  16.4221  16.5395  16.5397  17.0785  17.0786

          k = 0.0000 0.2500 0.0000 ( 20720 PWs)   bands (ev):

   -46.1119 -46.1112 -46.1110 -46.1108 -46.1103 -46.1101 -46.1100 -46.1092
   -22.4458 -22.4433 -22.4424 -22.4403 -22.3977 -22.3963 -22.3957 -22.3944
   -22.3915 -22.3890 -22.3884 -22.3865 -22.3842 -22.3812 -22.3809 -22.3785
   -22.3461 -22.3439 -22.3438 -22.3419 -22.3376 -22.3364 -22.3359 -22.3347
   -14.4402 -14.3547 -14.3346 -14.3254 -14.2788 -14.2706 -14.2571 -14.2087
    -6.7245  -6.7058  -6.6492  -6.5443  -6.3404  -6.2455  -6.0639  -5.8939
    -5.8826  -5.8732  -5.8509  -5.8267  -5.8012  -5.7661  -5.7634  -5.7526
    -5.7346  -5.7238  -5.7101  -5.7042  -5.6639  -5.6031  -5.5834  -5.5479
    -0.2605  -0.2344  -0.1827   0.2115   0.2661   0.3280   0.3404   0.3608
     0.3887   0.3995   0.4288   0.4331   0.4902   0.4988   0.5072   0.5230
     0.5513   0.5579   0.5684   0.6887   0.7071   0.7080   0.7095   0.7371
     6.0105   6.1031   6.1899   6.1966   6.3136   6.3766   6.4125   6.5141
     6.5608   6.5675   6.5675   6.6408   6.7228   6.7656   6.7707   7.4634
     7.5420   7.5985   7.6250   7.6322   7.6352   7.6356   7.6706   7.6768
     7.7090   7.7093   7.7384   7.7392   7.7510   7.7989   7.8241   7.9061
     7.9473   8.0183   8.0437   8.1682   8.2059   8.2562   8.2948   8.5785
     8.5981   8.6103   8.6883   8.6937   8.8025   8.8122   8.8330   8.9198
     8.9685   9.1391   9.1834   9.2395   9.3030   9.3043   9.3241   9.4212
     9.4247   9.4748   9.5151   9.5245   9.5551   9.5587   9.5954   9.6831
     9.9085  10.0084  10.0842  10.0938  10.1869  10.2227  10.2400  10.2527
    12.5182  12.5927  12.6465  12.6589  12.7015  12.8013  13.7333  13.7646
    13.7684  13.7885  13.9693  13.9836  14.0091  14.0113  14.0218  14.0219
    14.0582  14.0714  14.2572  14.2883  14.4037  14.4982  14.5052  14.5656
    14.5721  14.5789  14.7662  14.8157  14.9387  15.1268  15.2735  15.6452
    15.7669  15.7849  16.1375  16.5258  16.6844  16.9832  17.1478  17.3520

          k = 0.0000 0.2500 0.2473 ( 20703 PWs)   bands (ev):

   -46.1118 -46.1112 -46.1110 -46.1107 -46.1104 -46.1101 -46.1100 -46.1093
   -22.4388 -22.4364 -22.4355 -22.4337 -22.4048 -22.4033 -22.4026 -22.4011
   -22.3910 -22.3888 -22.3887 -22.3869 -22.3838 -22.3816 -22.3806 -22.3789
   -22.3457 -22.3442 -22.3435 -22.3422 -22.3374 -22.3362 -22.3360 -22.3348
   -14.4251 -14.3504 -14.3437 -14.3155 -14.2901 -14.2673 -14.2617 -14.2179
    -6.6581  -6.6324  -6.6107  -6.5294  -6.3170  -6.2680  -6.2055  -5.9015
    -5.8753  -5.8721  -5.8471  -5.8301  -5.8176  -5.7965  -5.7784  -5.7537
    -5.7327  -5.7122  -5.6971  -5.6947  -5.6551  -5.6190  -5.6120  -5.5727
    -0.2162  -0.1744  -0.0085   0.2093   0.2602   0.2642   0.2758   0.3442
     0.3681   0.3969   0.4217   0.4585   0.4642   0.4844   0.5154   0.5337
     0.5490   0.5896   0.5913   0.6132   0.6307   0.6794   0.6808   0.7117
     6.1084   6.1911   6.2087   6.3431   6.3554   6.5412   6.5656   6.6056
     6.6628   6.6918   6.7017   6.7098   6.7263   6.8056   6.8696   7.4298
     7.5094   7.5261   7.5421   7.5638   7.5890   7.6264   7.6367   7.6546
     7.6664   7.6718   7.7209   7.7752   7.7934   7.8497   7.8651   7.8713
     7.8764   7.9144   7.9154   8.0099   8.0101   8.3070   8.3213   8.3712
     8.4427   8.5836   8.7102   8.7235   8.7656   8.7940   8.8829   9.1311
     9.1438   9.1529   9.1742   9.1938   9.3006   9.3100   9.3691   9.3694
     9.3705   9.4347   9.4503   9.4770   9.4884   9.5000   9.5655   9.5762
     9.8440   9.9031   9.9330  10.0263  10.0606  10.0847  10.2409  10.2597
    12.5522  12.6405  12.8120  12.8675  12.8811  13.0029  13.7395  13.7536
    13.7902  13.7917  13.8167  13.8423  13.8884  13.8907  13.9845  14.0329
    14.0463  14.0912  14.1381  14.3091  14.3189  14.3812  14.4639  14.4865
    14.7060  14.7646  14.8209  15.1456  15.1927  15.2511  15.5759  15.7523
    15.9012  16.0671  16.3243  16.4727  16.6418  17.0286  17.1907  17.2803

          k = 0.0000 0.2500-0.4946 ( 20736 PWs)   bands (ev):

   -46.1115 -46.1115 -46.1107 -46.1107 -46.1104 -46.1104 -46.1097 -46.1097
   -22.4220 -22.4219 -22.4199 -22.4199 -22.4191 -22.4191 -22.4175 -22.4175
   -22.3899 -22.3899 -22.3878 -22.3878 -22.3827 -22.3827 -22.3798 -22.3798
   -22.3449 -22.3449 -22.3428 -22.3428 -22.3368 -22.3368 -22.3355 -22.3355
   -14.3881 -14.3880 -14.3171 -14.3171 -14.2916 -14.2915 -14.2399 -14.2399
    -6.5420  -6.5419  -6.4917  -6.4915  -6.4401  -6.4399  -6.0839  -6.0838
    -5.8662  -5.8661  -5.8515  -5.8515  -5.8061  -5.8060  -5.7827  -5.7826
    -5.6871  -5.6870  -5.6694  -5.6693  -5.6571  -5.6570  -5.6339  -5.6338
    -0.0362  -0.0362   0.0396   0.0397   0.2943   0.2944   0.3015   0.3015
     0.3879   0.3880   0.3979   0.3979   0.4389   0.4390   0.4767   0.4768
     0.5925   0.5925   0.6136   0.6136   0.6310   0.6311   0.6424   0.6424
     6.1832   6.1833   6.3074   6.3075   6.5178   6.5179   6.7333   6.7334
     6.9640   6.9640   7.0036   7.0037   7.1008   7.1010   7.1557   7.1558
     7.1833   7.1834   7.2860   7.2861   7.3338   7.3340   7.5784   7.5786
     7.6569   7.6570   7.6876   7.6877   7.8638   7.8638   7.8946   7.8947
     7.9351   7.9351   7.9861   7.9861   8.1347   8.1348   8.1942   8.1943
     8.4833   8.4834   8.5465   8.5465   8.8942   8.8943   8.9810   8.9811
     9.0758   9.0758   9.2340   9.2340   9.2805   9.2805   9.2889   9.2889
     9.3236   9.3237   9.6043   9.6043   9.6975   9.6975   9.7054   9.7054
     9.7485   9.7485   9.7566   9.7566   9.8026   9.8027  10.2479  10.2481
    12.5967  12.5968  13.3298  13.3299  13.3324  13.3325  13.3613  13.3614
    13.4559  13.4560  13.7551  13.7552  13.9186  13.9186  14.0165  14.0166
    14.1267  14.1268  14.1360  14.1360  14.2696  14.2696  14.3949  14.3950
    14.7550  14.7551  15.1367  15.1367  15.6036  15.6037  15.8930  15.8932
    16.4802  16.4804  16.5210  16.5212  16.8227  16.8229  16.9113  16.9115

          k = 0.0000-0.5000 0.0000 ( 20694 PWs)   bands (ev):

   -46.1115 -46.1115 -46.1106 -46.1106 -46.1105 -46.1105 -46.1096 -46.1096
   -22.4445 -22.4445 -22.4414 -22.4414 -22.3971 -22.3971 -22.3950 -22.3950
   -22.3902 -22.3902 -22.3874 -22.3874 -22.3652 -22.3652 -22.3626 -22.3626
   -22.3623 -22.3623 -22.3603 -22.3603 -22.3369 -22.3369 -22.3354 -22.3354
   -14.3979 -14.3979 -14.3069 -14.3069 -14.2982 -14.2982 -14.2331 -14.2331
    -6.6161  -6.6161  -6.5310  -6.5310  -6.4604  -6.4604  -5.8730  -5.8730
    -5.8673  -5.8673  -5.8206  -5.8205  -5.7898  -5.7898  -5.7853  -5.7852
    -5.7390  -5.7389  -5.7224  -5.7224  -5.6649  -5.6648  -5.6283  -5.6283
    -0.0299  -0.0299   0.0194   0.0194   0.1478   0.1479   0.4064   0.4064
     0.4089   0.4090   0.4468   0.4468   0.4601   0.4601   0.5186   0.5186
     0.5712   0.5712   0.5772   0.5772   0.6319   0.6319   0.6364   0.6365
     6.0897   6.0897   6.2696   6.2696   6.3095   6.3095   6.5641   6.5641
     6.8557   6.8557   6.9795   6.9795   7.1667   7.1667   7.1992   7.1992
     7.2200   7.2200   7.2929   7.2929   7.3732   7.3732   7.6204   7.6204
     7.6595   7.6595   7.8521   7.8521   7.8893   7.8893   7.8910   7.8910
     7.8982   7.8982   7.9569   7.9570   8.0092   8.0092   8.4788   8.4789
     8.6946   8.6947   8.7798   8.7798   8.8779   8.8779   8.9139   8.9139
     8.9730   8.9730   9.1289   9.1289   9.1568   9.1568   9.2974   9.2975
     9.3129   9.3130   9.6388   9.6388   9.7631   9.7631   9.7651   9.7651
     9.7845   9.7845   9.8792   9.8792   9.9057   9.9057  10.2122  10.2122
    12.5997  12.5997  13.1850  13.1851  13.2136  13.2136  13.2449  13.2450
    13.2636  13.2636  14.0107  14.0107  14.0161  14.0161  14.0643  14.0643
    14.0911  14.0911  14.2594  14.2594  14.2679  14.2679  14.4912  14.4912
    14.5760  14.5760  15.0849  15.0850  15.1301  15.1302  15.6476  15.6476
    16.3976  16.3976  16.5417  16.5417  16.6300  16.6300  17.1812  17.1812

          k = 0.0000-0.5000 0.2473 ( 20708 PWs)   bands (ev):

   -46.1114 -46.1114 -46.1108 -46.1108 -46.1103 -46.1103 -46.1097 -46.1097
   -22.4376 -22.4376 -22.4346 -22.4346 -22.4040 -22.4040 -22.4019 -22.4019
   -22.3898 -22.3898 -22.3878 -22.3878 -22.3648 -22.3648 -22.3630 -22.3630
   -22.3621 -22.3621 -22.3606 -22.3606 -22.3367 -22.3367 -22.3356 -22.3356
   -14.3848 -14.3848 -14.3205 -14.3205 -14.2888 -14.2888 -14.2428 -14.2427
    -6.5711  -6.5711  -6.4576  -6.4576  -6.4552  -6.4552  -6.0354  -6.0354
    -5.8741  -5.8741  -5.8378  -5.8378  -5.7715  -5.7715  -5.7536  -5.7536
    -5.7331  -5.7331  -5.7324  -5.7324  -5.6582  -5.6582  -5.6324  -5.6324
    -0.0101  -0.0101   0.0450   0.0450   0.2724   0.2724   0.2992   0.2992
     0.3790   0.3790   0.3963   0.3963   0.4325   0.4325   0.4841   0.4842
     0.6056   0.6056   0.6136   0.6136   0.6193   0.6193   0.6360   0.6360
     6.1947   6.1947   6.2998   6.2998   6.4748   6.4748   6.7081   6.7081
     6.9704   6.9705   7.0110   7.0110   7.1305   7.1306   7.1483   7.1483
     7.2107   7.2108   7.3363   7.3363   7.3739   7.3739   7.6081   7.6082
     7.6762   7.6762   7.7333   7.7334   7.8795   7.8795   7.9024   7.9024
     7.9220   7.9220   7.9339   7.9339   8.0106   8.0107   8.1581   8.1581
     8.5028   8.5028   8.5441   8.5441   8.9011   8.9011   9.0030   9.0030
     9.1908   9.1908   9.1979   9.1979   9.2065   9.2066   9.2754   9.2755
     9.3343   9.3344   9.5481   9.5481   9.6495   9.6495   9.7169   9.7169
     9.7963   9.7963   9.8551   9.8551   9.8853   9.8854  10.0933  10.0933
    12.8234  12.8234  13.2001  13.2001  13.2320  13.2320  13.2893  13.2893
    13.4131  13.4131  13.8264  13.8264  13.8964  13.8964  14.0586  14.0586
    14.1068  14.1068  14.1179  14.1179  14.2404  14.2404  14.3940  14.3940
    14.8105  14.8105  15.1166  15.1166  15.5128  15.5128  15.8314  15.8314
    16.5726  16.5726  16.6498  16.6498  16.8321  16.8321  17.0128  17.0128

          k = 0.0000-0.5000-0.4946 ( 20772 PWs)   bands (ev):

   -46.1111 -46.1111 -46.1111 -46.1111 -46.1100 -46.1100 -46.1100 -46.1100
   -22.4209 -22.4209 -22.4209 -22.4209 -22.4183 -22.4183 -22.4183 -22.4183
   -22.3889 -22.3889 -22.3889 -22.3889 -22.3640 -22.3640 -22.3640 -22.3640
   -22.3613 -22.3613 -22.3613 -22.3613 -22.3362 -22.3362 -22.3362 -22.3362
   -14.3529 -14.3529 -14.3529 -14.3528 -14.2659 -14.2659 -14.2659 -14.2658
    -6.4864  -6.4864  -6.4862  -6.4862  -6.2668  -6.2668  -6.2667  -6.2667
    -5.8826  -5.8826  -5.8825  -5.8825  -5.7465  -5.7465  -5.7464  -5.7464
    -5.7375  -5.7375  -5.7374  -5.7374  -5.6440  -5.6440  -5.6439  -5.6439
     0.0769   0.0769   0.0770   0.0770   0.2332   0.2332   0.2332   0.2333
     0.3591   0.3591   0.3591   0.3591   0.5155   0.5155   0.5155   0.5155
     0.5437   0.5437   0.5438   0.5438   0.6470   0.6470   0.6470   0.6470
     6.2759   6.2759   6.2760   6.2760   6.9018   6.9018   6.9018   6.9018
     7.0672   7.0672   7.0673   7.0673   7.1758   7.1758   7.1759   7.1759
     7.2500   7.2500   7.2500   7.2501   7.3255   7.3256   7.3257   7.3257
     7.6973   7.6973   7.6974   7.6974   7.8362   7.8362   7.8363   7.8363
     7.8888   7.8888   7.8888   7.8889   8.1170   8.1170   8.1170   8.1170
     8.2311   8.2311   8.2312   8.2312   8.8749   8.8749   8.8750   8.8750
     9.3160   9.3160   9.3160   9.3160   9.3559   9.3559   9.3559   9.3559
     9.3891   9.3891   9.3891   9.3891   9.6955   9.6955   9.6955   9.6955
     9.7983   9.7983   9.7983   9.7983   9.8725   9.8725   9.8726   9.8726
    13.1847  13.1847  13.1847  13.1848  13.3727  13.3727  13.3727  13.3727
    13.5471  13.5471  13.5472  13.5472  13.7581  13.7581  13.7581  13.7582
    14.1701  14.1701  14.1701  14.1701  14.2108  14.2108  14.2108  14.2108
    15.0462  15.0462  15.0462  15.0462  16.3191  16.3191  16.3192  16.3193
    16.4247  16.4247  16.4248  16.4248  17.0230  17.0230  17.0232  17.0232

          k = 0.2500 0.2500 0.0000 ( 20724 PWs)   bands (ev):

   -46.1118 -46.1110 -46.1110 -46.1109 -46.1103 -46.1101 -46.1101 -46.1094
   -22.4453 -22.4429 -22.4429 -22.4408 -22.3974 -22.3960 -22.3960 -22.3947
   -22.3838 -22.3838 -22.3815 -22.3812 -22.3808 -22.3808 -22.3792 -22.3788
   -22.3461 -22.3454 -22.3440 -22.3440 -22.3438 -22.3436 -22.3422 -22.3422
   -14.4238 -14.3426 -14.3426 -14.3234 -14.2831 -14.2687 -14.2687 -14.2192
    -6.6641  -6.6641  -6.5753  -6.5426  -6.3878  -6.1697  -6.1697  -5.8768
    -5.8570  -5.8570  -5.8321  -5.8321  -5.8026  -5.7844  -5.7648  -5.7552
    -5.7513  -5.7295  -5.7157  -5.7120  -5.7120  -5.6138  -5.6138  -5.6082
    -0.2388  -0.1217  -0.0289   0.2154   0.2154   0.3110   0.3296   0.3297
     0.3654   0.3822   0.4130   0.4481   0.4591   0.4591   0.5224   0.5379
     0.5379   0.5852   0.5853   0.6190   0.6632   0.6786   0.6818   0.6818
     6.1090   6.1992   6.1992   6.2999   6.3294   6.5710   6.5710   6.6005
     6.6005   6.6830   6.7037   6.8025   6.8025   6.8076   6.8132   7.3164
     7.5387   7.5698   7.5698   7.6129   7.6418   7.6497   7.6497   7.6605
     7.6901   7.7101   7.7101   7.7895   7.7895   7.8060   7.8684   7.8684
     7.9049   7.9148   7.9609   7.9906   8.0230   8.2443   8.2443   8.4272
     8.4272   8.6090   8.6921   8.6921   8.7003   8.7640   9.0112   9.0113
     9.1114   9.1140   9.1341   9.2074   9.2175   9.2738   9.3327   9.4174
     9.4174   9.4438   9.4438   9.4758   9.5162   9.5162   9.6064   9.6064
     9.9392   9.9425  10.0403  10.0782  10.0852  10.0852  10.1504  10.1725
    12.6339  12.7683  12.7774  12.7817  12.7817  12.8813  13.7276  13.7542
    13.7542  13.7809  13.7809  13.8426  13.8612  13.8612  13.9848  14.0178
    14.0610  14.0610  14.1574  14.2933  14.2933  14.3747  14.4598  14.4698
    14.8061  14.8329  14.8329  15.1176  15.1413  15.1445  15.7466  15.7466
    15.9475  16.0374  16.3553  16.3553  16.8090  17.2392  17.2715  17.3223

          k = 0.2500 0.2500 0.2473 ( 20739 PWs)   bands (ev):

   -46.1116 -46.1110 -46.1109 -46.1109 -46.1102 -46.1102 -46.1101 -46.1095
   -22.4384 -22.4360 -22.4360 -22.4342 -22.4045 -22.4029 -22.4029 -22.4014
   -22.3833 -22.3833 -22.3813 -22.3812 -22.3812 -22.3809 -22.3795 -22.3791
   -22.3456 -22.3452 -22.3441 -22.3438 -22.3438 -22.3438 -22.3426 -22.3426
   -14.4094 -14.3384 -14.3319 -14.3319 -14.2797 -14.2797 -14.2739 -14.2287
    -6.5968  -6.5968  -6.5448  -6.5173  -6.3163  -6.2466  -6.2465  -5.9251
    -5.8902  -5.8506  -5.8506  -5.8267  -5.8267  -5.7952  -5.7820  -5.7589
    -5.7347  -5.7093  -5.7087  -5.6988  -5.6988  -5.6348  -5.6348  -5.6308
    -0.1611  -0.1258   0.1468   0.2272   0.2530   0.2530   0.2874   0.3134
     0.3134   0.3683   0.3745   0.3801   0.3927   0.3927   0.4850   0.4850
     0.5035   0.6151   0.6357   0.6411   0.6412   0.7178   0.7179   0.7317
     6.2398   6.3313   6.3424   6.3424   6.5164   6.5678   6.5678   6.6687
     6.6687   6.7921   6.8073   6.8116   6.8351   6.9032   6.9032   7.3646
     7.4075   7.4076   7.4813   7.4975   7.6542   7.6543   7.6594   7.6641
     7.6641   7.7050   7.7946   7.7946   7.8131   7.8305   7.8406   7.8605
     7.8605   7.8822   7.8984   7.9103   8.0643   8.0643   8.0770   8.3552
     8.4562   8.4562   8.5023   8.5279   8.7312   8.7312   8.9643   9.1464
     9.1734   9.1999   9.1999   9.2295   9.3024   9.3024   9.3101   9.3872
     9.3872   9.4253   9.4376   9.5036   9.5036   9.5357   9.5538   9.5538
     9.8108   9.8628   9.9010   9.9593  10.0140  10.0140  10.1570  10.1649
    12.7435  12.8616  12.9031  12.9253  12.9831  12.9831  13.7758  13.7758
    13.7911  13.8141  13.8141  13.8285  13.8303  13.8303  13.8333  13.8952
    13.8952  13.9174  14.1752  14.1753  14.1889  14.3239  14.3446  14.3673
    15.1225  15.1372  15.1603  15.1603  15.2048  15.5916  15.7305  15.7306
    16.1705  16.2987  16.4650  16.4650  16.5893  17.1592  17.4099  17.5314

          k = 0.2500 0.2500-0.4946 ( 20734 PWs)   bands (ev):

   -46.1113 -46.1113 -46.1106 -46.1106 -46.1106 -46.1106 -46.1098 -46.1098
   -22.4216 -22.4216 -22.4195 -22.4195 -22.4195 -22.4195 -22.4178 -22.4178
   -22.3823 -22.3823 -22.3823 -22.3823 -22.3803 -22.3803 -22.3800 -22.3799
   -22.3449 -22.3449 -22.3445 -22.3445 -22.3432 -22.3432 -22.3432 -22.3432
   -14.3743 -14.3742 -14.3060 -14.3060 -14.3060 -14.3059 -14.2514 -14.2514
    -6.5007  -6.5006  -6.4273  -6.4273  -6.4272  -6.4272  -6.1341  -6.1340
    -5.8714  -5.8713  -5.8285  -5.8284  -5.8284  -5.8284  -5.7772  -5.7771
    -5.6991  -5.6990  -5.6839  -5.6837  -5.6743  -5.6743  -5.6741  -5.6741
     0.0264   0.0264   0.0300   0.0301   0.3050   0.3050   0.3051   0.3051
     0.3746   0.3747   0.3798   0.3799   0.3799   0.3799   0.3976   0.3976
     0.4297   0.4297   0.7136   0.7136   0.7137   0.7137   0.7185   0.7185
     6.3315   6.3317   6.4910   6.4910   6.4911   6.4911   6.8085   6.8086
     7.0098   7.0098   7.0099   7.0099   7.0273   7.0274   7.1067   7.1067
     7.2977   7.2977   7.2978   7.2978   7.4149   7.4150   7.5667   7.5668
     7.6832   7.6832   7.6833   7.6833   7.7794   7.7795   7.8731   7.8731
     7.9347   7.9348   8.0078   8.0078   8.0079   8.0079   8.1857   8.1858
     8.2376   8.2377   8.5189   8.5189   8.5189   8.5189   8.9316   8.9316
     9.2536   9.2536   9.2536   9.2536   9.2950   9.2950   9.4566   9.4567
     9.4567   9.4567   9.5538   9.5539   9.6455   9.6455   9.6908   9.6909
     9.6960   9.6960   9.7627   9.7627   9.7627   9.7627  10.1560  10.1561
    12.8117  12.8118  13.3417  13.3418  13.3681  13.3682  13.4354  13.4354
    13.4355  13.4355  13.8171  13.8171  13.8172  13.8172  13.9531  13.9531
    13.9531  13.9531  14.0806  14.0807  14.1126  14.1126  14.2673  14.2673
    15.1304  15.1304  15.5976  15.5976  15.5976  15.5976  15.9799  15.9801
    16.5126  16.5128  16.7288  16.7291  16.9241  16.9241  16.9242  16.9242

          k = 0.2500-0.5000 0.0000 ( 20748 PWs)   bands (ev):

   -46.1114 -46.1114 -46.1106 -46.1106 -46.1105 -46.1105 -46.1097 -46.1097
   -22.4440 -22.4440 -22.4419 -22.4419 -22.3967 -22.3967 -22.3954 -22.3954
   -22.3826 -22.3826 -22.3799 -22.3799 -22.3648 -22.3648 -22.3628 -22.3628
   -22.3623 -22.3623 -22.3607 -22.3607 -22.3449 -22.3449 -22.3430 -22.3430
   -14.3836 -14.3836 -14.3131 -14.3131 -14.2963 -14.2963 -14.2441 -14.2441
    -6.5817  -6.5817  -6.5206  -6.5205  -6.3858  -6.3858  -5.9793  -5.9793
    -5.8458  -5.8458  -5.8176  -5.8176  -5.7926  -5.7926  -5.7877  -5.7877
    -5.7446  -5.7446  -5.7216  -5.7216  -5.6796  -5.6796  -5.6573  -5.6573
    -0.0452  -0.0452   0.0996   0.0996   0.2662   0.2662   0.2865   0.2865
     0.3603   0.3603   0.3909   0.3909   0.4732   0.4732   0.4900   0.4901
     0.5715   0.5715   0.6177   0.6177   0.6269   0.6269   0.6315   0.6315
     6.1869   6.1869   6.2718   6.2718   6.5057   6.5057   6.7066   6.7066
     6.8733   6.8733   7.1095   7.1095   7.1179   7.1179   7.1410   7.1410
     7.2763   7.2763   7.2950   7.2951   7.3535   7.3535   7.6240   7.6240
     7.7096   7.7096   7.7189   7.7189   7.8664   7.8664   7.8869   7.8869
     7.9249   7.9249   8.0075   8.0075   8.0574   8.0574   8.2493   8.2493
     8.4640   8.4640   8.6047   8.6047   8.7054   8.7054   8.8250   8.8250
     9.1211   9.1211   9.1344   9.1344   9.2435   9.2435   9.3389   9.3389
     9.3940   9.3940   9.6809   9.6810   9.7468   9.7468   9.7490   9.7490
     9.7607   9.7607   9.7885   9.7885   9.9224   9.9224  10.0967  10.0967
    12.7320  12.7320  13.2241  13.2241  13.2442  13.2442  13.2698  13.2699
    13.3844  13.3844  13.7856  13.7856  13.9133  13.9133  14.0290  14.0290
    14.1004  14.1004  14.1026  14.1027  14.2341  14.2341  14.3790  14.3790
    14.8478  14.8478  15.0988  15.0988  15.5827  15.5827  15.8415  15.8415
    16.6437  16.6438  16.6572  16.6572  16.7705  16.7705  16.9895  16.9896

          k = 0.2500-0.5000 0.2473 ( 20750 PWs)   bands (ev):

   -46.1113 -46.1113 -46.1106 -46.1106 -46.1105 -46.1105 -46.1099 -46.1099
   -22.4372 -22.4372 -22.4351 -22.4351 -22.4037 -22.4037 -22.4022 -22.4022
   -22.3821 -22.3821 -22.3802 -22.3802 -22.3644 -22.3644 -22.3627 -22.3627
   -22.3625 -22.3625 -22.3610 -22.3610 -22.3446 -22.3446 -22.3432 -22.3432
   -14.3710 -14.3710 -14.3093 -14.3093 -14.3031 -14.3031 -14.2543 -14.2543
    -6.5326  -6.5326  -6.4510  -6.4510  -6.3868  -6.3868  -6.0775  -6.0775
    -5.8541  -5.8541  -5.8325  -5.8325  -5.7924  -5.7924  -5.7768  -5.7768
    -5.7492  -5.7492  -5.7245  -5.7245  -5.6845  -5.6845  -5.6654  -5.6654
     0.0129   0.0129   0.0695   0.0695   0.2798   0.2798   0.2815   0.2815
     0.3767   0.3767   0.3818   0.3818   0.3894   0.3894   0.4112   0.4112
     0.4300   0.4300   0.7064   0.7064   0.7144   0.7144   0.7147   0.7147
     6.3357   6.3357   6.4628   6.4628   6.4838   6.4838   6.7724   6.7724
     6.9535   6.9535   7.0548   7.0549   7.0797   7.0797   7.1004   7.1004
     7.3047   7.3047   7.3641   7.3641   7.4082   7.4083   7.5972   7.5972
     7.7087   7.7087   7.7128   7.7128   7.7744   7.7744   7.8800   7.8800
     7.9645   7.9645   7.9669   7.9669   7.9876   7.9876   8.2000   8.2000
     8.2552   8.2552   8.4174   8.4174   8.6281   8.6281   8.7470   8.7470
     9.2570   9.2570   9.2671   9.2671   9.2987   9.2987   9.3579   9.3579
     9.4747   9.4747   9.6116   9.6116   9.6194   9.6194   9.7160   9.7160
     9.7596   9.7596   9.8083   9.8083   9.8935   9.8935  10.0120  10.0120
    12.9302  12.9302  13.2774  13.2774  13.3249  13.3249  13.3640  13.3640
    13.3902  13.3902  13.8443  13.8443  13.8461  13.8461  13.9357  13.9357
    13.9438  13.9438  14.0540  14.0540  14.0989  14.0989  14.2627  14.2627
    15.1795  15.1795  15.5273  15.5273  15.5788  15.5788  15.9265  15.9265
    16.6581  16.6582  16.8092  16.8093  16.9864  16.9864  16.9951  16.9951

          k = 0.2500-0.5000-0.4946 ( 20720 PWs)   bands (ev):

   -46.1109 -46.1109 -46.1109 -46.1109 -46.1102 -46.1102 -46.1102 -46.1102
   -22.4206 -22.4206 -22.4205 -22.4205 -22.4187 -22.4187 -22.4186 -22.4186
   -22.3812 -22.3812 -22.3812 -22.3812 -22.3635 -22.3635 -22.3635 -22.3635
   -22.3617 -22.3617 -22.3617 -22.3617 -22.3439 -22.3439 -22.3439 -22.3439
   -14.3404 -14.3404 -14.3404 -14.3403 -14.2789 -14.2789 -14.2788 -14.2788
    -6.4344  -6.4344  -6.4343  -6.4343  -6.2746  -6.2746  -6.2745  -6.2745
    -5.8688  -5.8688  -5.8687  -5.8687  -5.7680  -5.7680  -5.7680  -5.7679
    -5.7406  -5.7406  -5.7405  -5.7405  -5.6841  -5.6841  -5.6840  -5.6840
     0.1174   0.1174   0.1174   0.1174   0.1875   0.1875   0.1876   0.1876
     0.3159   0.3159   0.3159   0.3159   0.3637   0.3637   0.3637   0.3637
     0.6301   0.6301   0.6301   0.6301   0.7690   0.7690   0.7691   0.7691
     6.4480   6.4480   6.4481   6.4481   6.8147   6.8147   6.8147   6.8147
     7.0103   7.0103   7.0103   7.0103   7.2498   7.2498   7.2499   7.2499
     7.2654   7.2654   7.2655   7.2655   7.4854   7.4854   7.4855   7.4855
     7.5701   7.5701   7.5702   7.5702   7.8997   7.8997   7.8998   7.8998
     7.9092   7.9092   7.9092   7.9092   8.0520   8.0520   8.0520   8.0520
     8.1195   8.1195   8.1196   8.1196   8.5536   8.5536   8.5537   8.5537
     9.3748   9.3748   9.3748   9.3748   9.4415   9.4415   9.4415   9.4415
     9.5386   9.5386   9.5387   9.5387   9.6857   9.6857   9.6857   9.6857
     9.7384   9.7384   9.7384   9.7384   9.8643   9.8643   9.8644   9.8644
    13.2909  13.2909  13.2909  13.2909  13.4290  13.4290  13.4291  13.4291
    13.5853  13.5853  13.5853  13.5853  13.7281  13.7281  13.7282  13.7282
    13.9947  13.9947  13.9947  13.9947  14.0426  14.0427  14.0427  14.0427
    15.5212  15.5212  15.5212  15.5212  16.3449  16.3450  16.3451  16.3451
    16.4170  16.4170  16.4171  16.4171  17.0674  17.0674  17.0674  17.0674

          k =-0.5000-0.5000 0.0000 ( 20768 PWs)   bands (ev):

   -46.1110 -46.1110 -46.1110 -46.1110 -46.1101 -46.1101 -46.1101 -46.1101
   -22.4429 -22.4429 -22.4429 -22.4429 -22.3962 -22.3962 -22.3962 -22.3962
   -22.3644 -22.3644 -22.3644 -22.3644 -22.3634 -22.3634 -22.3634 -22.3634
   -22.3617 -22.3617 -22.3617 -22.3617 -22.3611 -22.3611 -22.3611 -22.3611
   -14.3487 -14.3486 -14.3486 -14.3486 -14.2704 -14.2703 -14.2703 -14.2703
    -6.5273  -6.5273  -6.5273  -6.5273  -6.1952  -6.1952  -6.1952  -6.1952
    -5.8035  -5.8035  -5.8035  -5.8035  -5.7800  -5.7800  -5.7800  -5.7800
    -5.7774  -5.7774  -5.7774  -5.7774  -5.6816  -5.6815  -5.6815  -5.6815
     0.0562   0.0562   0.0562   0.0562   0.2895   0.2895   0.2895   0.2895
     0.3392   0.3392   0.3393   0.3393   0.5052   0.5052   0.5052   0.5052
     0.5345   0.5345   0.5346   0.5346   0.6468   0.6468   0.6468   0.6468
     6.2611   6.2611   6.2611   6.2611   6.8947   6.8947   6.8947   6.8947
     6.9122   6.9122   6.9122   6.9122   7.3044   7.3044   7.3044   7.3044
     7.3174   7.3174   7.3174   7.3174   7.3708   7.3709   7.3709   7.3709
     7.6969   7.6969   7.6969   7.6970   7.8500   7.8500   7.8500   7.8500
     7.9080   7.9080   7.9080   7.9080   8.2225   8.2225   8.2225   8.2225
     8.2432   8.2432   8.2432   8.2432   8.5222   8.5222   8.5222   8.5222
     9.2572   9.2572   9.2572   9.2572   9.4846   9.4846   9.4846   9.4846
     9.5189   9.5189   9.5189   9.5189   9.6892   9.6892   9.6892   9.6892
     9.7777   9.7777   9.7777   9.7777   9.8996   9.8996   9.8996   9.8996
    13.1251  13.1252  13.1252  13.1252  13.3445  13.3445  13.3445  13.3445
    13.5401  13.5401  13.5401  13.5401  13.7347  13.7347  13.7347  13.7348
    14.1491  14.1491  14.1491  14.1491  14.1841  14.1841  14.1841  14.1841
    15.0700  15.0700  15.0700  15.0700  16.3635  16.3635  16.3635  16.3635
    16.4449  16.4449  16.4449  16.4449  17.1350  17.1351  17.1352  17.3294

          k =-0.5000-0.5000 0.2473 ( 20776 PWs)   bands (ev):

   -46.1109 -46.1109 -46.1109 -46.1109 -46.1103 -46.1103 -46.1103 -46.1103
   -22.4362 -22.4362 -22.4362 -22.4362 -22.4030 -22.4030 -22.4030 -22.4030
   -22.3639 -22.3639 -22.3639 -22.3639 -22.3631 -22.3631 -22.3631 -22.3631
   -22.3621 -22.3621 -22.3621 -22.3621 -22.3615 -22.3615 -22.3615 -22.3615
   -14.3374 -14.3374 -14.3373 -14.3373 -14.2820 -14.2820 -14.2820 -14.2820
    -6.4677  -6.4677  -6.4677  -6.4677  -6.2227  -6.2227  -6.2227  -6.2227
    -5.8237  -5.8237  -5.8237  -5.8237  -5.7946  -5.7946  -5.7946  -5.7945
    -5.7660  -5.7660  -5.7660  -5.7660  -5.6964  -5.6964  -5.6964  -5.6964
     0.0979   0.0979   0.0979   0.0979   0.2238   0.2239   0.2239   0.2239
     0.2981   0.2981   0.2981   0.2981   0.3660   0.3661   0.3661   0.3661
     0.6317   0.6317   0.6317   0.6317   0.7641   0.7641   0.7641   0.7642
     6.4385   6.4385   6.4385   6.4385   6.8116   6.8116   6.8116   6.8116
     6.9232   6.9232   6.9232   6.9232   7.3106   7.3106   7.3106   7.3106
     7.3590   7.3590   7.3590   7.3591   7.4816   7.4816   7.4816   7.4816
     7.5485   7.5485   7.5485   7.5485   7.9232   7.9232   7.9232   7.9233
     7.9236   7.9236   7.9236   7.9236   8.1349   8.1349   8.1349   8.1349
     8.1352   8.1352   8.1352   8.1352   8.3451   8.3451   8.3451   8.3451
     9.4080   9.4081   9.4081   9.4081   9.4436   9.4436   9.4436   9.4436
     9.5518   9.5518   9.5518   9.5518   9.6790   9.6790   9.6790   9.6790
     9.7805   9.7805   9.7805   9.7805   9.8503   9.8503   9.8503   9.8503
    13.2792  13.2792  13.2792  13.2792  13.4255  13.4255  13.4255  13.4256
    13.5745  13.5745  13.5745  13.5745  13.7039  13.7039  13.7039  13.7040
    13.9894  13.9894  13.9894  13.9894  14.0290  14.0290  14.0290  14.0290
    15.5009  15.5009  15.5009  15.5009  16.3815  16.3815  16.3815  16.3815
    16.4374  16.4374  16.4374  16.4374  17.0896  17.0896  17.0896  17.0896

          k =-0.5000-0.5000-0.4946 ( 20704 PWs)   bands (ev):

   -46.1106 -46.1106 -46.1106 -46.1106 -46.1106 -46.1106 -46.1106 -46.1106
   -22.4196 -22.4196 -22.4196 -22.4196 -22.4195 -22.4195 -22.4195 -22.4195
   -22.3630 -22.3630 -22.3630 -22.3630 -22.3630 -22.3630 -22.3630 -22.3630
   -22.3623 -22.3623 -22.3623 -22.3623 -22.3622 -22.3622 -22.3622 -22.3622
   -14.3099 -14.3099 -14.3099 -14.3099 -14.3099 -14.3098 -14.3098 -14.3098
    -6.3309  -6.3309  -6.3309  -6.3308  -6.3307  -6.3307  -6.3307  -6.3307
    -5.8262  -5.8262  -5.8262  -5.8262  -5.8261  -5.8261  -5.8261  -5.8261
    -5.7317  -5.7317  -5.7317  -5.7317  -5.7316  -5.7315  -5.7315  -5.7315
     0.1982   0.1982   0.1982   0.1982   0.1983   0.1983   0.1983   0.1983
     0.2270   0.2270   0.2271   0.2271   0.2271   0.2271   0.2271   0.2271
     0.7706   0.7706   0.7706   0.7706   0.7706   0.7706   0.7706   0.7706
     6.6566   6.6566   6.6566   6.6567   6.6567   6.6567   6.6567   6.6567
     7.2423   7.2423   7.2423   7.2424   7.2425   7.2425   7.2425   7.2425
     7.3318   7.3318   7.3318   7.3318   7.3319   7.3319   7.3319   7.3319
     7.8484   7.8484   7.8484   7.8484   7.8484   7.8484   7.8484   7.8485
     7.9858   7.9858   7.9858   7.9858   7.9859   7.9859   7.9859   7.9859
     7.9914   7.9914   7.9914   7.9914   7.9915   7.9915   7.9915   7.9915
     9.5776   9.5776   9.5776   9.5776   9.5776   9.5776   9.5776   9.5776
     9.5828   9.5828   9.5828   9.5829   9.5829   9.5829   9.5829   9.5829
     9.7734   9.7734   9.7734   9.7734   9.7735   9.7735   9.7735   9.7735
    13.5948  13.5948  13.5948  13.5948  13.5948  13.5949  13.5949  13.5949
    13.6682  13.6682  13.6682  13.6682  13.6683  13.6683  13.6683  13.6683
    13.6981  13.6982  13.6982  13.6982  13.6982  13.6982  13.6982  13.6982
    16.3824  16.3824  16.3824  16.3824  16.3825  16.3825  16.3825  16.3826
    16.4143  16.4143  16.4143  16.4143  16.4143  16.4143  16.4143  16.4143

     highest occupied, lowest unoccupied level (ev):    10.4089   12.2321

!    total energy              =   -5964.58030171 Ry
     total all-electron energy =   -147449.033874 Ry
     estimated scf accuracy    <          7.0E-11 Ry

     The total energy is the sum of the following terms:
     one-electron contribution =    -550.39680154 Ry
     hartree contribution      =     483.83929997 Ry
     xc contribution           =    -491.50768638 Ry
     ewald contribution        =   -1653.96634398 Ry
     one-center paw contrib.   =   -3752.54876978 Ry

     convergence has been achieved in   5 iterations

     Forces acting on atoms (cartesian axes, Ry/au):

     atom    1 type  1   force =     0.00000000    0.00000000   -0.00097223
     atom    2 type  1   force =     0.00000000    0.00000000   -0.00093989
     atom    3 type  1   force =     0.00000000    0.00000000   -0.00095990
     atom    4 type  1   force =     0.00000000    0.00000000   -0.00094711
     atom    5 type  1   force =     0.00000000    0.00000000   -0.00095990
     atom    6 type  1   force =     0.00000000    0.00000000   -0.00094711
     atom    7 type  1   force =     0.00000000    0.00000000   -0.00097654
     atom    8 type  1   force =     0.00000000    0.00000000   -0.00093932
     atom    9 type  2   force =    -0.00000068   -0.00000068    0.00034453
     atom   10 type  2   force =    -0.00000154   -0.00000154    0.00035329
     atom   11 type  2   force =    -0.00000068    0.00000068    0.00034453
     atom   12 type  2   force =    -0.00000154    0.00000154    0.00035329
     atom   13 type  2   force =     0.00000068   -0.00000068    0.00034453
     atom   14 type  2   force =     0.00000154   -0.00000154    0.00035329
     atom   15 type  2   force =     0.00000068    0.00000068    0.00034453
     atom   16 type  2   force =     0.00000154    0.00000154    0.00035329
     atom   17 type  3   force =    -0.00000147   -0.00000147   -0.00021568
     atom   18 type  3   force =    -0.00000241   -0.00000241   -0.00020696
     atom   19 type  3   force =    -0.00000147    0.00000147   -0.00021568
     atom   20 type  3   force =    -0.00000241    0.00000241   -0.00020696
     atom   21 type  3   force =     0.00000147   -0.00000147   -0.00021568
     atom   22 type  3   force =     0.00000241   -0.00000241   -0.00020696
     atom   23 type  3   force =     0.00000147    0.00000147   -0.00021568
     atom   24 type  3   force =     0.00000241    0.00000241   -0.00020696
     atom   25 type  3   force =    -0.00000192    0.00000000    0.00040326
     atom   26 type  3   force =    -0.00000562    0.00000000    0.00040755
     atom   27 type  3   force =     0.00000078    0.00000000    0.00040782
     atom   28 type  3   force =     0.00000263    0.00000000    0.00041670
     atom   29 type  3   force =     0.00000192    0.00000000    0.00040326
     atom   30 type  3   force =     0.00000562    0.00000000    0.00040755
     atom   31 type  3   force =    -0.00000078    0.00000000    0.00040782
     atom   32 type  3   force =    -0.00000263   -0.00000000    0.00041670
     atom   33 type  3   force =     0.00000000   -0.00000192    0.00040326
     atom   34 type  3   force =     0.00000000   -0.00000562    0.00040755
     atom   35 type  3   force =     0.00000000    0.00000192    0.00040326
     atom   36 type  3   force =     0.00000000    0.00000562    0.00040755
     atom   37 type  3   force =     0.00000000    0.00000078    0.00040782
     atom   38 type  3   force =     0.00000000    0.00000263    0.00041670
     atom   39 type  3   force =     0.00000000   -0.00000078    0.00040782
     atom   40 type  3   force =     0.00000000   -0.00000263    0.00041670

     Total force =     0.003363     Total SCF correction =     0.000007


     Computing stress (Cartesian axis) and pressure

          total   stress  (Ry/bohr**3)                   (kbar)     P=       40.26
   0.00024327   0.00000000   0.00000000           35.79        0.00        0.00
   0.00000000   0.00024327   0.00000000            0.00       35.79        0.00
   0.00000000   0.00000000   0.00033451            0.00        0.00       49.21


     Writing all to output data dir ./tmp/50_ecut_4_kmesh_PBE.save/ :
     XML data file, charge density, pseudopotentials, collected wavefunctions

     init_run     :      1.88s CPU      2.77s WALL (       1 calls)
     electrons    :      7.45s CPU      7.70s WALL (       1 calls)
     forces       :      0.32s CPU      0.33s WALL (       1 calls)
     stress       :      0.73s CPU      0.75s WALL (       1 calls)

     Called by init_run:
     wfcinit      :      0.43s CPU      1.18s WALL (       1 calls)
     potinit      :      0.77s CPU      0.81s WALL (       1 calls)
     hinit0       :      0.40s CPU      0.48s WALL (       1 calls)

     Called by electrons:
     c_bands      :      6.00s CPU      6.14s WALL (       6 calls)
     sum_band     :      0.81s CPU      0.85s WALL (       6 calls)
     v_of_rho     :      0.10s CPU      0.13s WALL (       6 calls)
     newd         :      0.08s CPU      0.09s WALL (       6 calls)
     PAW_pot      :      0.25s CPU      0.26s WALL (       6 calls)
     mix_rho      :      0.01s CPU      0.01s WALL (       6 calls)

     Called by c_bands:
     init_us_2    :      0.13s CPU      0.13s WALL (      42 calls)
     cegterg      :      5.42s CPU      5.55s WALL (      18 calls)

     Called by *egterg:
     cdiaghg      :      1.08s CPU      1.11s WALL (      62 calls)
     h_psi        :      2.65s CPU      2.72s WALL (      68 calls)
     s_psi        :      0.39s CPU      0.39s WALL (      68 calls)
     g_psi        :      0.00s CPU      0.00s WALL (      50 calls)

     Called by h_psi:
     h_psi:calbec :      0.52s CPU      0.54s WALL (      68 calls)
     vloc_psi     :      1.73s CPU      1.77s WALL (      68 calls)
                                        0.00s GPU  (      68 calls)
     add_vuspsi   :      0.39s CPU      0.39s WALL (      68 calls)

     General routines
     calbec       :      1.41s CPU      1.47s WALL (     137 calls)
     fft          :      0.43s CPU      0.48s WALL (     102 calls)
     ffts         :      0.44s CPU      0.45s WALL (      12 calls)
     fftw         :      2.00s CPU      2.04s WALL (   19752 calls)
     interpolate  :      0.45s CPU      0.45s WALL (       6 calls)

     Parallel routines

     PWSCF        :     11.61s CPU     14.51s WALL


   This run was terminated on:   0:13:30  21May2026            

=------------------------------------------------------------------------------=
   JOB DONE.
=------------------------------------------------------------------------------=
