
     Program PWSCF v.7.5 starts on 21May2026 at  0:12:43 

     This program is part of the open-source Quantum ESPRESSO suite
     for quantum simulation of materials; please cite
         "P. Giannozzi et al., J. Phys.:Condens. Matter 21 395502 (2009);
         "P. Giannozzi et al., J. Phys.:Condens. Matter 29 465901 (2017);
         "P. Giannozzi et al., J. Chem. Phys. 152 154105 (2020);
          URL http://www.quantum-espresso.org", 
     in publications or presentations arising from this work. More details at
     http://www.quantum-espresso.org/quote

     Parallel version (MPI & OpenMP), running on     192 processor cores
     Number of MPI processes:               192
     Threads/MPI process:                     1

     MPI processes distributed on     1 nodes
     399699 MiB available memory on the printing compute node when the environment starts

     Waiting for input...
     Reading input from standard input

     Current dimensions of program PWSCF are:
     Max number of different atomic species (ntypx) = 10
     Max number of k-points (npk) =  40000
     Max angular momentum in pseudopotentials (lmaxx) =  4
     file Ba.pbe-spn-kjpaw_psl.1.0.0.UPF: wavefunction(s)  5S 6S renormalized
     file Ti.pbe-spn-kjpaw_psl.1.0.0.UPF: wavefunction(s)  3S 3P 3D renormalized
     file O.pbe-n-kjpaw_psl.1.0.0.UPF: wavefunction(s)  2S 2P renormalized

     IMPORTANT: XC functional enforced from input :
     Exchange-correlation= PBE
                           (   1   4   3   4   0   0   0)
     Any further DFT definition will be discarded
     Please, verify this is what you really want

     Found identity + ( -0.5000 -0.5000  0.0000) symmetry
     This is a supercell, fractional translations are disabled

     K-points division:     npool     =       8
     R & G space division:  proc/nbgrp/npool/nimage =      24
     Subspace diagonalization in iterative solution of the eigenvalue problem:
     one sub-group per band group will be used
     ELPA distributed-memory algorithm (size of sub-group:  2*  2 procs)


     Parallelization info
     --------------------
     sticks:   dense  smooth     PW     G-vecs:    dense   smooth      PW
     Min         240     120     33                13981     4944     727
     Max         242     122     34                13987     4947     732
     Sum        5785    2893    805               335575   118681   17493

     Using Slab Decomposition



     bravais-lattice index     =            6
     lattice parameter (alat)  =      15.0876  a.u.
     unit-cell volume          =    3472.3239 (a.u.)^3
     number of atoms/cell      =           40
     number of atomic types    =            3
     number of electrons       =       320.00
     number of Kohn-Sham states=          200
     kinetic-energy cutoff     =      40.0000  Ry
     charge density cutoff     =     320.0000  Ry
     scf convergence threshold =      1.0E-10
     mixing beta               =       0.3000
     number of iterations used =           16  plain     mixing
     Exchange-correlation= PBE
                           (   1   4   3   4   0   0   0)

     celldm(1)=  15.087600  celldm(2)=   0.000000  celldm(3)=   1.011020
     celldm(4)=   0.000000  celldm(5)=   0.000000  celldm(6)=   0.000000

     crystal axes: (cart. coord. in units of alat)
               a(1) = (   1.000000   0.000000   0.000000 )  
               a(2) = (   0.000000   1.000000   0.000000 )  
               a(3) = (   0.000000   0.000000   1.011020 )  

     reciprocal axes: (cart. coord. in units 2 pi/alat)
               b(1) = (  1.000000  0.000000  0.000000 )  
               b(2) = (  0.000000  1.000000  0.000000 )  
               b(3) = (  0.000000  0.000000  0.989100 )  


     PseudoPot. # 1 for Ba read from file:
     /home/kylay/scratch/BTO/pseuds/Ba.pbe-spn-kjpaw_psl.1.0.0.UPF
     MD5 check sum: 7cfe25f1fe7574a4710541d5a11d6531
     Pseudo is Projector augmented-wave + core cor, Zval = 10.0
     Generated using &quot;atomic&quot; code by A. Dal Corso  v.6.2.2
     Shape of augmentation charge: PSQ
     Using radial grid of 1251 points,  7 beta functions with: 
                l(1) =   0
                l(2) =   0
                l(3) =   0
                l(4) =   1
                l(5) =   1
                l(6) =   2
                l(7) =   2
     Q(r) pseudized with 0 coefficients 


     PseudoPot. # 2 for Ti read from file:
     /home/kylay/scratch/BTO/pseuds/Ti.pbe-spn-kjpaw_psl.1.0.0.UPF
     MD5 check sum: 01f69b0d8ba4438b2e03ac6ea4af1c0b
     Pseudo is Projector augmented-wave + core cor, Zval = 12.0
     Generated using &quot;atomic&quot; code by A. Dal Corso  v.6.2.2
     Shape of augmentation charge: PSQ
     Using radial grid of 1177 points,  6 beta functions with: 
                l(1) =   0
                l(2) =   0
                l(3) =   1
                l(4) =   1
                l(5) =   2
                l(6) =   2
     Q(r) pseudized with 0 coefficients 


     PseudoPot. # 3 for O  read from file:
     /home/kylay/scratch/BTO/pseuds/O.pbe-n-kjpaw_psl.1.0.0.UPF
     MD5 check sum: e99d9cef9b487d1ca56f5b95ecd0fd7a
     Pseudo is Projector augmented-wave + core cor, Zval =  6.0
     Generated using &quot;atomic&quot; code by A. Dal Corso  v.6.3
     Shape of augmentation charge: PSQ
     Using radial grid of 1095 points,  4 beta functions with: 
                l(1) =   0
                l(2) =   0
                l(3) =   1
                l(4) =   1
     Q(r) pseudized with 0 coefficients 


     atomic species   valence    mass     pseudopotential
     Ba               10.00   137.32700     Ba( 1.00)
     Ti               12.00    47.86700     Ti( 1.00)
     O                 6.00    15.99900     O ( 1.00)

      8 Sym. Ops. (no inversion) found



   Cartesian axes

     site n.     atom                  positions (alat units)
         1        Ba     tau(   1) = (   0.0000000   0.0000000  -0.0010787  )
         2        Ba     tau(   2) = (   0.0000000   0.0000000   0.5044220  )
         3        Ba     tau(   3) = (   0.0000000   0.5000000  -0.0010832  )
         4        Ba     tau(   4) = (   0.0000000   0.5000000   0.5044235  )
         5        Ba     tau(   5) = (   0.5000000   0.0000000  -0.0010832  )
         6        Ba     tau(   6) = (   0.5000000   0.0000000   0.5044235  )
         7        Ba     tau(   7) = (   0.5000000   0.5000000  -0.0010766  )
         8        Ba     tau(   8) = (   0.5000000   0.5000000   0.5044202  )
         9        Ti     tau(   9) = (   0.2500002   0.2500002   0.2436990  )
        10        Ti     tau(  10) = (   0.2500007   0.2500007   0.7492042  )
        11        Ti     tau(  11) = (   0.2500002   0.7499998   0.2436990  )
        12        Ti     tau(  12) = (   0.2500007   0.7499993   0.7492042  )
        13        Ti     tau(  13) = (   0.7499998   0.2500002   0.2436990  )
        14        Ti     tau(  14) = (   0.7499993   0.2500007   0.7492042  )
        15        Ti     tau(  15) = (   0.7499998   0.7499998   0.2436990  )
        16        Ti     tau(  16) = (   0.7499993   0.7499993   0.7492042  )
        17        O      tau(  17) = (   0.2500011   0.2500011   0.0113903  )
        18        O      tau(  18) = (   0.2500007   0.2500007   0.5168954  )
        19        O      tau(  19) = (   0.2500011   0.7499989   0.0113903  )
        20        O      tau(  20) = (   0.2500007   0.7499993   0.5168954  )
        21        O      tau(  21) = (   0.7499989   0.2500011   0.0113903  )
        22        O      tau(  22) = (   0.7499993   0.2500007   0.5168954  )
        23        O      tau(  23) = (   0.7499989   0.7499989   0.0113903  )
        24        O      tau(  24) = (   0.7499993   0.7499993   0.5168954  )
        25        O      tau(  25) = (   0.2500005   0.0000000   0.2592128  )
        26        O      tau(  26) = (   0.2500020   0.0000000   0.7647195  )
        27        O      tau(  27) = (   0.2499999   0.5000000   0.2592107  )
        28        O      tau(  28) = (   0.2499998   0.5000000   0.7647148  )
        29        O      tau(  29) = (   0.7499995   0.0000000   0.2592128  )
        30        O      tau(  30) = (   0.7499980   0.0000000   0.7647195  )
        31        O      tau(  31) = (   0.7500001   0.5000000   0.2592107  )
        32        O      tau(  32) = (   0.7500002   0.5000000   0.7647148  )
        33        O      tau(  33) = (   0.0000000   0.2500005   0.2592128  )
        34        O      tau(  34) = (   0.0000000   0.2500020   0.7647195  )
        35        O      tau(  35) = (   0.0000000   0.7499995   0.2592128  )
        36        O      tau(  36) = (   0.0000000   0.7499980   0.7647195  )
        37        O      tau(  37) = (   0.5000000   0.2499999   0.2592107  )
        38        O      tau(  38) = (   0.5000000   0.2499998   0.7647148  )
        39        O      tau(  39) = (   0.5000000   0.7500001   0.2592107  )
        40        O      tau(  40) = (   0.5000000   0.7500002   0.7647148  )

     number of k points=   126

     Number of k-points >= 100: set verbosity='high' to print them.

     Dense  grid:   335575 G-vectors     FFT dimensions: (  90,  90,  90)

     Smooth grid:   118681 G-vectors     FFT dimensions: (  64,  64,  64)

     Estimated max dynamical RAM per process >      69.28 MB

     Estimated total dynamical RAM >      11.87 GB

     Check: negative core charge=   -0.000007

     The initial density is read from file :
     ./tmp/40_ecut_10_kmesh_PBE.save/charge-density

     Starting wfcs from file
     Checking if some PAW data can be deallocated... 

     total cpu time spent up to now is        5.7 secs

     per-process dynamical memory:   134.9 Mb

     Self-consistent Calculation

     iteration #  1     ecut=    40.00 Ry     beta= 0.30
     Davidson diagonalization with overlap
     ethr =  1.00E-05,  avg # of iterations =  1.0

     Threshold (ethr) on eigenvalues was too large:
     Diagonalizing with lowered threshold

     Davidson diagonalization with overlap
     ethr =  6.11E-12,  avg # of iterations =  4.3

     total cpu time spent up to now is       15.1 secs

     total energy              =   -5964.46991142 Ry
     estimated scf accuracy    <       0.00000002 Ry

     iteration #  2     ecut=    40.00 Ry     beta= 0.30
     Davidson diagonalization with overlap
     ethr =  7.12E-12,  avg # of iterations =  2.0

     total cpu time spent up to now is       19.7 secs

     total energy              =   -5964.46991142 Ry
     estimated scf accuracy    <          7.0E-09 Ry

     iteration #  3     ecut=    40.00 Ry     beta= 0.30
     Davidson diagonalization with overlap
     ethr =  2.19E-12,  avg # of iterations =  2.0

     total cpu time spent up to now is       24.2 secs

     total energy              =   -5964.46991142 Ry
     estimated scf accuracy    <          2.5E-09 Ry

     iteration #  4     ecut=    40.00 Ry     beta= 0.30
     Davidson diagonalization with overlap
     ethr =  7.76E-13,  avg # of iterations =  3.8

     total cpu time spent up to now is       29.9 secs

     total energy              =   -5964.46991142 Ry
     estimated scf accuracy    <          4.7E-10 Ry

     iteration #  5     ecut=    40.00 Ry     beta= 0.30
     Davidson diagonalization with overlap
     ethr =  1.46E-13,  avg # of iterations =  4.3

     total cpu time spent up to now is       36.3 secs

     total energy              =   -5964.46991142 Ry
     estimated scf accuracy    <          5.0E-10 Ry

     iteration #  6     ecut=    40.00 Ry     beta= 0.30
     Davidson diagonalization with overlap
     ethr =  1.46E-13,  avg # of iterations =  5.6

     total cpu time spent up to now is       44.8 secs

     total energy              =   -5964.46991142 Ry
     estimated scf accuracy    <          5.0E-10 Ry

     iteration #  7     ecut=    40.00 Ry     beta= 0.30
     Davidson diagonalization with overlap
     ethr =  1.46E-13,  avg # of iterations =  4.0

     total cpu time spent up to now is       50.7 secs

     End of self-consistent calculation

     Number of k-points >= 100: set verbosity='high' to print the bands.

     highest occupied, lowest unoccupied level (ev):    10.4130   12.2493

!    total energy              =   -5964.46991142 Ry
     total all-electron energy =   -147448.923484 Ry
     estimated scf accuracy    <          3.7E-11 Ry

     The total energy is the sum of the following terms:
     one-electron contribution =    -550.15601743 Ry
     hartree contribution      =     483.64560170 Ry
     xc contribution           =    -491.48567054 Ry
     ewald contribution        =   -1653.96634398 Ry
     one-center paw contrib.   =   -3752.50748117 Ry

     convergence has been achieved in   7 iterations

     Forces acting on atoms (cartesian axes, Ry/au):

     atom    1 type  1   force =     0.00000000    0.00000000   -0.00098613
     atom    2 type  1   force =     0.00000000    0.00000000   -0.00095471
     atom    3 type  1   force =     0.00000000    0.00000000   -0.00097453
     atom    4 type  1   force =     0.00000000    0.00000000   -0.00096117
     atom    5 type  1   force =     0.00000000    0.00000000   -0.00097453
     atom    6 type  1   force =     0.00000000    0.00000000   -0.00096117
     atom    7 type  1   force =     0.00000000    0.00000000   -0.00099065
     atom    8 type  1   force =     0.00000000    0.00000000   -0.00095280
     atom    9 type  2   force =    -0.00000073   -0.00000073   -0.00061160
     atom   10 type  2   force =    -0.00000125   -0.00000125   -0.00060294
     atom   11 type  2   force =    -0.00000073    0.00000073   -0.00061160
     atom   12 type  2   force =    -0.00000125    0.00000125   -0.00060294
     atom   13 type  2   force =     0.00000073   -0.00000073   -0.00061160
     atom   14 type  2   force =     0.00000125   -0.00000125   -0.00060294
     atom   15 type  2   force =     0.00000073    0.00000073   -0.00061160
     atom   16 type  2   force =     0.00000125    0.00000125   -0.00060294
     atom   17 type  3   force =    -0.00000146   -0.00000146    0.00078187
     atom   18 type  3   force =    -0.00000240   -0.00000240    0.00079130
     atom   19 type  3   force =    -0.00000146    0.00000146    0.00078187
     atom   20 type  3   force =    -0.00000240    0.00000240    0.00079130
     atom   21 type  3   force =     0.00000146   -0.00000146    0.00078187
     atom   22 type  3   force =     0.00000240   -0.00000240    0.00079130
     atom   23 type  3   force =     0.00000146    0.00000146    0.00078187
     atom   24 type  3   force =     0.00000240    0.00000240    0.00079130
     atom   25 type  3   force =    -0.00000184    0.00000000    0.00038929
     atom   26 type  3   force =    -0.00000570    0.00000000    0.00039385
     atom   27 type  3   force =     0.00000071    0.00000000    0.00039391
     atom   28 type  3   force =     0.00000311    0.00000000    0.00040323
     atom   29 type  3   force =     0.00000184    0.00000000    0.00038929
     atom   30 type  3   force =     0.00000570    0.00000000    0.00039385
     atom   31 type  3   force =    -0.00000071    0.00000000    0.00039391
     atom   32 type  3   force =    -0.00000311    0.00000000    0.00040323
     atom   33 type  3   force =     0.00000000   -0.00000184    0.00038929
     atom   34 type  3   force =     0.00000000   -0.00000570    0.00039385
     atom   35 type  3   force =     0.00000000    0.00000184    0.00038929
     atom   36 type  3   force =     0.00000000    0.00000570    0.00039385
     atom   37 type  3   force =     0.00000000    0.00000071    0.00039391
     atom   38 type  3   force =     0.00000000    0.00000311    0.00040323
     atom   39 type  3   force =     0.00000000   -0.00000071    0.00039391
     atom   40 type  3   force =     0.00000000   -0.00000311    0.00040323

     Total force =     0.004233     Total SCF correction =     0.000003


     Computing stress (Cartesian axis) and pressure

          total   stress  (Ry/bohr**3)                   (kbar)     P=       -2.98
  -0.00005922   0.00000000   0.00000000           -8.71        0.00        0.00
   0.00000000  -0.00005922   0.00000000            0.00       -8.71        0.00
   0.00000000   0.00000000   0.00005757            0.00        0.00        8.47


     Writing all to output data dir ./tmp/40_ecut_10_kmesh_PBE.save/ :
     XML data file, charge density, pseudopotentials, collected wavefunctions

     init_run     :      1.94s CPU      4.50s WALL (       1 calls)
     electrons    :     43.49s CPU     45.09s WALL (       1 calls)
     forces       :      0.98s CPU      1.05s WALL (       1 calls)
     stress       :      2.70s CPU      2.86s WALL (       1 calls)

     Called by init_run:
     wfcinit      :      1.13s CPU      3.61s WALL (       1 calls)
     potinit      :      0.29s CPU      0.35s WALL (       1 calls)
     hinit0       :      0.34s CPU      0.35s WALL (       1 calls)

     Called by electrons:
     c_bands      :     39.23s CPU     40.62s WALL (       8 calls)
     sum_band     :      3.53s CPU      3.67s WALL (       8 calls)
     v_of_rho     :      0.08s CPU      0.11s WALL (       8 calls)
     newd         :      0.07s CPU      0.07s WALL (       8 calls)
     PAW_pot      :      0.35s CPU      0.36s WALL (       8 calls)
     mix_rho      :      0.01s CPU      0.01s WALL (       8 calls)

     Called by c_bands:
     init_us_2    :      0.55s CPU      0.56s WALL (     288 calls)
     cegterg      :     35.84s CPU     37.20s WALL (     128 calls)

     Called by *egterg:
     cdiaghg      :      9.11s CPU      9.66s WALL (     540 calls)
     h_psi        :     16.01s CPU     16.53s WALL (     572 calls)
     s_psi        :      2.36s CPU      2.38s WALL (     572 calls)
     g_psi        :      0.02s CPU      0.02s WALL (     444 calls)

     Called by h_psi:
     h_psi:calbec :      3.43s CPU      3.72s WALL (     572 calls)
     vloc_psi     :     10.07s CPU     10.28s WALL (     572 calls)
                                        0.00s GPU  (     572 calls)
     add_vuspsi   :      2.42s CPU      2.44s WALL (     572 calls)

     General routines
     calbec       :      7.38s CPU      7.97s WALL (     972 calls)
     fft          :      0.35s CPU      0.40s WALL (     128 calls)
     ffts         :      0.21s CPU      0.21s WALL (      16 calls)
     fftw         :     11.30s CPU     11.53s WALL (  148792 calls)
     interpolate  :      0.21s CPU      0.22s WALL (       8 calls)

     Parallel routines

     PWSCF        :     50.96s CPU     57.41s WALL


   This run was terminated on:   0:13:41  21May2026            

=------------------------------------------------------------------------------=
   JOB DONE.
=------------------------------------------------------------------------------=
