
     Program PWSCF v.7.5 starts on 21May2026 at  0:12:14 

     This program is part of the open-source Quantum ESPRESSO suite
     for quantum simulation of materials; please cite
         "P. Giannozzi et al., J. Phys.:Condens. Matter 21 395502 (2009);
         "P. Giannozzi et al., J. Phys.:Condens. Matter 29 465901 (2017);
         "P. Giannozzi et al., J. Chem. Phys. 152 154105 (2020);
          URL http://www.quantum-espresso.org", 
     in publications or presentations arising from this work. More details at
     http://www.quantum-espresso.org/quote

     Parallel version (MPI & OpenMP), running on     192 processor cores
     Number of MPI processes:               192
     Threads/MPI process:                     1

     MPI processes distributed on     1 nodes
     609589 MiB available memory on the printing compute node when the environment starts

     Waiting for input...
     Reading input from standard input

     Current dimensions of program PWSCF are:
     Max number of different atomic species (ntypx) = 10
     Max number of k-points (npk) =  40000
     Max angular momentum in pseudopotentials (lmaxx) =  4
     file Ba.pbe-spn-kjpaw_psl.1.0.0.UPF: wavefunction(s)  5S 6S renormalized
     file Ti.pbe-spn-kjpaw_psl.1.0.0.UPF: wavefunction(s)  3S 3P 3D renormalized
     file O.pbe-n-kjpaw_psl.1.0.0.UPF: wavefunction(s)  2S 2P renormalized

     IMPORTANT: XC functional enforced from input :
     Exchange-correlation= PBE
                           (   1   4   3   4   0   0   0)
     Any further DFT definition will be discarded
     Please, verify this is what you really want

     Found identity + ( -0.5000 -0.5000  0.0000) symmetry
     This is a supercell, fractional translations are disabled

     K-points division:     npool     =       8
     R & G space division:  proc/nbgrp/npool/nimage =      24
     Subspace diagonalization in iterative solution of the eigenvalue problem:
     one sub-group per band group will be used
     ELPA distributed-memory algorithm (size of sub-group:  2*  2 procs)


     Parallelization info
     --------------------
     sticks:   dense  smooth     PW     G-vecs:    dense   smooth      PW
     Min         181      90     25                 9081     3214     484
     Max         182      91     27                 9084     3217     487
     Sum        4349    2177    613               217983    77173   11641

     Using Slab Decomposition



     bravais-lattice index     =            6
     lattice parameter (alat)  =      15.0876  a.u.
     unit-cell volume          =    3472.3239 (a.u.)^3
     number of atoms/cell      =           40
     number of atomic types    =            3
     number of electrons       =       320.00
     number of Kohn-Sham states=          200
     kinetic-energy cutoff     =      30.0000  Ry
     charge density cutoff     =     240.0000  Ry
     scf convergence threshold =      1.0E-10
     mixing beta               =       0.3000
     number of iterations used =           16  plain     mixing
     Exchange-correlation= PBE
                           (   1   4   3   4   0   0   0)

     celldm(1)=  15.087600  celldm(2)=   0.000000  celldm(3)=   1.011020
     celldm(4)=   0.000000  celldm(5)=   0.000000  celldm(6)=   0.000000

     crystal axes: (cart. coord. in units of alat)
               a(1) = (   1.000000   0.000000   0.000000 )  
               a(2) = (   0.000000   1.000000   0.000000 )  
               a(3) = (   0.000000   0.000000   1.011020 )  

     reciprocal axes: (cart. coord. in units 2 pi/alat)
               b(1) = (  1.000000  0.000000  0.000000 )  
               b(2) = (  0.000000  1.000000  0.000000 )  
               b(3) = (  0.000000  0.000000  0.989100 )  


     PseudoPot. # 1 for Ba read from file:
     /home/kylay/scratch/BTO/pseuds/Ba.pbe-spn-kjpaw_psl.1.0.0.UPF
     MD5 check sum: 7cfe25f1fe7574a4710541d5a11d6531
     Pseudo is Projector augmented-wave + core cor, Zval = 10.0
     Generated using &quot;atomic&quot; code by A. Dal Corso  v.6.2.2
     Shape of augmentation charge: PSQ
     Using radial grid of 1251 points,  7 beta functions with: 
                l(1) =   0
                l(2) =   0
                l(3) =   0
                l(4) =   1
                l(5) =   1
                l(6) =   2
                l(7) =   2
     Q(r) pseudized with 0 coefficients 


     PseudoPot. # 2 for Ti read from file:
     /home/kylay/scratch/BTO/pseuds/Ti.pbe-spn-kjpaw_psl.1.0.0.UPF
     MD5 check sum: 01f69b0d8ba4438b2e03ac6ea4af1c0b
     Pseudo is Projector augmented-wave + core cor, Zval = 12.0
     Generated using &quot;atomic&quot; code by A. Dal Corso  v.6.2.2
     Shape of augmentation charge: PSQ
     Using radial grid of 1177 points,  6 beta functions with: 
                l(1) =   0
                l(2) =   0
                l(3) =   1
                l(4) =   1
                l(5) =   2
                l(6) =   2
     Q(r) pseudized with 0 coefficients 


     PseudoPot. # 3 for O  read from file:
     /home/kylay/scratch/BTO/pseuds/O.pbe-n-kjpaw_psl.1.0.0.UPF
     MD5 check sum: e99d9cef9b487d1ca56f5b95ecd0fd7a
     Pseudo is Projector augmented-wave + core cor, Zval =  6.0
     Generated using &quot;atomic&quot; code by A. Dal Corso  v.6.3
     Shape of augmentation charge: PSQ
     Using radial grid of 1095 points,  4 beta functions with: 
                l(1) =   0
                l(2) =   0
                l(3) =   1
                l(4) =   1
     Q(r) pseudized with 0 coefficients 


     atomic species   valence    mass     pseudopotential
     Ba               10.00   137.32700     Ba( 1.00)
     Ti               12.00    47.86700     Ti( 1.00)
     O                 6.00    15.99900     O ( 1.00)

      8 Sym. Ops. (no inversion) found



   Cartesian axes

     site n.     atom                  positions (alat units)
         1        Ba     tau(   1) = (   0.0000000   0.0000000  -0.0010787  )
         2        Ba     tau(   2) = (   0.0000000   0.0000000   0.5044220  )
         3        Ba     tau(   3) = (   0.0000000   0.5000000  -0.0010832  )
         4        Ba     tau(   4) = (   0.0000000   0.5000000   0.5044235  )
         5        Ba     tau(   5) = (   0.5000000   0.0000000  -0.0010832  )
         6        Ba     tau(   6) = (   0.5000000   0.0000000   0.5044235  )
         7        Ba     tau(   7) = (   0.5000000   0.5000000  -0.0010766  )
         8        Ba     tau(   8) = (   0.5000000   0.5000000   0.5044202  )
         9        Ti     tau(   9) = (   0.2500002   0.2500002   0.2436990  )
        10        Ti     tau(  10) = (   0.2500007   0.2500007   0.7492042  )
        11        Ti     tau(  11) = (   0.2500002   0.7499998   0.2436990  )
        12        Ti     tau(  12) = (   0.2500007   0.7499993   0.7492042  )
        13        Ti     tau(  13) = (   0.7499998   0.2500002   0.2436990  )
        14        Ti     tau(  14) = (   0.7499993   0.2500007   0.7492042  )
        15        Ti     tau(  15) = (   0.7499998   0.7499998   0.2436990  )
        16        Ti     tau(  16) = (   0.7499993   0.7499993   0.7492042  )
        17        O      tau(  17) = (   0.2500011   0.2500011   0.0113903  )
        18        O      tau(  18) = (   0.2500007   0.2500007   0.5168954  )
        19        O      tau(  19) = (   0.2500011   0.7499989   0.0113903  )
        20        O      tau(  20) = (   0.2500007   0.7499993   0.5168954  )
        21        O      tau(  21) = (   0.7499989   0.2500011   0.0113903  )
        22        O      tau(  22) = (   0.7499993   0.2500007   0.5168954  )
        23        O      tau(  23) = (   0.7499989   0.7499989   0.0113903  )
        24        O      tau(  24) = (   0.7499993   0.7499993   0.5168954  )
        25        O      tau(  25) = (   0.2500005   0.0000000   0.2592128  )
        26        O      tau(  26) = (   0.2500020   0.0000000   0.7647195  )
        27        O      tau(  27) = (   0.2499999   0.5000000   0.2592107  )
        28        O      tau(  28) = (   0.2499998   0.5000000   0.7647148  )
        29        O      tau(  29) = (   0.7499995   0.0000000   0.2592128  )
        30        O      tau(  30) = (   0.7499980   0.0000000   0.7647195  )
        31        O      tau(  31) = (   0.7500001   0.5000000   0.2592107  )
        32        O      tau(  32) = (   0.7500002   0.5000000   0.7647148  )
        33        O      tau(  33) = (   0.0000000   0.2500005   0.2592128  )
        34        O      tau(  34) = (   0.0000000   0.2500020   0.7647195  )
        35        O      tau(  35) = (   0.0000000   0.7499995   0.2592128  )
        36        O      tau(  36) = (   0.0000000   0.7499980   0.7647195  )
        37        O      tau(  37) = (   0.5000000   0.2499999   0.2592107  )
        38        O      tau(  38) = (   0.5000000   0.2499998   0.7647148  )
        39        O      tau(  39) = (   0.5000000   0.7500001   0.2592107  )
        40        O      tau(  40) = (   0.5000000   0.7500002   0.7647148  )

     number of k points=    40
                       cart. coord. in units 2pi/alat
        k(    1) = (   0.0000000   0.0000000   0.0000000), wk =   0.0092593
        k(    2) = (   0.0000000   0.0000000   0.1648500), wk =   0.0185185
        k(    3) = (   0.0000000   0.0000000   0.3297000), wk =   0.0185185
        k(    4) = (   0.0000000   0.0000000  -0.4945501), wk =   0.0092593
        k(    5) = (   0.0000000   0.1666667   0.0000000), wk =   0.0370370
        k(    6) = (   0.0000000   0.1666667   0.1648500), wk =   0.0740741
        k(    7) = (   0.0000000   0.1666667   0.3297000), wk =   0.0740741
        k(    8) = (   0.0000000   0.1666667  -0.4945501), wk =   0.0370370
        k(    9) = (   0.0000000   0.3333333   0.0000000), wk =   0.0370370
        k(   10) = (   0.0000000   0.3333333   0.1648500), wk =   0.0740741
        k(   11) = (   0.0000000   0.3333333   0.3297000), wk =   0.0740741
        k(   12) = (   0.0000000   0.3333333  -0.4945501), wk =   0.0370370
        k(   13) = (   0.0000000  -0.5000000   0.0000000), wk =   0.0185185
        k(   14) = (   0.0000000  -0.5000000   0.1648500), wk =   0.0370370
        k(   15) = (   0.0000000  -0.5000000   0.3297000), wk =   0.0370370
        k(   16) = (   0.0000000  -0.5000000  -0.4945501), wk =   0.0185185
        k(   17) = (   0.1666667   0.1666667   0.0000000), wk =   0.0370370
        k(   18) = (   0.1666667   0.1666667   0.1648500), wk =   0.0740741
        k(   19) = (   0.1666667   0.1666667   0.3297000), wk =   0.0740741
        k(   20) = (   0.1666667   0.1666667  -0.4945501), wk =   0.0370370
        k(   21) = (   0.1666667   0.3333333   0.0000000), wk =   0.0740741
        k(   22) = (   0.1666667   0.3333333   0.1648500), wk =   0.1481481
        k(   23) = (   0.1666667   0.3333333   0.3297000), wk =   0.1481481
        k(   24) = (   0.1666667   0.3333333  -0.4945501), wk =   0.0740741
        k(   25) = (   0.1666667  -0.5000000   0.0000000), wk =   0.0370370
        k(   26) = (   0.1666667  -0.5000000   0.1648500), wk =   0.0740741
        k(   27) = (   0.1666667  -0.5000000   0.3297000), wk =   0.0740741
        k(   28) = (   0.1666667  -0.5000000  -0.4945501), wk =   0.0370370
        k(   29) = (   0.3333333   0.3333333   0.0000000), wk =   0.0370370
        k(   30) = (   0.3333333   0.3333333   0.1648500), wk =   0.0740741
        k(   31) = (   0.3333333   0.3333333   0.3297000), wk =   0.0740741
        k(   32) = (   0.3333333   0.3333333  -0.4945501), wk =   0.0370370
        k(   33) = (   0.3333333  -0.5000000   0.0000000), wk =   0.0370370
        k(   34) = (   0.3333333  -0.5000000   0.1648500), wk =   0.0740741
        k(   35) = (   0.3333333  -0.5000000   0.3297000), wk =   0.0740741
        k(   36) = (   0.3333333  -0.5000000  -0.4945501), wk =   0.0370370
        k(   37) = (  -0.5000000  -0.5000000   0.0000000), wk =   0.0092593
        k(   38) = (  -0.5000000  -0.5000000   0.1648500), wk =   0.0185185
        k(   39) = (  -0.5000000  -0.5000000   0.3297000), wk =   0.0185185
        k(   40) = (  -0.5000000  -0.5000000  -0.4945501), wk =   0.0092593

     Dense  grid:   217983 G-vectors     FFT dimensions: (  75,  75,  75)

     Smooth grid:    77173 G-vectors     FFT dimensions: (  54,  54,  54)

     Estimated max dynamical RAM per process >      34.02 MB

     Estimated total dynamical RAM >       5.65 GB

     Check: negative core charge=   -0.000018

     The initial density is read from file :
     ./tmp/30_ecut_6_kmesh_PBE.save/charge-density

     Starting wfcs from file
     Checking if some PAW data can be deallocated... 

     total cpu time spent up to now is        3.0 secs

     per-process dynamical memory:   101.0 Mb

     Self-consistent Calculation

     iteration #  1     ecut=    30.00 Ry     beta= 0.30
     Davidson diagonalization with overlap
     ethr =  1.00E-05,  avg # of iterations =  1.0

     Threshold (ethr) on eigenvalues was too large:
     Diagonalizing with lowered threshold

     Davidson diagonalization with overlap
     ethr =  1.00E-13,  avg # of iterations =  5.5

     total cpu time spent up to now is        6.4 secs

     total energy              =   -5961.37861138 Ry
     estimated scf accuracy    <          7.6E-10 Ry

     iteration #  2     ecut=    30.00 Ry     beta= 0.30
     Davidson diagonalization with overlap
     ethr =  2.38E-13,  avg # of iterations =  2.0

     total cpu time spent up to now is        7.6 secs

     total energy              =   -5961.37861138 Ry
     estimated scf accuracy    <          3.7E-10 Ry

     iteration #  3     ecut=    30.00 Ry     beta= 0.30
     Davidson diagonalization with overlap
     ethr =  1.16E-13,  avg # of iterations =  1.1

     total cpu time spent up to now is        8.7 secs

     total energy              =   -5961.37861138 Ry
     estimated scf accuracy    <          2.2E-10 Ry

     iteration #  4     ecut=    30.00 Ry     beta= 0.30
     Davidson diagonalization with overlap
     ethr =  1.00E-13,  avg # of iterations =  1.0

     total cpu time spent up to now is        9.8 secs

     End of self-consistent calculation

          k = 0.0000 0.0000 0.0000 (  9707 PWs)   bands (ev):

   -46.5207 -46.5201 -46.5196 -46.5196 -46.5179 -46.5179 -46.5167 -46.5163
   -22.8088 -22.8077 -22.8077 -22.8022 -22.7669 -22.7657 -22.7657 -22.7623
   -22.7610 -22.7610 -22.7580 -22.7580 -22.7561 -22.7561 -22.7551 -22.7551
   -22.7119 -22.7119 -22.7118 -22.7118 -22.7107 -22.7107 -22.7070 -22.7070
   -14.3480 -14.2322 -14.2226 -14.2226 -14.1507 -14.1507 -14.1427 -14.0816
    -7.0008  -7.0008  -6.9555  -6.7720  -6.4996  -6.3998  -6.3998  -6.1619
    -6.1500  -6.1500  -6.1063  -6.1063  -6.0762  -6.0470  -6.0036  -6.0036
    -6.0000  -6.0000  -5.9939  -5.9265  -5.8485  -5.8485  -5.7856  -5.7856
    -0.2620  -0.2620  -0.2018   0.3785   0.3785   0.3954   0.3954   0.4491
     0.4491   0.4637   0.4749   0.4749   0.6321   0.6321   0.6362   0.6362
     0.6541   0.6541   0.8388   0.8388   0.8472   0.8525   0.8525   0.8822
     5.9287   6.0667   6.0667   6.0805   6.3281   6.3281   6.3428   6.3428
     6.3966   6.3970   6.5140   6.5329   6.5881   6.5881   6.6000   7.5783
     7.5783   7.5893   7.5894   7.6144   7.6144   7.6430   7.6430   7.6973
     7.6973   7.7806   7.7806   7.9951   7.9951   8.0012   8.1393   8.1429
     8.1429   8.1717   8.1717   8.4445   8.4445   8.4997   8.5338   8.5338
     8.5712   8.6072   8.6072   8.6628   8.7061   8.7061   8.7849   8.7849
     9.0902   9.0902   9.2807   9.3635   9.3636   9.4977   9.4977   9.5306
     9.5306   9.5470   9.5470   9.5890   9.5891   9.7332   9.7332   9.9771
    10.0882  10.0882  10.3103  10.3103  10.3446  10.3446  10.4572  10.4833
    12.4390  12.5732  12.7799  12.7799  12.8827  12.8827  14.1976  14.1976
    14.2916  14.2916  14.2922  14.2922  14.3034  14.3034  14.3088  14.3088
    14.3237  14.3237  14.6260  14.6260  14.6669  14.7484  14.7891  14.7891
    14.7959  14.9063  15.0235  15.0286  15.0286  15.4088  15.4539  15.5504
    15.5893  15.5893  16.7809  16.7809  16.8036  16.9817  17.1389  17.6385

          k = 0.0000 0.0000 0.1649 (  9611 PWs)   bands (ev):

   -46.5192 -46.5181 -46.5176 -46.5174 -46.5174 -46.5172 -46.5172 -46.5167
   -22.8052 -22.8027 -22.8020 -22.8020 -22.7663 -22.7663 -22.7643 -22.7643
   -22.7569 -22.7569 -22.7568 -22.7568 -22.7566 -22.7566 -22.7544 -22.7544
   -22.7084 -22.7084 -22.7081 -22.7081 -22.7077 -22.7077 -22.7071 -22.7071
   -14.3405 -14.2401 -14.2178 -14.2178 -14.1556 -14.1556 -14.1386 -14.0858
    -6.9683  -6.9683  -6.9343  -6.7694  -6.4683  -6.4611  -6.4611  -6.1625
    -6.1270  -6.1270  -6.1015  -6.1015  -6.0740  -6.0480  -6.0308  -5.9903
    -5.9903  -5.9885  -5.9885  -5.9533  -5.8595  -5.8595  -5.7994  -5.7994
    -0.2228  -0.2228  -0.1435   0.3329   0.3329   0.4224   0.4224   0.4592
     0.4592   0.4858   0.4858   0.4934   0.6210   0.6211   0.6215   0.6215
     0.6669   0.6669   0.7608   0.8069   0.8069   0.8385   0.8385   0.8548
     5.9415   6.0761   6.1463   6.1463   6.3787   6.3787   6.4180   6.4180
     6.5099   6.5240   6.5416   6.5419   6.6361   6.6678   6.6678   7.5837
     7.5837   7.6421   7.6422   7.6881   7.6881   7.7234   7.7234   7.7324
     7.7324   7.8439   7.8439   7.8889   7.8889   7.8978   7.9650   7.9650
     8.0215   8.1241   8.1241   8.4532   8.5006   8.5006   8.5820   8.5820
     8.6136   8.6405   8.6539   8.6539   8.7456   8.7457   9.0241   9.0241
     9.1195   9.1195   9.2197   9.3109   9.3109   9.4356   9.4356   9.5260
     9.5260   9.5358   9.5358   9.5358   9.5358   9.7562   9.7562   9.9329
    10.1329  10.1329  10.2312  10.2312  10.2752  10.2752  10.4729  10.4748
    12.4832  12.6198  12.9337  12.9337  13.0434  13.0434  14.2522  14.2522
    14.2581  14.2581  14.2588  14.2588  14.2656  14.2656  14.3670  14.3670
    14.3695  14.3695  14.6499  14.6499  14.7222  14.7591  14.8203  14.9132
    14.9132  14.9749  14.9749  14.9949  15.1227  15.5424  15.6027  15.6027
    15.6402  15.6814  16.7534  16.9395  16.9395  16.9781  17.3141  17.3776

          k = 0.0000 0.0000 0.3297 (  9606 PWs)   bands (ev):

   -46.5199 -46.5188 -46.5176 -46.5176 -46.5175 -46.5175 -46.5163 -46.5149
   -22.7960 -22.7949 -22.7949 -22.7899 -22.7781 -22.7723 -22.7723 -22.7698
   -22.7576 -22.7576 -22.7567 -22.7567 -22.7559 -22.7559 -22.7530 -22.7530
   -22.7090 -22.7090 -22.7088 -22.7088 -22.7083 -22.7083 -22.7072 -22.7072
   -14.3197 -14.2618 -14.2049 -14.2048 -14.1689 -14.1689 -14.1276 -14.0970
    -6.8801  -6.8774  -6.8774  -6.7780  -6.5943  -6.5943  -6.3791  -6.1509
    -6.1269  -6.0988  -6.0988  -6.0934  -6.0934  -6.0686  -6.0536  -6.0228
    -5.9639  -5.9639  -5.9482  -5.9482  -5.8877  -5.8877  -5.8390  -5.8390
    -0.1075  -0.1075   0.0237   0.2105   0.2105   0.4879   0.4879   0.4985
     0.4985   0.5134   0.5134   0.5403   0.5693   0.5814   0.5815   0.5918
     0.5918   0.7016   0.7016   0.7203   0.7203   0.7783   0.8006   0.8006
     6.0412   6.0651   6.2353   6.2353   6.3413   6.3413   6.5396   6.5842
     6.6240   6.6240   6.8174   6.8538   6.8858   6.8858   6.9909   7.4042
     7.4042   7.5326   7.5326   7.5969   7.5969   7.6320   7.6320   7.6409
     7.6469   7.8335   7.8335   7.8659   7.8659   7.9895   7.9895   8.0062
     8.0062   8.0211   8.0545   8.0545   8.4176   8.4176   8.5604   8.5604
     8.7692   8.8108   8.8311   8.8311   8.8435   8.8435   8.8450   8.8450
     9.0314   9.1535   9.1535   9.3129   9.3129   9.3464   9.3464   9.3873
     9.3873   9.5431   9.5553   9.5553   9.6175   9.6175   9.8059   9.8059
    10.0501  10.0501  10.0751  10.0751  10.1169  10.1169  10.4677  10.5471
    12.5039  12.5759  13.2090  13.2090  13.2867  13.2867  13.9839  13.9839
    14.0015  14.0015  14.2434  14.2434  14.2497  14.2497  14.3881  14.3881
    14.5130  14.5130  14.5416  14.5416  14.7224  14.7559  14.7773  14.9005
    14.9005  14.9592  15.2450  15.2450  15.5345  15.5483  15.5483  15.9030
    16.0530  16.1690  16.4574  16.9664  16.9721  17.2232  17.2232  17.2321

          k = 0.0000 0.0000-0.4946 (  9674 PWs)   bands (ev):

   -46.5206 -46.5204 -46.5179 -46.5179 -46.5178 -46.5178 -46.5167 -46.5166
   -22.7907 -22.7905 -22.7850 -22.7850 -22.7848 -22.7848 -22.7834 -22.7832
   -22.7568 -22.7568 -22.7568 -22.7568 -22.7561 -22.7561 -22.7561 -22.7561
   -22.7105 -22.7105 -22.7104 -22.7104 -22.7081 -22.7081 -22.7081 -22.7081
   -14.2910 -14.2909 -14.1871 -14.1870 -14.1870 -14.1869 -14.1124 -14.1123
    -6.8179  -6.8178  -6.7446  -6.7446  -6.7445  -6.7445  -6.2556  -6.2555
    -6.1019  -6.1017  -6.0896  -6.0896  -6.0895  -6.0895  -6.0619  -6.0618
    -5.9267  -5.9267  -5.9266  -5.9266  -5.8935  -5.8935  -5.8934  -5.8934
     0.0479   0.0479   0.0480   0.0480   0.2691   0.2692   0.5317   0.5317
     0.5318   0.5318   0.5517   0.5517   0.5518   0.5518   0.6064   0.6064
     0.6065   0.6065   0.6735   0.6736   0.7503   0.7503   0.7503   0.7503
     6.0499   6.0499   6.2963   6.2963   6.2964   6.2964   6.5433   6.5433
     6.9753   6.9753   6.9754   6.9754   7.1732   7.1734   7.2185   7.2185
     7.2188   7.2188   7.2648   7.2649   7.4396   7.4398   7.6213   7.6213
     7.6214   7.6214   7.9253   7.9253   7.9253   7.9253   7.9346   7.9346
     7.9347   7.9347   8.1990   8.1990   8.1991   8.1991   8.6750   8.6750
     8.6751   8.6751   8.8460   8.8462   8.9746   8.9747   8.9747   8.9747
     9.0958   9.0959   9.0959   9.0959   9.1347   9.1347   9.2596   9.2596
     9.2597   9.2597   9.8076   9.8076   9.8077   9.8077   9.8778   9.8778
     9.8778   9.8778   9.9038   9.9038   9.9038   9.9038  10.4786  10.4787
    12.5187  12.5187  13.5613  13.5613  13.5614  13.5614  13.6230  13.6230
    13.6231  13.6231  14.2443  14.2443  14.2443  14.2443  14.4404  14.4404
    14.4405  14.4405  14.6472  14.6472  14.6473  14.6473  14.7300  14.7301
    14.8377  14.8377  15.4498  15.4498  15.4499  15.4499  15.9724  15.9727
    16.4064  16.4066  16.6037  16.6039  16.6938  16.6941  17.6615  17.6616

          k = 0.0000 0.1667 0.0000 (  9620 PWs)   bands (ev):

   -46.5199 -46.5191 -46.5190 -46.5183 -46.5175 -46.5168 -46.5167 -46.5143
   -22.8097 -22.8066 -22.8063 -22.8013 -22.7651 -22.7645 -22.7637 -22.7602
   -22.7589 -22.7565 -22.7562 -22.7561 -22.7540 -22.7532 -22.7529 -22.7455
   -22.7139 -22.7121 -22.7111 -22.7099 -22.7091 -22.7085 -22.7074 -22.7073
   -14.3398 -14.2313 -14.2269 -14.2173 -14.1563 -14.1481 -14.1461 -14.0863
    -6.9782  -6.9701  -6.9231  -6.7747  -6.5370  -6.4455  -6.3653  -6.1566
    -6.1397  -6.1354  -6.1084  -6.0973  -6.0729  -6.0404  -6.0047  -6.0047
    -5.9983  -5.9936  -5.9855  -5.9412  -5.8872  -5.8589  -5.8164  -5.7992
    -0.2193  -0.2052  -0.1523   0.3483   0.3933   0.4020   0.4064   0.4082
     0.4753   0.4754   0.4869   0.5001   0.6129   0.6240   0.6240   0.6417
     0.6462   0.6577   0.7607   0.8053   0.8152   0.8328   0.8368   0.8504
     6.0181   6.0985   6.1086   6.1635   6.3697   6.3815   6.3827   6.4637
     6.4661   6.4891   6.5840   6.5911   6.5987   6.6736   6.6822   7.6141
     7.6212   7.6279   7.6514   7.6605   7.6736   7.6928   7.6932   7.7060
     7.7664   7.7836   7.8575   7.9097   7.9936   8.0001   8.0196   8.0202
     8.0535   8.1261   8.1282   8.2335   8.2721   8.4125   8.5465   8.5873
     8.6137   8.6362   8.7223   8.7626   8.7689   8.8178   8.9881   9.0262
     9.0321   9.1476   9.1482   9.2402   9.4044   9.4266   9.4428   9.4954
     9.5528   9.5690   9.5819   9.5907   9.6111   9.6391   9.6393   9.8717
    10.0602  10.1092  10.2670  10.3187  10.3213  10.3658  10.4274  10.4432
    12.6210  12.7598  12.8086  12.8486  12.8788  12.9709  14.1323  14.1590
    14.2076  14.2341  14.2499  14.3037  14.3076  14.3267  14.3300  14.3382
    14.3494  14.3664  14.6423  14.6767  14.6834  14.8213  14.8526  14.8894
    14.9782  15.0177  15.0192  15.0426  15.1069  15.4755  15.5464  15.5898
    15.6870  15.8855  16.6617  16.8748  16.8792  17.0459  17.2779  17.4822

          k = 0.0000 0.1667 0.1649 (  9625 PWs)   bands (ev):

   -46.5202 -46.5184 -46.5182 -46.5180 -46.5175 -46.5173 -46.5168 -46.5156
   -22.8042 -22.8028 -22.8024 -22.8017 -22.7685 -22.7667 -22.7663 -22.7659
   -22.7581 -22.7564 -22.7563 -22.7552 -22.7544 -22.7535 -22.7529 -22.7483
   -22.7145 -22.7111 -22.7110 -22.7094 -22.7090 -22.7086 -22.7082 -22.7070
   -14.3325 -14.2346 -14.2263 -14.2126 -14.1614 -14.1510 -14.1440 -14.0905
    -6.9472  -6.9378  -6.9035  -6.7703  -6.5058  -6.4900  -6.4284  -6.1595
    -6.1269  -6.1156  -6.1049  -6.0932  -6.0709  -6.0493  -6.0423  -5.9959
    -5.9854  -5.9802  -5.9775  -5.9675  -5.8898  -5.8679  -5.8299  -5.8119
    -0.1902  -0.1801  -0.0750   0.3437   0.3614   0.3762   0.4070   0.4175
     0.4669   0.4969   0.4991   0.5411   0.5764   0.5995   0.6045   0.6351
     0.6542   0.6952   0.7599   0.7618   0.7718   0.7936   0.8230   0.8321
     6.0400   6.1086   6.1588   6.2166   6.3562   6.4575   6.4783   6.5105
     6.5349   6.5771   6.5902   6.5934   6.6690   6.6993   6.7406   7.5865
     7.6409   7.6454   7.6501   7.6859   7.6874   7.6902   7.7207   7.7226
     7.7780   7.7944   7.8338   7.8426   7.8992   7.9384   7.9500   8.0054
     8.0090   8.0371   8.0674   8.1087   8.2167   8.4338   8.4954   8.5532
     8.5833   8.6789   8.6881   8.7979   8.8653   8.9543   9.0232   9.0536
     9.0826   9.1051   9.1810   9.2316   9.3484   9.3986   9.4627   9.4674
     9.4847   9.5126   9.5536   9.5574   9.5842   9.6592   9.6593   9.7702
    10.0159  10.0378  10.1937  10.2300  10.2681  10.2750  10.4155  10.4346
    12.6133  12.7450  12.9208  12.9327  13.0198  13.0540  14.1440  14.1587
    14.2245  14.2254  14.2429  14.2447  14.2518  14.2575  14.2788  14.2963
    14.3413  14.3583  14.5761  14.6601  14.6897  14.8808  14.9120  14.9141
    14.9218  14.9651  15.0582  15.1620  15.1801  15.5769  15.6467  15.6747
    15.8160  15.8593  16.8062  16.8333  16.9845  17.0926  17.4323  17.5452

          k = 0.0000 0.1667 0.3297 (  9627 PWs)   bands (ev):

   -46.5205 -46.5186 -46.5185 -46.5178 -46.5174 -46.5173 -46.5165 -46.5154
   -22.7958 -22.7954 -22.7941 -22.7917 -22.7787 -22.7746 -22.7737 -22.7714
   -22.7574 -22.7574 -22.7555 -22.7555 -22.7543 -22.7539 -22.7524 -22.7503
   -22.7139 -22.7118 -22.7109 -22.7104 -22.7097 -22.7088 -22.7087 -22.7061
   -14.3122 -14.2557 -14.2128 -14.1998 -14.1753 -14.1642 -14.1328 -14.1019
    -6.8607  -6.8539  -6.8468  -6.7707  -6.6003  -6.5629  -6.4161  -6.1562
    -6.1527  -6.1089  -6.0991  -6.0874  -6.0843  -6.0652  -6.0503  -6.0325
    -5.9709  -5.9547  -5.9546  -5.9439  -5.9068  -5.8915  -5.8662  -5.8467
    -0.1019  -0.0707   0.1010   0.2132   0.2415   0.4243   0.4476   0.4545
     0.4818   0.5138   0.5251   0.5550   0.5626   0.5633   0.5714   0.6050
     0.6160   0.6828   0.6883   0.7313   0.7327   0.7617   0.7796   0.7859
     6.1130   6.1319   6.2372   6.3205   6.3326   6.4347   6.6013   6.6013
     6.6832   6.6967   6.8066   6.8613   6.8839   6.9506   6.9893   7.3788
     7.4104   7.5145   7.5811   7.5951   7.5960   7.6293   7.6345   7.6635
     7.6780   7.7275   7.7700   7.8279   7.8862   7.9516   7.9926   7.9955
     8.0033   8.0075   8.0398   8.1184   8.2075   8.2339   8.4116   8.4932
     8.6399   8.6472   8.7696   8.8324   8.8343   8.9076   8.9266   9.1216
     9.1354   9.1576   9.1972   9.2136   9.2548   9.3744   9.4135   9.4227
     9.4665   9.4781   9.5148   9.5717   9.5848   9.5943   9.7288   9.7417
     9.9372   9.9565  10.0145  10.0662  10.1062  10.1120  10.4256  10.4365
    12.6282  12.7133  13.1901  13.2043  13.2601  13.3220  13.9565  13.9867
    14.0026  14.0093  14.1327  14.1623  14.2484  14.2763  14.2984  14.3882
    14.3911  14.4675  14.4891  14.5627  14.7538  14.7578  14.8371  14.8827
    14.9067  14.9633  15.2324  15.4647  15.5570  15.5819  15.8079  16.0221
    16.1846  16.2017  16.5741  17.0411  17.0750  17.0863  17.2261  17.3647

          k = 0.0000 0.1667-0.4946 (  9636 PWs)   bands (ev):

   -46.5196 -46.5194 -46.5182 -46.5180 -46.5179 -46.5178 -46.5160 -46.5159
   -22.7881 -22.7879 -22.7853 -22.7853 -22.7851 -22.7850 -22.7824 -22.7822
   -22.7577 -22.7577 -22.7553 -22.7553 -22.7552 -22.7552 -22.7504 -22.7503
   -22.7124 -22.7124 -22.7106 -22.7105 -22.7090 -22.7090 -22.7074 -22.7074
   -14.2842 -14.2841 -14.1942 -14.1941 -14.1821 -14.1820 -14.1175 -14.1174
    -6.8000  -6.7999  -6.7361  -6.7360  -6.7136  -6.7135  -6.2902  -6.2900
    -6.1093  -6.1092  -6.0979  -6.0978  -6.0789  -6.0788  -6.0561  -6.0560
    -5.9378  -5.9377  -5.9235  -5.9234  -5.9125  -5.9124  -5.8951  -5.8950
     0.0462   0.0462   0.0835   0.0836   0.3313   0.3313   0.4600   0.4601
     0.4964   0.4964   0.5189   0.5189   0.5648   0.5648   0.5657   0.5658
     0.6480   0.6481   0.7016   0.7017   0.7363   0.7364   0.7530   0.7531
     6.1331   6.1331   6.2904   6.2905   6.3833   6.3833   6.6105   6.6106
     6.9869   6.9870   7.0038   7.0039   7.1648   7.1650   7.2302   7.2304
     7.2410   7.2411   7.2818   7.2819   7.4226   7.4228   7.6264   7.6265
     7.6703   7.6704   7.8563   7.8563   7.9440   7.9441   7.9451   7.9452
     8.0000   8.0000   8.1379   8.1380   8.1931   8.1932   8.4293   8.4294
     8.6102   8.6103   8.7711   8.7711   9.0137   9.0138   9.0193   9.0193
     9.0459   9.0459   9.2255   9.2255   9.2464   9.2465   9.3065   9.3065
     9.3156   9.3156   9.7564   9.7564   9.8093   9.8094   9.8449   9.8449
     9.8521   9.8521   9.8620   9.8620   9.8836   9.8836  10.4431  10.4432
    12.6763  12.6763  13.5893  13.5894  13.5969  13.5970  13.6366  13.6367
    13.6691  13.6692  14.1496  14.1496  14.2735  14.2735  14.3373  14.3374
    14.4512  14.4513  14.5870  14.5871  14.6437  14.6438  14.8490  14.8491
    14.9076  14.9077  15.4411  15.4412  15.6977  15.6979  16.0960  16.0963
    16.5196  16.5198  16.7334  16.7336  16.7580  16.7583  17.5395  17.5398

          k = 0.0000 0.3333 0.0000 (  9620 PWs)   bands (ev):

   -46.5192 -46.5189 -46.5180 -46.5177 -46.5173 -46.5172 -46.5169 -46.5160
   -22.8084 -22.8073 -22.8049 -22.8025 -22.7642 -22.7640 -22.7635 -22.7616
   -22.7570 -22.7567 -22.7566 -22.7542 -22.7469 -22.7442 -22.7431 -22.7430
   -22.7224 -22.7204 -22.7195 -22.7187 -22.7094 -22.7080 -22.7068 -22.7051
   -14.3174 -14.2547 -14.2121 -14.2029 -14.1714 -14.1630 -14.1336 -14.0991
    -6.9193  -6.8847  -6.8324  -6.7958  -6.6364  -6.5603  -6.2699  -6.1422
    -6.1150  -6.1119  -6.0948  -6.0749  -6.0503  -6.0369  -6.0250  -6.0200
    -5.9952  -5.9919  -5.9808  -5.9664  -5.9454  -5.8956  -5.8887  -5.8379
    -0.1043  -0.0656  -0.0039   0.2227   0.2749   0.4354   0.4452   0.4847
     0.5056   0.5189   0.5281   0.5492   0.5633   0.5676   0.5692   0.5913
     0.6079   0.6847   0.6919   0.7149   0.7495   0.7659   0.7937   0.7947
     6.0700   6.1090   6.2198   6.2838   6.3355   6.3752   6.5505   6.5905
     6.6146   6.6697   6.7856   6.8139   6.8199   6.9003   6.9563   7.3183
     7.4897   7.4967   7.6277   7.6717   7.6817   7.6893   7.6922   7.6997
     7.6997   7.7406   7.8049   7.8297   7.8616   7.9038   7.9305   7.9938
     8.0149   8.0622   8.0812   8.0836   8.2506   8.2522   8.3715   8.6660
     8.7544   8.7744   8.7896   8.8105   8.8320   8.9107   8.9130   8.9409
     8.9420   9.1012   9.2504   9.3001   9.3465   9.4061   9.4211   9.4528
     9.5123   9.5150   9.5157   9.5617   9.6376   9.6686   9.6897   9.7428
     9.9060  10.0009  10.0729  10.1264  10.2132  10.2755  10.3154  10.3651
    12.8278  12.8587  13.0396  13.0883  13.0963  13.1710  13.8410  13.8961
    13.9263  13.9364  14.3044  14.3295  14.3299  14.3395  14.3404  14.3424
    14.4121  14.4443  14.5143  14.5483  14.7384  14.7980  14.8280  14.8585
    14.8988  14.9213  15.2178  15.2566  15.4604  15.4613  15.5599  15.9321
    16.0661  16.3843  16.4497  17.0655  17.0927  17.2227  17.2650  17.3211

          k = 0.0000 0.3333 0.1649 (  9631 PWs)   bands (ev):

   -46.5195 -46.5191 -46.5184 -46.5173 -46.5173 -46.5172 -46.5171 -46.5162
   -22.8043 -22.8036 -22.8029 -22.8019 -22.7675 -22.7670 -22.7653 -22.7647
   -22.7571 -22.7566 -22.7565 -22.7541 -22.7471 -22.7446 -22.7439 -22.7428
   -22.7222 -22.7200 -22.7198 -22.7187 -22.7098 -22.7095 -22.7087 -22.7050
   -14.3105 -14.2492 -14.2194 -14.1983 -14.1771 -14.1588 -14.1383 -14.1034
    -6.8925  -6.8524  -6.8180  -6.7842  -6.6041  -6.5763  -6.3393  -6.1467
    -6.1140  -6.1118  -6.1080  -6.0831  -6.0701  -6.0501  -6.0326  -6.0125
    -6.0000  -5.9865  -5.9616  -5.9572  -5.9414  -5.9064  -5.8923  -5.8458
    -0.0830  -0.0686   0.0931   0.2523   0.2667   0.3769   0.4358   0.4420
     0.4783   0.5046   0.5291   0.5449   0.5631   0.5659   0.5800   0.6129
     0.6196   0.6729   0.6793   0.7249   0.7533   0.7558   0.7684   0.7815
     6.1227   6.1564   6.2225   6.3307   6.3643   6.4742   6.6314   6.6459
     6.6525   6.7460   6.7658   6.8237   6.8352   6.9116   6.9901   7.3562
     7.4461   7.5142   7.5760   7.6446   7.6452   7.6862   7.7039   7.7048
     7.7128   7.7312   7.7592   7.7904   7.9050   7.9157   7.9477   7.9626
     7.9869   8.0112   8.0664   8.1291   8.1360   8.1367   8.2510   8.5928
     8.6251   8.6317   8.8091   8.8200   8.8287   8.8372   8.9787   9.0739
     9.1216   9.1900   9.2084   9.3135   9.3613   9.3693   9.4367   9.4555
     9.4657   9.4805   9.4941   9.5984   9.6277   9.6283   9.6307   9.7162
     9.8410   9.9355  10.0049  10.0933  10.1848  10.2540  10.2552  10.2917
    12.9001  12.9640  13.0370  13.0698  13.1592  13.2927  13.8455  13.9007
    13.9124  13.9913  14.2340  14.2396  14.2566  14.3277  14.3359  14.3632
    14.3714  14.3966  14.4510  14.5740  14.7005  14.7435  14.8125  14.8991
    14.9762  14.9851  15.2080  15.4495  15.5605  15.5677  15.6693  16.0475
    16.1933  16.3989  16.5322  17.1226  17.1326  17.1940  17.3217  17.3970

          k = 0.0000 0.3333 0.3297 (  9625 PWs)   bands (ev):

   -46.5198 -46.5188 -46.5182 -46.5178 -46.5173 -46.5171 -46.5170 -46.5161
   -22.7950 -22.7950 -22.7946 -22.7922 -22.7772 -22.7754 -22.7730 -22.7729
   -22.7571 -22.7560 -22.7559 -22.7545 -22.7470 -22.7456 -22.7445 -22.7431
   -22.7221 -22.7211 -22.7200 -22.7183 -22.7094 -22.7084 -22.7080 -22.7068
   -14.2916 -14.2390 -14.2342 -14.1926 -14.1858 -14.1512 -14.1472 -14.1152
    -6.8192  -6.7848  -6.7623  -6.7610  -6.6309  -6.5137  -6.4763  -6.2396
    -6.1506  -6.1216  -6.1135  -6.0738  -6.0586  -6.0550  -6.0460  -6.0237
    -5.9927  -5.9727  -5.9530  -5.9325  -5.9322  -5.9307  -5.9022  -5.8682
    -0.0375   0.0344   0.2363   0.2689   0.2708   0.3284   0.3372   0.4007
     0.4344   0.4601   0.5057   0.5070   0.5583   0.5831   0.6413   0.6417
     0.6420   0.6438   0.6527   0.6800   0.7429   0.7429   0.7460   0.7633
     6.1971   6.2245   6.2394   6.3145   6.5182   6.7097   6.7541   6.8042
     6.8112   6.8246   6.8933   6.9112   6.9439   7.0118   7.1601   7.2679
     7.4339   7.4514   7.4531   7.4645   7.4804   7.5986   7.6327   7.6642
     7.7275   7.7986   7.8014   7.8032   7.8379   7.8662   7.9349   7.9903
     7.9951   7.9991   8.0193   8.0333   8.0488   8.2592   8.2698   8.3230
     8.3815   8.4185   8.5999   8.6372   8.9102   8.9339   9.0409   9.0457
     9.2026   9.2554   9.3279   9.3390   9.3510   9.3694   9.4413   9.4615
     9.4817   9.4964   9.5284   9.5328   9.5921   9.6524   9.6872   9.7151
     9.7363   9.8338   9.8622  10.0339  10.0486  10.1075  10.2476  10.2535
    12.9928  13.0468  13.2223  13.2528  13.3468  13.5286  13.8657  13.8700
    13.9721  13.9768  14.0031  14.0097  14.1146  14.1196  14.2746  14.3591
    14.3846  14.4143  14.4624  14.5644  14.6313  14.6370  14.7296  14.8306
    15.1120  15.2094  15.2281  15.4999  15.8891  15.8930  16.2238  16.3531
    16.3764  16.5609  16.8221  16.8734  17.2509  17.2594  17.3097  17.4206

          k = 0.0000 0.3333-0.4946 (  9620 PWs)   bands (ev):

   -46.5191 -46.5190 -46.5182 -46.5180 -46.5172 -46.5170 -46.5166 -46.5165
   -22.7868 -22.7865 -22.7852 -22.7850 -22.7845 -22.7843 -22.7834 -22.7832
   -22.7566 -22.7565 -22.7555 -22.7555 -22.7458 -22.7457 -22.7433 -22.7432
   -22.7223 -22.7223 -22.7181 -22.7181 -22.7078 -22.7078 -22.7072 -22.7071
   -14.2655 -14.2654 -14.2135 -14.2134 -14.1686 -14.1685 -14.1313 -14.1312
    -6.7589  -6.7589  -6.7213  -6.7212  -6.6275  -6.6274  -6.3834  -6.3832
    -6.1277  -6.1276  -6.1187  -6.1186  -6.0497  -6.0497  -6.0367  -6.0366
    -5.9685  -5.9684  -5.9568  -5.9568  -5.9163  -5.9162  -5.8998  -5.8997
     0.0800   0.0800   0.1783   0.1784   0.3157   0.3158   0.4571   0.4572
     0.4585   0.4585   0.4660   0.4660   0.4713   0.4713   0.5996   0.5997
     0.6987   0.6988   0.7034   0.7034   0.7127   0.7127   0.7341   0.7342
     6.2262   6.2262   6.2850   6.2850   6.6415   6.6416   6.8353   6.8353
     7.0486   7.0487   7.1014   7.1015   7.1142   7.1144   7.1899   7.1900
     7.2424   7.2426   7.3619   7.3621   7.4693   7.4695   7.5731   7.5731
     7.5828   7.5829   7.8100   7.8101   7.9490   7.9490   7.9657   7.9658
     8.0468   8.0469   8.0763   8.0763   8.1074   8.1075   8.2029   8.2029
     8.4052   8.4052   8.4630   8.4631   8.9422   8.9423   9.0246   9.0246
     9.1864   9.1864   9.3304   9.3304   9.3963   9.3964   9.3970   9.3971
     9.5952   9.5953   9.6209   9.6209   9.6447   9.6448   9.7919   9.7919
     9.7957   9.7957   9.8387   9.8388   9.8903   9.8903  10.2445  10.2446
    13.0170  13.0170  13.6100  13.6101  13.6282  13.6283  13.6535  13.6536
    13.8373  13.8374  13.8976  13.8976  14.1025  14.1026  14.3437  14.3438
    14.3829  14.3829  14.5131  14.5132  14.6034  14.6035  14.7200  14.7200
    15.1841  15.1842  15.4203  15.4204  16.2484  16.2486  16.3893  16.3896
    16.7818  16.7820  16.8490  16.8493  17.1117  17.1119  17.2682  17.2687

          k = 0.0000-0.5000 0.0000 (  9646 PWs)   bands (ev):

   -46.5198 -46.5198 -46.5179 -46.5179 -46.5170 -46.5170 -46.5169 -46.5169
   -22.8068 -22.8068 -22.8048 -22.8048 -22.7645 -22.7645 -22.7640 -22.7640
   -22.7570 -22.7570 -22.7565 -22.7565 -22.7367 -22.7366 -22.7329 -22.7329
   -22.7318 -22.7318 -22.7302 -22.7302 -22.7098 -22.7098 -22.7047 -22.7047
   -14.2863 -14.2862 -14.1919 -14.1919 -14.1830 -14.1830 -14.1164 -14.1164
    -6.8489  -6.8489  -6.7642  -6.7641  -6.7018  -6.7017  -6.1367  -6.1366
    -6.1264  -6.1264  -6.0720  -6.0720  -6.0461  -6.0460  -6.0394  -6.0394
    -6.0037  -6.0037  -5.9875  -5.9874  -5.9282  -5.9282  -5.8913  -5.8913
     0.0559   0.0559   0.1047   0.1047   0.2444   0.2444   0.4983   0.4984
     0.5012   0.5012   0.5478   0.5478   0.5622   0.5622   0.5968   0.5968
     0.6548   0.6548   0.6581   0.6581   0.7389   0.7389   0.7418   0.7418
     6.0916   6.0916   6.2885   6.2885   6.3500   6.3500   6.5931   6.5931
     6.9158   6.9158   7.0401   7.0402   7.1873   7.1874   7.1944   7.1946
     7.2230   7.2230   7.3326   7.3327   7.3474   7.3475   7.6619   7.6620
     7.7476   7.7477   7.9388   7.9388   7.9418   7.9418   7.9614   7.9614
     7.9728   7.9728   8.0548   8.0548   8.0782   8.0782   8.5479   8.5480
     8.7521   8.7522   8.8209   8.8209   8.9386   8.9386   9.0243   9.0243
     9.0635   9.0635   9.1778   9.1778   9.1871   9.1872   9.3521   9.3521
     9.3591   9.3592   9.6766   9.6766   9.8151   9.8151   9.8582   9.8583
     9.8665   9.8666   9.9452   9.9452   9.9897   9.9898  10.3287  10.3288
    12.8299  12.8299  13.4229  13.4230  13.4663  13.4664  13.5266  13.5266
    13.5310  13.5310  14.3329  14.3329  14.3659  14.3659  14.4283  14.4283
    14.4388  14.4388  14.5814  14.5814  14.5931  14.5932  14.8255  14.8255
    14.8695  14.8695  15.3807  15.3808  15.4714  15.4714  16.0104  16.0105
    16.4888  16.4888  16.6199  16.6200  16.9345  16.9347  17.7319  17.7320

          k = 0.0000-0.5000 0.1649 (  9626 PWs)   bands (ev):

   -46.5191 -46.5191 -46.5179 -46.5179 -46.5173 -46.5173 -46.5166 -46.5166
   -22.8040 -22.8040 -22.8017 -22.8017 -22.7668 -22.7668 -22.7646 -22.7646
   -22.7570 -22.7570 -22.7556 -22.7556 -22.7343 -22.7343 -22.7329 -22.7329
   -22.7318 -22.7318 -22.7309 -22.7309 -22.7088 -22.7088 -22.7068 -22.7068
   -14.2801 -14.2801 -14.1984 -14.1983 -14.1786 -14.1786 -14.1210 -14.1210
    -6.8285  -6.8285  -6.7315  -6.7314  -6.6983  -6.6983  -6.2196  -6.2195
    -6.1281  -6.1281  -6.0654  -6.0654  -6.0398  -6.0398  -6.0313  -6.0312
    -5.9986  -5.9985  -5.9929  -5.9927  -5.9250  -5.9250  -5.8931  -5.8931
     0.0844   0.0844   0.0894   0.0894   0.3217   0.3217   0.4328   0.4328
     0.4825   0.4825   0.5150   0.5151   0.5577   0.5577   0.5737   0.5737
     0.6771   0.6772   0.6890   0.6890   0.7263   0.7263   0.7449   0.7449
     6.1537   6.1537   6.2875   6.2875   6.4314   6.4315   6.6569   6.6569
     6.9471   6.9471   7.0528   7.0529   7.1850   7.1852   7.2047   7.2048
     7.2152   7.2153   7.3376   7.3378   7.3637   7.3638   7.6902   7.6903
     7.7596   7.7597   7.8488   7.8488   7.9415   7.9415   7.9842   7.9842
     7.9851   7.9852   8.0497   8.0497   8.0604   8.0604   8.3797   8.3798
     8.6814   8.6815   8.7150   8.7150   9.0252   9.0252   9.0514   9.0514
     9.1603   9.1603   9.1914   9.1915   9.2241   9.2242   9.3464   9.3464
     9.3761   9.3761   9.6518   9.6518   9.7948   9.7949   9.8065   9.8065
     9.8706   9.8707   9.9498   9.9499   9.9923   9.9924  10.2743  10.2743
    12.9381  12.9381  13.4540  13.4541  13.5061  13.5061  13.5264  13.5264
    13.6178  13.6179  14.2426  14.2426  14.2938  14.2938  14.3613  14.3613
    14.4484  14.4484  14.5363  14.5363  14.5986  14.5986  14.8112  14.8112
    14.9957  14.9957  15.4314  15.4314  15.6272  15.6273  16.1237  16.1238
    16.5816  16.5816  16.7521  16.7521  16.9894  16.9896  17.6081  17.6082

          k = 0.0000-0.5000 0.3297 (  9630 PWs)   bands (ev):

   -46.5187 -46.5187 -46.5179 -46.5179 -46.5178 -46.5178 -46.5169 -46.5169
   -22.7948 -22.7948 -22.7947 -22.7947 -22.7754 -22.7754 -22.7742 -22.7742
   -22.7576 -22.7576 -22.7552 -22.7552 -22.7337 -22.7337 -22.7333 -22.7333
   -22.7327 -22.7327 -22.7323 -22.7323 -22.7075 -22.7075 -22.7065 -22.7065
   -14.2631 -14.2631 -14.2159 -14.2159 -14.1666 -14.1666 -14.1333 -14.1333
    -6.7779  -6.7779  -6.6985  -6.6985  -6.6403  -6.6402  -6.3576  -6.3576
    -6.1345  -6.1345  -6.1085  -6.1084  -6.0252  -6.0251  -6.0075  -6.0074
    -6.0015  -6.0014  -5.9983  -5.9983  -5.9172  -5.9172  -5.8990  -5.8990
     0.0971   0.0971   0.1823   0.1823   0.2997   0.2997   0.4522   0.4522
     0.4560   0.4560   0.4661   0.4661   0.4702   0.4702   0.6049   0.6049
     0.6931   0.6931   0.7085   0.7085   0.7151   0.7151   0.7262   0.7262
     6.2277   6.2277   6.2658   6.2659   6.6761   6.6762   6.8871   6.8871
     7.0797   7.0797   7.0931   7.0932   7.1167   7.1168   7.1841   7.1841
     7.1857   7.1859   7.2971   7.2972   7.5153   7.5153   7.5760   7.5760
     7.5909   7.5909   7.8565   7.8565   7.9382   7.9382   7.9774   7.9774
     7.9838   7.9838   8.0718   8.0718   8.0932   8.0932   8.1343   8.1344
     8.4035   8.4035   8.5114   8.5115   8.9525   8.9525   9.0277   9.0277
     9.2807   9.2807   9.3079   9.3079   9.3580   9.3580   9.4266   9.4266
     9.4576   9.4576   9.5456   9.5457   9.6344   9.6345   9.8020   9.8021
     9.9061   9.9061   9.9295   9.9296   9.9575   9.9576  10.0990  10.0990
    13.2260  13.2260  13.4943  13.4943  13.5001  13.5001  13.6408  13.6408
    13.7766  13.7766  14.0040  14.0040  14.0729  14.0729  14.3080  14.3080
    14.4102  14.4102  14.4612  14.4612  14.5505  14.5505  14.7037  14.7037
    15.2177  15.2177  15.4093  15.4093  16.1401  16.1401  16.4075  16.4076
    16.8168  16.8168  16.9937  16.9939  17.1255  17.1255  17.3210  17.3211

          k = 0.0000-0.5000-0.4946 (  9608 PWs)   bands (ev):

   -46.5184 -46.5184 -46.5183 -46.5183 -46.5169 -46.5169 -46.5168 -46.5168
   -22.7861 -22.7861 -22.7859 -22.7859 -22.7832 -22.7832 -22.7830 -22.7830
   -22.7559 -22.7559 -22.7559 -22.7559 -22.7329 -22.7329 -22.7329 -22.7329
   -22.7319 -22.7319 -22.7319 -22.7319 -22.7073 -22.7073 -22.7073 -22.7073
   -14.2397 -14.2397 -14.2396 -14.2396 -14.1501 -14.1500 -14.1500 -14.1500
    -6.7251  -6.7251  -6.7251  -6.7250  -6.5071  -6.5071  -6.5070  -6.5069
    -6.1344  -6.1344  -6.1343  -6.1343  -6.0096  -6.0095  -6.0095  -6.0095
    -6.0025  -6.0024  -6.0024  -6.0023  -5.9075  -5.9075  -5.9074  -5.9074
     0.1745   0.1745   0.1746   0.1746   0.3147   0.3147   0.3148   0.3148
     0.4485   0.4485   0.4486   0.4486   0.6084   0.6084   0.6084   0.6084
     0.6483   0.6484   0.6484   0.6484   0.7359   0.7360   0.7360   0.7360
     6.2633   6.2633   6.2634   6.2634   6.9379   6.9379   6.9379   6.9380
     7.1333   7.1334   7.1334   7.1334   7.1884   7.1885   7.1885   7.1886
     7.2854   7.2855   7.2856   7.2856   7.3525   7.3526   7.3527   7.3527
     7.7797   7.7797   7.7798   7.7798   7.9130   7.9130   7.9131   7.9131
     7.9827   7.9828   7.9828   7.9829   8.2029   8.2029   8.2029   8.2029
     8.3018   8.3018   8.3019   8.3019   8.9469   8.9469   8.9469   8.9470
     9.3937   9.3937   9.3938   9.3938   9.3955   9.3955   9.3956   9.3956
     9.4752   9.4752   9.4753   9.4753   9.8041   9.8041   9.8041   9.8041
     9.8739   9.8740   9.8740   9.8740   9.9574   9.9575   9.9576   9.9576
    13.4705  13.4705  13.4705  13.4705  13.6380  13.6380  13.6380  13.6380
    13.8426  13.8427  13.8427  13.8427  14.0765  14.0765  14.0766  14.0766
    14.4933  14.4933  14.4933  14.4933  14.5827  14.5827  14.5827  14.5827
    15.3560  15.3561  15.3561  15.3562  16.7157  16.7157  16.7159  16.7160
    16.8390  16.8391  16.8393  16.8393  17.1520  17.1520  17.1521  17.1522

          k = 0.1667 0.1667 0.0000 (  9617 PWs)   bands (ev):

   -46.5198 -46.5182 -46.5182 -46.5182 -46.5177 -46.5173 -46.5173 -46.5148
   -22.8075 -22.8063 -22.8063 -22.8009 -22.7648 -22.7640 -22.7640 -22.7626
   -22.7551 -22.7551 -22.7547 -22.7538 -22.7538 -22.7538 -22.7494 -22.7485
   -22.7140 -22.7115 -22.7114 -22.7110 -22.7110 -22.7107 -22.7095 -22.7095
   -14.3319 -14.2258 -14.2258 -14.2215 -14.1538 -14.1517 -14.1516 -14.0910
    -6.9490  -6.9490  -6.8906  -6.7755  -6.5663  -6.4114  -6.4114  -6.1510
    -6.1268  -6.1268  -6.0997  -6.0997  -6.0716  -6.0336  -6.0142  -6.0060
    -5.9886  -5.9886  -5.9823  -5.9539  -5.9340  -5.8621  -5.8299  -5.8299
    -0.2080  -0.1371  -0.0934   0.3567   0.3567   0.3852   0.4291   0.4292
     0.4524   0.4696   0.4862   0.5477   0.5638   0.6081   0.6081   0.6432
     0.6432   0.6825   0.7597   0.7597   0.7940   0.7940   0.8178   0.8184
     6.0738   6.1733   6.1733   6.1740   6.3912   6.4768   6.4768   6.4787
     6.4787   6.5396   6.6365   6.6433   6.6587   6.6859   6.6859   7.5682
     7.6450   7.6450   7.6787   7.6806   7.6807   7.7188   7.7188   7.7347
     7.7612   7.8344   7.8344   7.8382   7.8712   7.9396   8.0149   8.0432
     8.0765   8.0765   8.0976   8.1146   8.2124   8.3175   8.3175   8.5748
     8.5748   8.7270   8.7834   8.7834   8.8858   8.9339   8.9674   9.0636
     9.0636   9.1088   9.2573   9.3089   9.3089   9.3105   9.4400   9.4586
     9.5335   9.5335   9.5874   9.5874   9.6119   9.6278   9.6278   9.6590
    10.0306  10.0645  10.2555  10.2671  10.2671  10.3162  10.3649  10.3778
    12.7401  12.8515  12.8733  12.8812  12.9658  12.9658  14.1570  14.1570
    14.1887  14.2037  14.2037  14.2153  14.2153  14.2364  14.3036  14.3500
    14.3500  14.3503  14.6016  14.6516  14.6516  14.9012  14.9650  14.9967
    14.9967  15.0106  15.0191  15.0701  15.0903  15.4416  15.6845  15.8149
    15.8466  15.8466  16.8299  16.8299  16.9994  17.1722  17.5623  17.5640

          k = 0.1667 0.1667 0.1649 (  9633 PWs)   bands (ev):

   -46.5200 -46.5186 -46.5186 -46.5180 -46.5175 -46.5174 -46.5174 -46.5154
   -22.8032 -22.8028 -22.8028 -22.8018 -22.7681 -22.7675 -22.7675 -22.7661
   -22.7560 -22.7560 -22.7540 -22.7540 -22.7539 -22.7533 -22.7496 -22.7487
   -22.7134 -22.7130 -22.7116 -22.7116 -22.7111 -22.7106 -22.7099 -22.7099
   -14.3247 -14.2291 -14.2209 -14.2209 -14.1567 -14.1567 -14.1497 -14.0953
    -6.9181  -6.9181  -6.8725  -6.7684  -6.5344  -6.4572  -6.4571  -6.1550
    -6.1172  -6.1172  -6.0966  -6.0966  -6.0694  -6.0677  -6.0359  -5.9966
    -5.9798  -5.9775  -5.9775  -5.9763  -5.9233  -5.8725  -5.8419  -5.8419
    -0.1708  -0.1390  -0.0026   0.3433   0.3721   0.3721   0.3951   0.4398
     0.4399   0.4743   0.4758   0.5577   0.5686   0.5686   0.5916   0.6524
     0.6535   0.6535   0.7611   0.7634   0.7634   0.7856   0.7857   0.8175
     6.0971   6.1824   6.2295   6.2295   6.4572   6.4572   6.5113   6.5432
     6.5432   6.6334   6.6397   6.6515   6.6963   6.7463   6.7463   7.5962
     7.5962   7.5977   7.6789   7.6789   7.6881   7.6881   7.6978   7.7459
     7.7702   7.7986   7.8620   7.8781   7.8781   7.8923   7.8923   7.9538
     7.9983   8.0220   8.0319   8.0583   8.2423   8.2423   8.2573   8.5396
     8.6015   8.6016   8.8136   8.8279   8.9893   8.9893   9.0014   9.0449
     9.0449   9.0828   9.2829   9.2938   9.2938   9.3459   9.4392   9.4393
     9.4941   9.5190   9.5482   9.5482   9.5867   9.5995   9.5995   9.6423
    10.0051  10.0110  10.1782  10.2104  10.2236  10.2236  10.3676  10.3981
    12.7370  12.8621  12.9325  12.9814  13.0474  13.0474  14.1517  14.1517
    14.1899  14.1899  14.2164  14.2165  14.2255  14.2340  14.2348  14.2696
    14.2696  14.2786  14.5995  14.5995  14.6422  14.8445  14.9153  14.9511
    15.0644  15.1129  15.1465  15.1465  15.2014  15.6536  15.8063  15.8276
    15.8276  15.9410  16.8658  16.8658  16.9299  17.2076  17.5125  17.6166

          k = 0.1667 0.1667 0.3297 (  9632 PWs)   bands (ev):

   -46.5205 -46.5185 -46.5180 -46.5180 -46.5175 -46.5175 -46.5167 -46.5157
   -22.7961 -22.7953 -22.7953 -22.7926 -22.7788 -22.7738 -22.7738 -22.7728
   -22.7544 -22.7544 -22.7543 -22.7543 -22.7525 -22.7523 -22.7508 -22.7507
   -22.7140 -22.7137 -22.7122 -22.7116 -22.7116 -22.7112 -22.7101 -22.7100
   -14.3048 -14.2497 -14.2075 -14.2075 -14.1705 -14.1704 -14.1383 -14.1069
    -6.8312  -6.8312  -6.8276  -6.7618  -6.5694  -6.5694  -6.4449  -6.1815
    -6.1524  -6.0986  -6.0986  -6.0893  -6.0893  -6.0627  -6.0447  -6.0430
    -5.9712  -5.9596  -5.9509  -5.9509  -5.9234  -5.8998  -5.8737  -5.8737
    -0.0672  -0.0660   0.1764   0.2302   0.2497   0.4066   0.4066   0.4822
     0.4823   0.4823   0.4928   0.5073   0.5073   0.5401   0.5883   0.6059
     0.6250   0.6251   0.6694   0.7704   0.7704   0.7767   0.7767   0.7975
     6.1724   6.2021   6.3199   6.3199   6.4326   6.4326   6.6358   6.6439
     6.7304   6.7304   6.7804   6.8946   6.9493   6.9493   6.9770   7.3622
     7.3622   7.5375   7.5698   7.5928   7.5928   7.6581   7.6805   7.6805
     7.6930   7.6930   7.7511   7.7912   7.8837   7.9023   7.9868   7.9885
     7.9955   7.9984   7.9984   8.1505   8.1581   8.2333   8.2333   8.3216
     8.5935   8.6288   8.6797   8.6797   8.8782   8.8782   9.0813   9.0857
     9.1877   9.1877   9.2509   9.2945   9.2945   9.3638   9.3776   9.3776
     9.4871   9.5157   9.5157   9.5752   9.5752   9.6142   9.6345   9.7103
     9.8649   9.9341   9.9767  10.0354  10.0919  10.0919  10.3740  10.3814
    12.7529  12.8358  13.2082  13.2135  13.3108  13.3108  13.9425  13.9963
    14.0168  14.0168  14.1753  14.1753  14.1941  14.1941  14.2825  14.2825
    14.3700  14.4010  14.4770  14.4770  14.7061  14.7162  14.7341  14.8625
    15.0679  15.0966  15.4566  15.4566  15.6230  15.7943  15.7943  16.1371
    16.2158  16.3015  16.6363  17.1212  17.1282  17.1283  17.1820  17.4638

          k = 0.1667 0.1667-0.4946 (  9618 PWs)   bands (ev):

   -46.5197 -46.5195 -46.5177 -46.5177 -46.5176 -46.5176 -46.5159 -46.5158
   -22.7884 -22.7882 -22.7845 -22.7845 -22.7843 -22.7843 -22.7822 -22.7820
   -22.7543 -22.7543 -22.7543 -22.7543 -22.7512 -22.7512 -22.7504 -22.7504
   -22.7128 -22.7128 -22.7127 -22.7127 -22.7102 -22.7102 -22.7102 -22.7102
   -14.2775 -14.2774 -14.1891 -14.1891 -14.1890 -14.1890 -14.1227 -14.1226
    -6.7817  -6.7816  -6.7060  -6.7060  -6.7058  -6.7058  -6.3180  -6.3179
    -6.1145  -6.1143  -6.0875  -6.0875  -6.0875  -6.0875  -6.0527  -6.0527
    -5.9389  -5.9388  -5.9359  -5.9358  -5.9144  -5.9144  -5.9143  -5.9143
     0.0764   0.0765   0.0807   0.0808   0.3944   0.3945   0.4507   0.4507
     0.4508   0.4508   0.5164   0.5165   0.5244   0.5244   0.5550   0.5550
     0.5550   0.5551   0.7447   0.7448   0.7747   0.7747   0.7747   0.7747
     6.2154   6.2154   6.3853   6.3853   6.3853   6.3853   6.6533   6.6533
     7.0213   7.0213   7.0213   7.0213   7.1292   7.1294   7.2160   7.2161
     7.2875   7.2875   7.2877   7.2877   7.4436   7.4438   7.6848   7.6848
     7.6849   7.6849   7.7960   7.7960   7.9144   7.9145   7.9673   7.9673
     8.0132   8.0132   8.1477   8.1477   8.1477   8.1477   8.3876   8.3877
     8.4265   8.4266   8.7691   8.7691   8.7691   8.7691   9.1679   9.1680
     9.1802   9.1803   9.2238   9.2238   9.2238   9.2238   9.3897   9.3898
     9.3898   9.3898   9.7187   9.7187   9.7391   9.7391   9.8070   9.8071
     9.8133   9.8133   9.8755   9.8755   9.8755   9.8755  10.3836  10.3837
    12.7958  12.7958  13.5826  13.5827  13.5999  13.6000  13.6760  13.6760
    13.6760  13.6761  14.1960  14.1960  14.1960  14.1960  14.3676  14.3676
    14.3677  14.3677  14.5624  14.5625  14.5821  14.5822  14.7858  14.7858
    15.0785  15.0786  15.6881  15.6881  15.6882  15.6882  16.1508  16.1510
    16.6136  16.6138  16.8165  16.8168  16.8421  16.8422  17.5536  17.5537

          k = 0.1667 0.3333 0.0000 (  9643 PWs)   bands (ev):

   -46.5203 -46.5189 -46.5181 -46.5180 -46.5178 -46.5172 -46.5171 -46.5159
   -22.8083 -22.8076 -22.8058 -22.8023 -22.7653 -22.7643 -22.7632 -22.7623
   -22.7549 -22.7532 -22.7529 -22.7509 -22.7474 -22.7453 -22.7435 -22.7429
   -22.7234 -22.7206 -22.7198 -22.7194 -22.7143 -22.7118 -22.7104 -22.7101
   -14.3099 -14.2487 -14.2108 -14.2070 -14.1693 -14.1667 -14.1390 -14.1040
    -6.8952  -6.8690  -6.7995  -6.7893  -6.6470  -6.5270  -6.3170  -6.1341
    -6.1067  -6.1035  -6.0905  -6.0769  -6.0557  -6.0502  -6.0321  -6.0199
    -6.0177  -5.9891  -5.9865  -5.9617  -5.9587  -5.9079  -5.8869  -5.8666
    -0.1141  -0.0171   0.0778   0.2201   0.3055   0.3834   0.4105   0.4795
     0.4950   0.5055   0.5170   0.5359   0.5429   0.5616   0.5661   0.6067
     0.6202   0.6751   0.7163   0.7317   0.7329   0.7548   0.7573   0.7801
     6.1330   6.1737   6.2823   6.3166   6.3665   6.4405   6.5942   6.6212
     6.6478   6.7624   6.7665   6.8421   6.8625   6.9103   6.9484   7.2773
     7.4503   7.5696   7.6130   7.6311   7.6336   7.6823   7.6872   7.7200
     7.7245   7.7320   7.7418   7.8196   7.8749   7.8817   7.9146   7.9625
     7.9930   8.0370   8.0433   8.1430   8.1761   8.2646   8.2741   8.3864
     8.6493   8.7255   8.7366   8.7747   8.7747   8.8443   9.0191   9.0379
     9.0518   9.1812   9.1868   9.2038   9.3227   9.3663   9.3959   9.4753
     9.4915   9.4978   9.5016   9.5128   9.6479   9.6826   9.6968   9.7227
     9.9048   9.9732  10.0880  10.1094  10.1429  10.2436  10.2718  10.3055
    12.8230  12.9336  13.0503  13.1010  13.1631  13.1963  13.8626  13.9033
    13.9286  13.9420  14.2008  14.2210  14.2406  14.3238  14.3271  14.3426
    14.3679  14.4301  14.5111  14.5277  14.6908  14.7168  14.7721  14.8947
    15.0200  15.0203  15.2772  15.4436  15.4604  15.5352  15.7814  16.0701
    16.1720  16.3932  16.5559  17.1473  17.1785  17.2340  17.2511  17.3718

          k = 0.1667 0.3333 0.1649 (  9620 PWs)   bands (ev):

   -46.5199 -46.5184 -46.5178 -46.5176 -46.5174 -46.5171 -46.5171 -46.5163
   -22.8034 -22.8032 -22.8022 -22.8017 -22.7679 -22.7664 -22.7658 -22.7645
   -22.7544 -22.7534 -22.7528 -22.7510 -22.7463 -22.7443 -22.7437 -22.7430
   -22.7229 -22.7203 -22.7197 -22.7191 -22.7130 -22.7109 -22.7102 -22.7098
   -14.3032 -14.2433 -14.2140 -14.2061 -14.1722 -14.1649 -14.1439 -14.1084
    -6.8679  -6.8377  -6.7865  -6.7759  -6.6148  -6.5437  -6.3671  -6.1397
    -6.1320  -6.1051  -6.1021  -6.0896  -6.0729  -6.0541  -6.0263  -6.0123
    -6.0068  -5.9896  -5.9798  -5.9559  -5.9554  -5.9173  -5.8938  -5.8743
    -0.0828  -0.0303   0.1693   0.2455   0.2937   0.3687   0.3872   0.4652
     0.4763   0.4911   0.4949   0.4968   0.5084   0.5474   0.5822   0.6032
     0.6220   0.6446   0.6695   0.7635   0.7666   0.7722   0.7811   0.7878
     6.1882   6.2403   6.3120   6.3648   6.4276   6.4771   6.6626   6.6735
     6.6753   6.7487   6.8059   6.8717   6.8855   6.9072   7.0006   7.3187
     7.4043   7.5458   7.5798   7.6077   7.6568   7.6634   7.6720   7.7345
     7.7518   7.7549   7.7550   7.7876   7.9057   7.9105   7.9244   7.9297
     7.9830   7.9911   8.0221   8.1448   8.1451   8.1771   8.2138   8.3301
     8.5845   8.6191   8.6792   8.7419   8.7605   8.9446   9.0123   9.1210
     9.1450   9.2336   9.2437   9.2480   9.2899   9.2982   9.4346   9.4680
     9.4857   9.4974   9.5422   9.5755   9.5827   9.6718   9.6734   9.7220
     9.8821   9.9160   9.9944  10.0962  10.1252  10.2225  10.2377  10.2440
    12.9448  13.0392  13.0828  13.1668  13.1851  13.2680  13.8771  13.9342
    13.9577  13.9859  14.2176  14.2341  14.2547  14.2596  14.2604  14.2679
    14.3064  14.3463  14.4675  14.5105  14.6751  14.6926  14.7298  14.8335
    15.1608  15.1762  15.4576  15.4626  15.6008  15.6987  15.7923  16.1754
    16.2932  16.4069  16.6297  17.1823  17.2090  17.2186  17.3053  17.4804

          k = 0.1667 0.3333 0.3297 (  9633 PWs)   bands (ev):

   -46.5198 -46.5188 -46.5182 -46.5175 -46.5175 -46.5174 -46.5173 -46.5164
   -22.7962 -22.7957 -22.7947 -22.7931 -22.7772 -22.7752 -22.7739 -22.7725
   -22.7543 -22.7537 -22.7530 -22.7517 -22.7467 -22.7444 -22.7443 -22.7437
   -22.7221 -22.7203 -22.7195 -22.7192 -22.7129 -22.7120 -22.7110 -22.7105
   -14.2847 -14.2332 -14.2285 -14.1931 -14.1875 -14.1572 -14.1531 -14.1205
    -6.7937  -6.7576  -6.7500  -6.7489  -6.6007  -6.5257  -6.4842  -6.2569
    -6.1463  -6.1138  -6.1045  -6.0746  -6.0686  -6.0637  -6.0476  -6.0235
    -5.9934  -5.9704  -5.9701  -5.9482  -5.9409  -5.9396  -5.9124  -5.8946
    -0.0092   0.0319   0.2521   0.2876   0.3187   0.3216   0.3415   0.4006
     0.4049   0.4562   0.4781   0.4863   0.5015   0.5206   0.5319   0.5614
     0.5725   0.6815   0.6863   0.7454   0.7911   0.7915   0.8080   0.8160
     6.2673   6.3124   6.3205   6.4038   6.5203   6.6893   6.7236   6.8239
     6.8257   6.8357   6.8363   6.9861   6.9929   7.0040   7.1696   7.2448
     7.3833   7.4075   7.4139   7.4468   7.5876   7.6375   7.6703   7.6967
     7.7172   7.7200   7.7484   7.7780   7.8844   7.9315   7.9335   7.9448
     7.9866   7.9940   8.0077   8.0102   8.0678   8.2339   8.2535   8.2798
     8.2939   8.3864   8.5170   8.5728   8.7553   8.8310   8.9597   9.0934
     9.2286   9.2877   9.3121   9.3510   9.3833   9.3984   9.4425   9.4511
     9.4957   9.5326   9.5475   9.5631   9.6231   9.6688   9.6715   9.6719
     9.7581   9.8281   9.8391  10.0160  10.0283  10.0703  10.2165  10.2211
    13.0784  13.1637  13.2558  13.2842  13.3651  13.5156  13.8845  13.9261
    13.9703  13.9809  13.9914  14.0300  14.1020  14.1110  14.2444  14.3052
    14.3085  14.3142  14.3634  14.5285  14.5434  14.5603  14.6423  14.7011
    15.3385  15.4344  15.4471  15.7537  15.8873  15.8914  16.2297  16.3992
    16.4624  16.6438  16.8562  16.8904  17.2968  17.3016  17.3388  17.3928

          k = 0.1667 0.3333-0.4946 (  9630 PWs)   bands (ev):

   -46.5191 -46.5190 -46.5182 -46.5180 -46.5175 -46.5174 -46.5168 -46.5167
   -22.7871 -22.7869 -22.7850 -22.7848 -22.7844 -22.7841 -22.7831 -22.7829
   -22.7538 -22.7538 -22.7522 -22.7522 -22.7458 -22.7458 -22.7443 -22.7442
   -22.7218 -22.7217 -22.7193 -22.7192 -22.7115 -22.7115 -22.7109 -22.7108
   -14.2591 -14.2591 -14.2081 -14.2080 -14.1753 -14.1752 -14.1369 -14.1368
    -6.7383  -6.7382  -6.6937  -6.6936  -6.6232  -6.6231  -6.3975  -6.3973
    -6.1268  -6.1267  -6.1099  -6.1098  -6.0591  -6.0590  -6.0364  -6.0363
    -5.9739  -5.9738  -5.9593  -5.9592  -5.9340  -5.9339  -5.9200  -5.9199
     0.1051   0.1051   0.1653   0.1654   0.3263   0.3264   0.4238   0.4239
     0.4320   0.4321   0.4600   0.4600   0.5258   0.5259   0.5284   0.5284
     0.5410   0.5410   0.7591   0.7591   0.8005   0.8005   0.8103   0.8104
     6.3087   6.3087   6.3652   6.3652   6.6271   6.6271   6.8336   6.8336
     7.0398   7.0398   7.0535   7.0537   7.1071   7.1072   7.1610   7.1610
     7.3169   7.3171   7.4405   7.4407   7.4518   7.4519   7.5469   7.5470
     7.6276   7.6277   7.8062   7.8063   7.8532   7.8533   7.9700   7.9700
     8.0435   8.0436   8.0563   8.0564   8.1601   8.1602   8.1607   8.1607
     8.3501   8.3502   8.4043   8.4043   8.7523   8.7524   8.9607   8.9608
     9.2706   9.2706   9.3540   9.3540   9.3849   9.3849   9.4765   9.4765
     9.6155   9.6155   9.6216   9.6217   9.6453   9.6453   9.7787   9.7787
     9.7843   9.7843   9.8395   9.8395   9.8753   9.8754  10.2161  10.2163
    13.1360  13.1361  13.6013  13.6014  13.6546  13.6547  13.6700  13.6700
    13.8040  13.8040  13.9156  13.9156  14.1250  14.1251  14.2816  14.2816
    14.3220  14.3221  14.3988  14.3989  14.5126  14.5127  14.6158  14.6158
    15.4005  15.4006  15.6622  15.6623  16.2442  16.2444  16.3941  16.3944
    16.8740  16.8741  16.8799  16.8802  17.1736  17.1738  17.2738  17.2741

          k = 0.1667-0.5000 0.0000 (  9674 PWs)   bands (ev):

   -46.5196 -46.5196 -46.5182 -46.5182 -46.5182 -46.5182 -46.5167 -46.5167
   -22.8080 -22.8080 -22.8057 -22.8057 -22.7648 -22.7648 -22.7638 -22.7638
   -22.7552 -22.7552 -22.7520 -22.7520 -22.7355 -22.7355 -22.7333 -22.7333
   -22.7330 -22.7330 -22.7314 -22.7314 -22.7131 -22.7131 -22.7113 -22.7113
   -14.2795 -14.2795 -14.1902 -14.1901 -14.1869 -14.1869 -14.1216 -14.1216
    -6.8326  -6.8326  -6.7586  -6.7585  -6.6688  -6.6688  -6.1842  -6.1840
    -6.1173  -6.1173  -6.0707  -6.0707  -6.0475  -6.0474  -6.0407  -6.0407
    -5.9975  -5.9974  -5.9974  -5.9973  -5.9245  -5.9245  -5.9152  -5.9152
     0.0438   0.0438   0.1421   0.1421   0.3129   0.3129   0.4308   0.4308
     0.4678   0.4678   0.5169   0.5169   0.5609   0.5609   0.6146   0.6146
     0.6344   0.6344   0.6955   0.6955   0.7301   0.7301   0.7419   0.7419
     6.1644   6.1644   6.3350   6.3351   6.3714   6.3714   6.6343   6.6344
     6.8903   6.8903   7.0853   7.0853   7.1657   7.1658   7.1909   7.1910
     7.2282   7.2283   7.3121   7.3122   7.3498   7.3500   7.6898   7.6899
     7.7085   7.7086   7.8551   7.8551   7.9441   7.9442   7.9530   7.9530
     8.0192   8.0192   8.0485   8.0485   8.0968   8.0968   8.4724   8.4725
     8.5564   8.5565   8.7331   8.7331   8.9296   8.9296   8.9993   8.9993
     9.1069   9.1069   9.1244   9.1244   9.1765   9.1765   9.3719   9.3720
     9.4046   9.4046   9.7158   9.7158   9.8375   9.8376   9.8456   9.8456
     9.8460   9.8460   9.8931   9.8932   9.9978   9.9978  10.2735  10.2735
    12.8723  12.8723  13.4624  13.4624  13.4915  13.4915  13.5286  13.5286
    13.5522  13.5522  14.2032  14.2032  14.3150  14.3150  14.3310  14.3310
    14.4034  14.4035  14.5147  14.5147  14.5884  14.5884  14.7666  14.7666
    15.0312  15.0312  15.4032  15.4032  15.6663  15.6663  16.1180  16.1181
    16.6174  16.6174  16.7158  16.7159  17.0020  17.0022  17.6772  17.6774

          k = 0.1667-0.5000 0.1649 (  9626 PWs)   bands (ev):

   -46.5191 -46.5191 -46.5177 -46.5177 -46.5174 -46.5174 -46.5167 -46.5167
   -22.8032 -22.8032 -22.8021 -22.8021 -22.7675 -22.7675 -22.7649 -22.7649
   -22.7538 -22.7538 -22.7521 -22.7521 -22.7341 -22.7341 -22.7329 -22.7329
   -22.7318 -22.7318 -22.7314 -22.7314 -22.7119 -22.7119 -22.7104 -22.7104
   -14.2734 -14.2734 -14.1933 -14.1933 -14.1856 -14.1856 -14.1262 -14.1262
    -6.8114  -6.8114  -6.7266  -6.7265  -6.6663  -6.6662  -6.2450  -6.2449
    -6.1195  -6.1195  -6.0638  -6.0638  -6.0472  -6.0472  -6.0416  -6.0415
    -6.0015  -6.0014  -5.9943  -5.9942  -5.9247  -5.9247  -5.9172  -5.9172
     0.0719   0.0720   0.1244   0.1244   0.3875   0.3875   0.4229   0.4229
     0.4289   0.4289   0.5116   0.5117   0.5249   0.5250   0.5501   0.5501
     0.5875   0.5875   0.7393   0.7393   0.7660   0.7660   0.7717   0.7717
     6.2316   6.2316   6.3828   6.3829   6.4334   6.4334   6.6860   6.6860
     6.9477   6.9477   7.0852   7.0852   7.1503   7.1505   7.1731   7.1732
     7.2554   7.2555   7.3585   7.3586   7.3708   7.3710   7.7386   7.7387
     7.7398   7.7398   7.7933   7.7933   7.9173   7.9173   7.9611   7.9611
     8.0470   8.0470   8.0524   8.0524   8.0683   8.0683   8.3905   8.3906
     8.4714   8.4714   8.6672   8.6672   8.9039   8.9040   9.0202   9.0202
     9.2052   9.2052   9.2127   9.2127   9.2183   9.2183   9.3643   9.3643
     9.4452   9.4452   9.6888   9.6889   9.7756   9.7756   9.7860   9.7860
     9.8607   9.8608   9.9070   9.9071   9.9944   9.9945  10.2218  10.2218
    13.0009  13.0009  13.4852  13.4852  13.5383  13.5383  13.5600  13.5600
    13.6102  13.6102  14.2497  14.2497  14.2538  14.2538  14.3281  14.3281
    14.3566  14.3566  14.4884  14.4885  14.5253  14.5253  14.7371  14.7371
    15.1629  15.1629  15.6339  15.6339  15.6812  15.6812  16.2088  16.2089
    16.6976  16.6976  16.8352  16.8352  17.0318  17.0319  17.6043  17.6045

          k = 0.1667-0.5000 0.3297 (  9644 PWs)   bands (ev):

   -46.5190 -46.5190 -46.5184 -46.5184 -46.5174 -46.5174 -46.5171 -46.5171
   -22.7965 -22.7965 -22.7948 -22.7948 -22.7759 -22.7759 -22.7733 -22.7733
   -22.7533 -22.7533 -22.7528 -22.7528 -22.7341 -22.7341 -22.7337 -22.7337
   -22.7323 -22.7323 -22.7322 -22.7322 -22.7117 -22.7117 -22.7113 -22.7113
   -14.2568 -14.2568 -14.2105 -14.2105 -14.1732 -14.1732 -14.1389 -14.1389
    -6.7583  -6.7583  -6.6700  -6.6699  -6.6379  -6.6378  -6.3687  -6.3686
    -6.1271  -6.1271  -6.1054  -6.1053  -6.0286  -6.0285  -6.0234  -6.0234
    -6.0071  -6.0070  -5.9972  -5.9971  -5.9269  -5.9269  -5.9227  -5.9227
     0.1195   0.1195   0.1702   0.1702   0.3097   0.3097   0.4227   0.4228
     0.4242   0.4242   0.4601   0.4601   0.5237   0.5238   0.5293   0.5293
     0.5518   0.5518   0.7542   0.7542   0.7971   0.7972   0.8119   0.8119
     6.3138   6.3138   6.3672   6.3672   6.6355   6.6355   6.8804   6.8804
     7.0553   7.0553   7.0606   7.0607   7.0716   7.0716   7.1450   7.1450
     7.2851   7.2853   7.3798   7.3799   7.4809   7.4810   7.5499   7.5499
     7.6618   7.6619   7.8384   7.8384   7.8567   7.8567   7.9842   7.9842
     8.0104   8.0104   8.0677   8.0677   8.0967   8.0968   8.1448   8.1448
     8.3787   8.3787   8.3814   8.3814   8.8229   8.8230   8.8809   8.8809
     9.2886   9.2886   9.3505   9.3505   9.3672   9.3672   9.4921   9.4921
     9.5060   9.5060   9.5960   9.5960   9.6349   9.6350   9.7716   9.7716
     9.8648   9.8648   9.9063   9.9063   9.9692   9.9692  10.0733  10.0733
    13.2620  13.2620  13.5112  13.5112  13.5476  13.5476  13.6412  13.6413
    13.7825  13.7826  13.9852  13.9852  14.0891  14.0891  14.2958  14.2959
    14.3277  14.3277  14.3917  14.3917  14.4736  14.4736  14.6053  14.6053
    15.4372  15.4372  15.6455  15.6455  16.1546  16.1547  16.4209  16.4210
    16.9122  16.9122  17.0267  17.0268  17.1772  17.1774  17.2908  17.2909

          k = 0.1667-0.5000-0.4946 (  9620 PWs)   bands (ev):

   -46.5187 -46.5187 -46.5186 -46.5186 -46.5169 -46.5169 -46.5168 -46.5168
   -22.7857 -22.7857 -22.7854 -22.7854 -22.7832 -22.7832 -22.7829 -22.7829
   -22.7524 -22.7524 -22.7524 -22.7524 -22.7336 -22.7336 -22.7336 -22.7336
   -22.7317 -22.7317 -22.7317 -22.7317 -22.7121 -22.7121 -22.7121 -22.7121
   -14.2338 -14.2338 -14.2337 -14.2337 -14.1562 -14.1562 -14.1561 -14.1561
    -6.7011  -6.7011  -6.7010  -6.7010  -6.5096  -6.5096  -6.5095  -6.5094
    -6.1288  -6.1288  -6.1287  -6.1287  -6.0180  -6.0179  -6.0179  -6.0178
    -6.0044  -6.0044  -6.0043  -6.0043  -5.9274  -5.9274  -5.9273  -5.9273
     0.1928   0.1928   0.1929   0.1929   0.2896   0.2896   0.2897   0.2897
     0.4296   0.4296   0.4297   0.4297   0.5320   0.5320   0.5321   0.5321
     0.6665   0.6665   0.6665   0.6665   0.8241   0.8241   0.8241   0.8241
     6.3537   6.3537   6.3537   6.3538   6.8912   6.8913   6.8913   6.8914
     7.0473   7.0473   7.0474   7.0474   7.2736   7.2736   7.2736   7.2737
     7.2790   7.2791   7.2792   7.2792   7.4385   7.4386   7.4386   7.4387
     7.6793   7.6793   7.6794   7.6794   7.9568   7.9568   7.9568   7.9568
     7.9960   7.9961   7.9961   7.9961   8.1685   8.1685   8.1685   8.1685
     8.2366   8.2367   8.2367   8.2367   8.7932   8.7932   8.7932   8.7932
     9.3788   9.3788   9.3789   9.3789   9.4986   9.4986   9.4987   9.4987
     9.5146   9.5147   9.5147   9.5147   9.8051   9.8051   9.8051   9.8051
     9.8440   9.8440   9.8440   9.8440   9.9593   9.9593   9.9594   9.9594
    13.4928  13.4928  13.4928  13.4928  13.6580  13.6580  13.6581  13.6581
    13.8553  13.8553  13.8553  13.8553  14.0627  14.0627  14.0628  14.0628
    14.4245  14.4245  14.4245  14.4245  14.4774  14.4774  14.4775  14.4775
    15.5895  15.5895  15.5896  15.5896  16.7344  16.7345  16.7346  16.7347
    16.8497  16.8498  16.8499  16.8500  17.2355  17.2356  17.2357  17.2357

          k = 0.3333 0.3333 0.0000 (  9632 PWs)   bands (ev):

   -46.5195 -46.5183 -46.5183 -46.5175 -46.5174 -46.5174 -46.5174 -46.5163
   -22.8070 -22.8068 -22.8068 -22.8036 -22.7635 -22.7628 -22.7628 -22.7615
   -22.7466 -22.7466 -22.7457 -22.7446 -22.7446 -22.7443 -22.7441 -22.7421
   -22.7230 -22.7225 -22.7205 -22.7205 -22.7192 -22.7192 -22.7189 -22.7185
   -14.2894 -14.2322 -14.2321 -14.1928 -14.1863 -14.1536 -14.1536 -14.1174
    -6.8312  -6.8312  -6.7810  -6.7078  -6.6841  -6.4335  -6.4335  -6.1597
    -6.1081  -6.0822  -6.0822  -6.0788  -6.0788  -6.0592  -6.0483  -6.0208
    -6.0123  -5.9986  -5.9842  -5.9621  -5.9621  -5.9394  -5.9394  -5.9003
    -0.0599   0.0896   0.2344   0.2344   0.2521   0.3840   0.3896   0.3896
     0.4040   0.4526   0.4952   0.4952   0.5491   0.6154   0.6343   0.6349
     0.6349   0.6392   0.6393   0.6872   0.7351   0.7445   0.7477   0.7477
     6.2386   6.2882   6.2882   6.3573   6.4820   6.7025   6.7025   6.7282
     6.7282   6.8314   6.9323   6.9336   7.0043   7.0043   7.0546   7.1440
     7.4178   7.4382   7.5154   7.5154   7.5866   7.5900   7.6429   7.6429
     7.7669   7.8157   7.8157   7.8252   7.8650   7.8650   7.9396   7.9396
     7.9875   8.0025   8.0258   8.0638   8.0752   8.3425   8.3425   8.3591
     8.3591   8.4366   8.6382   8.6813   8.6813   8.7059   8.8390   8.9533
     9.1639   9.1639   9.2414   9.2667   9.3868   9.4178   9.4821   9.5303
     9.5370   9.5370   9.5822   9.5822   9.5867   9.5867   9.7918   9.7918
     9.8950   9.9216   9.9584  10.0363  10.0995  10.0995  10.1488  10.1577
    12.9982  13.1549  13.1549  13.2023  13.2741  13.4630  13.8508  13.9124
    13.9125  13.9593  13.9593  14.0080  14.0932  14.0932  14.2982  14.3525
    14.4058  14.4224  14.4224  14.5594  14.5852  14.5852  14.7070  14.7599
    15.2272  15.2906  15.2906  15.4707  15.9014  15.9234  16.3834  16.3834
    16.4620  16.4754  16.9114  16.9114  17.3771  17.3772  17.3884  17.4783

          k = 0.3333 0.3333 0.1649 (  9639 PWs)   bands (ev):

   -46.5200 -46.5185 -46.5185 -46.5176 -46.5174 -46.5172 -46.5172 -46.5166
   -22.8032 -22.8029 -22.8029 -22.8019 -22.7678 -22.7670 -22.7670 -22.7649
   -22.7462 -22.7462 -22.7458 -22.7447 -22.7444 -22.7444 -22.7442 -22.7423
   -22.7235 -22.7233 -22.7207 -22.7207 -22.7193 -22.7189 -22.7188 -22.7188
   -14.2830 -14.2270 -14.2270 -14.1994 -14.1818 -14.1589 -14.1589 -14.1221
    -6.8031  -6.8031  -6.7635  -6.6994  -6.6529  -6.4538  -6.4538  -6.2073
    -6.1170  -6.0862  -6.0862  -6.0803  -6.0803  -6.0554  -6.0340  -6.0332
    -6.0128  -6.0026  -5.9860  -5.9611  -5.9611  -5.9455  -5.9455  -5.9086
    -0.0302   0.0695   0.2530   0.2530   0.3360   0.3654   0.3655   0.3716
     0.3894   0.4481   0.4739   0.4739   0.5009   0.5056   0.5610   0.5610
     0.5678   0.6829   0.6829   0.7464   0.7828   0.7952   0.8060   0.8060
     6.3109   6.3634   6.3634   6.4528   6.4709   6.6932   6.6932   6.7580
     6.7580   6.8423   6.9348   6.9350   7.0486   7.0486   7.0655   7.1625
     7.3679   7.4408   7.4512   7.4512   7.5992   7.6651   7.6651   7.6723
     7.7256   7.7256   7.7501   7.8109   7.9104   7.9326   7.9326   7.9537
     7.9537   7.9926   7.9967   8.0402   8.1001   8.2097   8.2097   8.3633
     8.3634   8.4149   8.5395   8.5842   8.6811   8.6812   8.7786   8.9008
     9.2501   9.2600   9.2600   9.3357   9.4430   9.4520   9.4818   9.4818
     9.5143   9.5294   9.5294   9.5494   9.6624   9.6624   9.7437   9.7437
     9.8109   9.8737   9.9428   9.9617  10.0816  10.0816  10.1365  10.1507
    13.0896  13.2317  13.2317  13.2376  13.2910  13.4608  13.8990  13.9244
    13.9244  13.9713  13.9713  14.0379  14.0935  14.0935  14.2686  14.2931
    14.2932  14.3395  14.3395  14.5091  14.5091  14.5447  14.6543  14.6806
    15.4121  15.4702  15.4702  15.7000  15.8792  15.9212  16.4135  16.4135
    16.5458  16.5780  16.9223  16.9223  17.2903  17.4474  17.4484  17.5281

          k = 0.3333 0.3333 0.3297 (  9640 PWs)   bands (ev):

   -46.5192 -46.5184 -46.5180 -46.5180 -46.5177 -46.5177 -46.5174 -46.5170
   -22.7962 -22.7959 -22.7959 -22.7952 -22.7752 -22.7738 -22.7734 -22.7734
   -22.7453 -22.7453 -22.7450 -22.7450 -22.7449 -22.7444 -22.7442 -22.7427
   -22.7223 -22.7214 -22.7211 -22.7205 -22.7205 -22.7205 -22.7199 -22.7198
   -14.2656 -14.2174 -14.2128 -14.2128 -14.1735 -14.1735 -14.1693 -14.1349
    -6.7255  -6.7255  -6.7222  -6.6847  -6.5670  -6.5191  -6.5191  -6.3145
    -6.1307  -6.0919  -6.0918  -6.0838  -6.0783  -6.0783  -6.0440  -6.0140
    -6.0129  -5.9915  -5.9903  -5.9625  -5.9625  -5.9581  -5.9581  -5.9314
     0.0523   0.0881   0.2846   0.3030   0.3030   0.3315   0.3428   0.3428
     0.4025   0.4154   0.4155   0.4366   0.4503   0.4626   0.4626   0.4875
     0.4965   0.7635   0.7703   0.7703   0.8269   0.8507   0.8507   0.8563
     6.4354   6.4750   6.4917   6.4917   6.6510   6.6510   6.6711   6.8812
     6.8812   6.9183   6.9344   6.9672   7.1316   7.1754   7.1754   7.2080
     7.2587   7.2985   7.2985   7.4583   7.6271   7.6471   7.6471   7.7053
     7.7121   7.7121   7.7399   7.7716   7.8698   7.8862   7.8862   7.9808
     7.9810   7.9926   7.9926   7.9952   8.1115   8.1115   8.1366   8.2434
     8.3396   8.3497   8.3497   8.3735   8.5280   8.5280   8.6985   8.7579
     9.3851   9.4207   9.4207   9.4256   9.4256   9.4575   9.4799   9.5733
     9.5733   9.5839   9.5895   9.6253   9.6888   9.6888   9.7133   9.7133
     9.7387   9.8049   9.8137   9.8762   9.9803   9.9803  10.1005  10.1270
    13.2715  13.3939  13.4120  13.4216  13.4741  13.4741  13.9713  13.9713
    13.9795  14.0260  14.0352  14.0352  14.0420  14.0420  14.0519  14.1010
    14.1010  14.1375  14.3351  14.3351  14.3595  14.4364  14.4849  14.5309
    15.8944  15.8986  15.8986  15.9017  15.9133  16.2384  16.3856  16.3856
    16.7841  16.8911  16.9794  17.0243  17.0243  17.4124  17.6959  17.6963

          k = 0.3333 0.3333-0.4946 (  9652 PWs)   bands (ev):

   -46.5193 -46.5191 -46.5181 -46.5181 -46.5179 -46.5179 -46.5173 -46.5171
   -22.7878 -22.7875 -22.7848 -22.7848 -22.7845 -22.7845 -22.7839 -22.7837
   -22.7454 -22.7454 -22.7454 -22.7453 -22.7451 -22.7451 -22.7435 -22.7435
   -22.7220 -22.7220 -22.7215 -22.7215 -22.7206 -22.7206 -22.7206 -22.7206
   -14.2417 -14.2416 -14.1933 -14.1933 -14.1932 -14.1932 -14.1522 -14.1521
    -6.6884  -6.6883  -6.6203  -6.6203  -6.6202  -6.6202  -6.4448  -6.4446
    -6.1247  -6.1246  -6.0843  -6.0843  -6.0842  -6.0842  -6.0292  -6.0291
    -5.9989  -5.9988  -5.9647  -5.9647  -5.9646  -5.9646  -5.9617  -5.9616
     0.1674   0.1675   0.1795   0.1796   0.3543   0.3543   0.3543   0.3544
     0.3820   0.3821   0.3821   0.3821   0.4196   0.4197   0.4440   0.4441
     0.6563   0.6563   0.8365   0.8365   0.8365   0.8365   0.8690   0.8690
     6.4845   6.4846   6.5832   6.5832   6.5833   6.5833   6.9177   6.9177
     6.9431   6.9432   7.0934   7.0934   7.0935   7.0935   7.1491   7.1492
     7.4190   7.4190   7.4191   7.4191   7.4485   7.4486   7.5652   7.5653
     7.6821   7.6821   7.7727   7.7727   7.7728   7.7728   7.9963   7.9963
     8.0267   8.0268   8.0741   8.0741   8.0741   8.0741   8.1200   8.1201
     8.2151   8.2152   8.3766   8.3766   8.3766   8.3767   8.6599   8.6599
     9.4233   9.4233   9.4233   9.4233   9.4872   9.4872   9.5974   9.5974
     9.6702   9.6702   9.6703   9.6703   9.6858   9.6858   9.6902   9.6903
     9.7437   9.7437   9.8136   9.8136   9.8136   9.8136  10.0983  10.0984
    13.3379  13.3380  13.6668  13.6669  13.7085  13.7086  13.7637  13.7637
    13.7638  13.7638  14.0172  14.0172  14.0172  14.0172  14.1710  14.1710
    14.1711  14.1711  14.2479  14.2479  14.2996  14.2997  14.4407  14.4408
    15.8917  15.8918  16.2419  16.2419  16.2420  16.2420  16.4705  16.4708
    16.9055  16.9058  17.1318  17.1320  17.2882  17.2883  17.2883  17.3748

          k = 0.3333-0.5000 0.0000 (  9646 PWs)   bands (ev):

   -46.5194 -46.5194 -46.5183 -46.5183 -46.5171 -46.5171 -46.5170 -46.5170
   -22.8063 -22.8063 -22.8051 -22.8051 -22.7643 -22.7643 -22.7640 -22.7640
   -22.7455 -22.7455 -22.7438 -22.7438 -22.7357 -22.7356 -22.7328 -22.7328
   -22.7322 -22.7322 -22.7312 -22.7312 -22.7224 -22.7224 -22.7180 -22.7180
   -14.2610 -14.2610 -14.2094 -14.2094 -14.1733 -14.1733 -14.1356 -14.1356
    -6.7947  -6.7947  -6.7512  -6.7512  -6.5760  -6.5759  -6.3009  -6.3008
    -6.0889  -6.0889  -6.0634  -6.0633  -6.0477  -6.0476  -6.0450  -6.0450
    -6.0202  -6.0201  -5.9768  -5.9767  -5.9742  -5.9742  -5.9297  -5.9296
     0.0671   0.0671   0.2369   0.2369   0.2895   0.2895   0.4337   0.4337
     0.4537   0.4537   0.4588   0.4588   0.5092   0.5092   0.5930   0.5930
     0.6722   0.6722   0.7033   0.7033   0.7140   0.7141   0.7333   0.7333
     6.2803   6.2803   6.3452   6.3452   6.6342   6.6343   6.8220   6.8220
     6.9311   6.9311   7.0679   7.0681   7.1394   7.1394   7.2022   7.2023
     7.3333   7.3334   7.3386   7.3388   7.4217   7.4217   7.5968   7.5968
     7.6160   7.6160   7.8169   7.8169   7.9570   7.9570   7.9729   7.9730
     8.0173   8.0174   8.1437   8.1438   8.1487   8.1488   8.1641   8.1641
     8.4579   8.4580   8.5654   8.5655   8.6187   8.6187   8.7137   8.7137
     9.2565   9.2565   9.2771   9.2771   9.4152   9.4152   9.4664   9.4664
     9.5222   9.5222   9.6969   9.6969   9.7496   9.7496   9.8261   9.8262
     9.8392   9.8393   9.8451   9.8452   9.9991   9.9991  10.1070  10.1070
    13.1072  13.1072  13.4881  13.4881  13.5057  13.5058  13.5933  13.5933
    13.7997  13.7997  13.9250  13.9250  14.0920  14.0921  14.2930  14.2930
    14.4000  14.4000  14.4571  14.4572  14.5546  14.5546  14.6692  14.6692
    15.2781  15.2781  15.4109  15.4109  16.2860  16.2861  16.4433  16.4434
    16.9059  16.9059  17.0480  17.0480  17.0561  17.0563  17.3993  17.3994

          k = 0.3333-0.5000 0.1649 (  9648 PWs)   bands (ev):

   -46.5191 -46.5191 -46.5181 -46.5181 -46.5174 -46.5174 -46.5173 -46.5173
   -22.8033 -22.8033 -22.8029 -22.8029 -22.7676 -22.7676 -22.7662 -22.7662
   -22.7452 -22.7452 -22.7447 -22.7447 -22.7338 -22.7338 -22.7336 -22.7336
   -22.7322 -22.7322 -22.7320 -22.7320 -22.7220 -22.7220 -22.7191 -22.7191
   -14.2552 -14.2552 -14.2045 -14.2045 -14.1793 -14.1793 -14.1406 -14.1406
    -6.7712  -6.7712  -6.7216  -6.7215  -6.5776  -6.5775  -6.3293  -6.3292
    -6.0921  -6.0921  -6.0636  -6.0636  -6.0628  -6.0628  -6.0440  -6.0439
    -6.0212  -6.0211  -5.9797  -5.9796  -5.9766  -5.9766  -5.9348  -5.9348
     0.0917   0.0917   0.2108   0.2109   0.3011   0.3011   0.4065   0.4065
     0.4487   0.4487   0.4655   0.4656   0.5237   0.5237   0.5251   0.5251
     0.5395   0.5395   0.7573   0.7573   0.7973   0.7973   0.8027   0.8027
     6.3489   6.3489   6.4231   6.4231   6.6189   6.6189   6.8227   6.8227
     6.9541   6.9541   7.0492   7.0493   7.1319   7.1320   7.1708   7.1709
     7.3566   7.3567   7.3928   7.3929   7.4124   7.4124   7.5796   7.5796
     7.6386   7.6386   7.8346   7.8346   7.8446   7.8447   7.9737   7.9737
     8.0320   8.0320   8.1179   8.1179   8.1209   8.1209   8.2013   8.2014
     8.3552   8.3553   8.5378   8.5378   8.5559   8.5559   8.6936   8.6936
     9.3340   9.3340   9.3407   9.3408   9.4113   9.4114   9.4431   9.4431
     9.5683   9.5683   9.6592   9.6592   9.7115   9.7115   9.8339   9.8339
     9.8380   9.8380   9.8382   9.8382   9.9750   9.9751  10.0742  10.0742
    13.1862  13.1862  13.5497  13.5497  13.5637  13.5637  13.6212  13.6212
    13.7595  13.7595  13.9632  13.9632  14.1195  14.1195  14.2789  14.2789
    14.3021  14.3021  14.3670  14.3670  14.4689  14.4690  14.5779  14.5779
    15.4521  15.4521  15.6413  15.6414  16.2682  16.2682  16.4650  16.4651
    16.9912  16.9912  17.0806  17.0807  17.1145  17.1145  17.3930  17.3931

          k = 0.3333-0.5000 0.3297 (  9648 PWs)   bands (ev):

   -46.5188 -46.5188 -46.5180 -46.5180 -46.5178 -46.5178 -46.5176 -46.5176
   -22.7956 -22.7956 -22.7954 -22.7954 -22.7744 -22.7744 -22.7738 -22.7738
   -22.7455 -22.7455 -22.7450 -22.7450 -22.7343 -22.7343 -22.7331 -22.7331
   -22.7327 -22.7327 -22.7323 -22.7323 -22.7215 -22.7215 -22.7200 -22.7200
   -14.2394 -14.2394 -14.1956 -14.1956 -14.1912 -14.1912 -14.1543 -14.1543
    -6.7105  -6.7105  -6.6398  -6.6397  -6.5928  -6.5928  -6.4114  -6.4113
    -6.1034  -6.1034  -6.0966  -6.0966  -6.0575  -6.0575  -6.0386  -6.0385
    -6.0178  -6.0177  -5.9902  -5.9902  -5.9787  -5.9787  -5.9493  -5.9493
     0.1583   0.1583   0.2038   0.2038   0.3318   0.3318   0.3318   0.3318
     0.3901   0.3901   0.4116   0.4116   0.4202   0.4202   0.4375   0.4375
     0.6584   0.6584   0.8316   0.8316   0.8382   0.8382   0.8664   0.8664
     6.4793   6.4794   6.5793   6.5793   6.6093   6.6093   6.9192   6.9192
     6.9431   6.9432   7.0617   7.0617   7.1348   7.1349   7.1528   7.1529
     7.3951   7.3951   7.4243   7.4243   7.4838   7.4838   7.5156   7.5157
     7.6861   7.6861   7.7758   7.7758   7.8103   7.8103   7.9875   7.9876
     8.0520   8.0521   8.0724   8.0724   8.0734   8.0734   8.1696   8.1697
     8.2068   8.2068   8.3103   8.3103   8.4599   8.4599   8.5231   8.5232
     9.4281   9.4281   9.4637   9.4637   9.4729   9.4729   9.5490   9.5490
     9.6346   9.6346   9.6460   9.6461   9.6483   9.6484   9.7787   9.7787
     9.8133   9.8133   9.8149   9.8149   9.9421   9.9421   9.9866   9.9866
    13.4247  13.4247  13.6330  13.6330  13.7022  13.7022  13.7175  13.7175
    13.7580  13.7581  14.0576  14.0576  14.0674  14.0674  14.1554  14.1554
    14.1694  14.1694  14.2174  14.2174  14.2878  14.2878  14.4029  14.4029
    15.8925  15.8925  16.1582  16.1583  16.2555  16.2555  16.5197  16.5198
    17.0511  17.0513  17.2032  17.2032  17.2736  17.2737  17.3954  17.3955

          k = 0.3333-0.5000-0.4946 (  9676 PWs)   bands (ev):

   -46.5188 -46.5188 -46.5187 -46.5187 -46.5180 -46.5180 -46.5179 -46.5179
   -22.7860 -22.7860 -22.7858 -22.7858 -22.7845 -22.7845 -22.7843 -22.7843
   -22.7461 -22.7461 -22.7461 -22.7461 -22.7340 -22.7340 -22.7340 -22.7340
   -22.7328 -22.7328 -22.7327 -22.7327 -22.7219 -22.7219 -22.7219 -22.7219
   -14.2177 -14.2176 -14.2176 -14.2176 -14.1729 -14.1729 -14.1728 -14.1728
    -6.6402  -6.6402  -6.6401  -6.6401  -6.5262  -6.5261  -6.5261  -6.5260
    -6.1121  -6.1121  -6.1120  -6.1120  -6.0447  -6.0446  -6.0446  -6.0445
    -6.0054  -6.0053  -6.0053  -6.0053  -5.9682  -5.9682  -5.9681  -5.9681
     0.2390   0.2390   0.2390   0.2390   0.2716   0.2716   0.2716   0.2716
     0.3732   0.3732   0.3732   0.3732   0.4002   0.4002   0.4002   0.4003
     0.7758   0.7758   0.7758   0.7758   0.8818   0.8818   0.8818   0.8819
     6.5368   6.5368   6.5368   6.5369   6.7918   6.7919   6.7919   6.7919
     7.0657   7.0657   7.0657   7.0657   7.2789   7.2789   7.2790   7.2791
     7.2890   7.2890   7.2891   7.2892   7.5300   7.5300   7.5300   7.5300
     7.6563   7.6563   7.6563   7.6563   7.9700   7.9700   7.9700   7.9700
     8.0063   8.0064   8.0064   8.0064   8.0941   8.0941   8.0941   8.0941
     8.1405   8.1405   8.1406   8.1406   8.4055   8.4055   8.4055   8.4055
     9.5006   9.5006   9.5006   9.5006   9.5526   9.5526   9.5527   9.5527
     9.6630   9.6631   9.6631   9.6631   9.7299   9.7299   9.7299   9.7299
     9.7506   9.7507   9.7507   9.7507   9.9076   9.9077   9.9078   9.9078
    13.6390  13.6390  13.6390  13.6390  13.7498  13.7498  13.7499  13.7499
    13.9009  13.9009  13.9009  13.9010  13.9948  13.9948  13.9949  13.9949
    14.1771  14.1772  14.1772  14.1772  14.2341  14.2341  14.2342  14.2342
    16.1843  16.1843  16.1844  16.1844  16.7615  16.7616  16.7617  16.7618
    16.8206  16.8207  16.8208  16.8209  17.3924  17.3925  17.3925  17.3925

          k =-0.5000-0.5000 0.0000 (  9644 PWs)   bands (ev):

   -46.5180 -46.5180 -46.5180 -46.5180 -46.5178 -46.5178 -46.5178 -46.5178
   -22.8069 -22.8069 -22.8069 -22.8069 -22.7617 -22.7617 -22.7617 -22.7617
   -22.7347 -22.7347 -22.7347 -22.7347 -22.7334 -22.7334 -22.7334 -22.7334
   -22.7325 -22.7325 -22.7325 -22.7325 -22.7315 -22.7315 -22.7315 -22.7315
   -14.2354 -14.2353 -14.2353 -14.2353 -14.1545 -14.1545 -14.1545 -14.1545
    -6.7608  -6.7608  -6.7608  -6.7607  -6.4438  -6.4437  -6.4437  -6.4436
    -6.0536  -6.0536  -6.0536  -6.0536  -6.0402  -6.0402  -6.0402  -6.0401
    -6.0386  -6.0386  -6.0386  -6.0385  -5.9506  -5.9506  -5.9506  -5.9505
     0.1536   0.1536   0.1536   0.1536   0.3699   0.3700   0.3700   0.3700
     0.4289   0.4289   0.4289   0.4290   0.5987   0.5987   0.5987   0.5987
     0.6379   0.6380   0.6380   0.6380   0.7368   0.7368   0.7368   0.7368
     6.3158   6.3158   6.3158   6.3158   6.9224   6.9225   6.9225   6.9226
     6.9363   6.9363   6.9363   6.9364   7.2743   7.2744   7.2744   7.2744
     7.3439   7.3439   7.3439   7.3440   7.3734   7.3735   7.3735   7.3735
     7.7703   7.7704   7.7704   7.7704   7.9460   7.9460   7.9460   7.9460
     7.9950   7.9951   7.9951   7.9951   8.2708   8.2709   8.2709   8.2709
     8.2971   8.2971   8.2971   8.2972   8.5887   8.5887   8.5887   8.5887
     9.3368   9.3368   9.3368   9.3368   9.5649   9.5650   9.5650   9.5650
     9.5776   9.5776   9.5776   9.5776   9.7952   9.7953   9.7953   9.7953
     9.8469   9.8469   9.8469   9.8469   9.9656   9.9657   9.9657   9.9657
    13.4252  13.4252  13.4252  13.4252  13.6561  13.6561  13.6561  13.6561
    13.8222  13.8222  13.8222  13.8223  14.0398  14.0398  14.0398  14.0398
    14.4818  14.4818  14.4818  14.4819  14.4915  14.4915  14.4915  14.4915
    15.4062  15.4062  15.4062  15.4063  16.8050  16.8051  16.8051  16.8052
    16.9275  16.9275  16.9275  16.9276  17.2592  17.2592  17.2592  17.2593

          k =-0.5000-0.5000 0.1649 (  9652 PWs)   bands (ev):

   -46.5184 -46.5184 -46.5184 -46.5184 -46.5176 -46.5176 -46.5176 -46.5176
   -22.8028 -22.8028 -22.8028 -22.8028 -22.7659 -22.7659 -22.7659 -22.7659
   -22.7342 -22.7342 -22.7342 -22.7342 -22.7338 -22.7338 -22.7338 -22.7338
   -22.7337 -22.7337 -22.7337 -22.7337 -22.7316 -22.7316 -22.7316 -22.7316
   -14.2300 -14.2300 -14.2300 -14.2300 -14.1601 -14.1600 -14.1600 -14.1600
    -6.7344  -6.7343  -6.7343  -6.7343  -6.4539  -6.4538  -6.4538  -6.4537
    -6.0651  -6.0651  -6.0651  -6.0651  -6.0465  -6.0465  -6.0465  -6.0464
    -6.0345  -6.0344  -6.0344  -6.0343  -5.9566  -5.9566  -5.9566  -5.9565
     0.1724   0.1724   0.1724   0.1724   0.3331   0.3331   0.3331   0.3331
     0.4105   0.4105   0.4105   0.4106   0.5309   0.5309   0.5309   0.5309
     0.6648   0.6648   0.6648   0.6648   0.8192   0.8192   0.8192   0.8192
     6.4025   6.4026   6.4026   6.4026   6.8660   6.8661   6.8661   6.8662
     6.9446   6.9446   6.9446   6.9446   7.2771   7.2772   7.2772   7.2772
     7.3465   7.3466   7.3466   7.3467   7.4325   7.4326   7.4326   7.4326
     7.6725   7.6725   7.6725   7.6726   7.9745   7.9746   7.9746   7.9746
     8.0076   8.0076   8.0076   8.0076   8.2414   8.2414   8.2414   8.2414
     8.2560   8.2560   8.2560   8.2561   8.5215   8.5215   8.5215   8.5215
     9.4043   9.4043   9.4043   9.4043   9.5187   9.5187   9.5187   9.5187
     9.5928   9.5928   9.5928   9.5929   9.7792   9.7793   9.7793   9.7793
     9.8626   9.8626   9.8626   9.8627   9.9443   9.9444   9.9444   9.9444
    13.4687  13.4687  13.4687  13.4687  13.6565  13.6565  13.6565  13.6565
    13.8360  13.8360  13.8360  13.8360  14.0275  14.0275  14.0275  14.0275
    14.4149  14.4149  14.4149  14.4149  14.4150  14.4150  14.4150  14.4150
    15.6206  15.6207  15.6207  15.6207  16.8152  16.8153  16.8153  16.8153
    16.9443  16.9443  16.9444  16.9444  17.3320  17.3321  17.6229  17.6238

          k =-0.5000-0.5000 0.3297 (  9628 PWs)   bands (ev):

   -46.5186 -46.5186 -46.5186 -46.5186 -46.5171 -46.5171 -46.5171 -46.5171
   -22.7949 -22.7949 -22.7949 -22.7949 -22.7747 -22.7747 -22.7747 -22.7747
   -22.7344 -22.7344 -22.7344 -22.7344 -22.7336 -22.7336 -22.7336 -22.7336
   -22.7315 -22.7315 -22.7315 -22.7315 -22.7307 -22.7307 -22.7307 -22.7306
   -14.2155 -14.2154 -14.2154 -14.2154 -14.1751 -14.1750 -14.1750 -14.1750
    -6.6631  -6.6631  -6.6631  -6.6630  -6.4938  -6.4937  -6.4937  -6.4936
    -6.0830  -6.0829  -6.0829  -6.0829  -6.0650  -6.0650  -6.0650  -6.0650
    -6.0185  -6.0184  -6.0184  -6.0183  -5.9730  -5.9729  -5.9729  -5.9728
     0.2233   0.2233   0.2233   0.2233   0.2990   0.2990   0.2990   0.2990
     0.3599   0.3599   0.3599   0.3600   0.4030   0.4031   0.4031   0.4031
     0.7783   0.7783   0.7783   0.7783   0.8781   0.8781   0.8781   0.8781
     6.5796   6.5796   6.5796   6.5796   6.7786   6.7787   6.7787   6.7787
     7.0401   7.0401   7.0401   7.0401   7.3145   7.3146   7.3146   7.3146
     7.3318   7.3319   7.3319   7.3320   7.5089   7.5089   7.5089   7.5089
     7.6540   7.6541   7.6541   7.6541   8.0096   8.0097   8.0097   8.0097
     8.0472   8.0472   8.0472   8.0472   8.1522   8.1523   8.1523   8.1523
     8.1672   8.1672   8.1672   8.1673   8.2660   8.2660   8.2660   8.2660
     9.5425   9.5425   9.5425   9.5426   9.5456   9.5456   9.5456   9.5456
     9.6466   9.6466   9.6466   9.6466   9.7350   9.7351   9.7351   9.7351
     9.8504   9.8505   9.8505   9.8505   9.8625   9.8625   9.8625   9.8626
    13.6564  13.6564  13.6564  13.6564  13.7596  13.7596  13.7596  13.7597
    13.8747  13.8747  13.8747  13.8747  14.0043  14.0043  14.0043  14.0043
    14.2266  14.2266  14.2266  14.2266  14.2454  14.2454  14.2454  14.2454
    16.1453  16.1454  16.1454  16.1454  16.8762  16.8763  16.8763  16.8764
    16.9163  16.9164  16.9164  16.9165  17.3186  17.3187  17.3187  17.3187

          k =-0.5000-0.5000-0.4946 (  9640 PWs)   bands (ev):

   -46.5180 -46.5180 -46.5180 -46.5180 -46.5179 -46.5179 -46.5179 -46.5179
   -22.7849 -22.7849 -22.7849 -22.7849 -22.7847 -22.7847 -22.7847 -22.7847
   -22.7328 -22.7328 -22.7328 -22.7328 -22.7327 -22.7327 -22.7327 -22.7327
   -22.7327 -22.7327 -22.7327 -22.7327 -22.7327 -22.7327 -22.7327 -22.7327
   -14.1954 -14.1954 -14.1954 -14.1954 -14.1953 -14.1953 -14.1953 -14.1953
    -6.5713  -6.5713  -6.5713  -6.5713  -6.5712  -6.5712  -6.5712  -6.5711
    -6.0825  -6.0825  -6.0825  -6.0825  -6.0824  -6.0824  -6.0824  -6.0824
    -5.9962  -5.9961  -5.9961  -5.9961  -5.9960  -5.9960  -5.9960  -5.9960
     0.2915   0.2915   0.2915   0.2915   0.2916   0.2916   0.2916   0.2916
     0.3201   0.3202   0.3202   0.3202   0.3203   0.3203   0.3203   0.3203
     0.8616   0.8616   0.8616   0.8617   0.8617   0.8617   0.8617   0.8617
     6.6919   6.6919   6.6919   6.6920   6.6920   6.6920   6.6920   6.6920
     7.2815   7.2815   7.2815   7.2815   7.2817   7.2817   7.2817   7.2817
     7.3167   7.3167   7.3168   7.3168   7.3168   7.3168   7.3168   7.3169
     7.9163   7.9163   7.9163   7.9163   7.9164   7.9164   7.9164   7.9164
     8.0787   8.0787   8.0787   8.0787   8.0787   8.0788   8.0788   8.0788
     8.0814   8.0815   8.0815   8.0815   8.0815   8.0815   8.0815   8.0816
     9.6414   9.6414   9.6414   9.6414   9.6414   9.6414   9.6414   9.6414
     9.6459   9.6459   9.6459   9.6459   9.6460   9.6460   9.6460   9.6460
     9.8290   9.8290   9.8290   9.8291   9.8291   9.8291   9.8291   9.8292
    13.8759  13.8759  13.8759  13.8760  13.8760  13.8760  13.8760  13.8760
    13.9627  13.9627  13.9627  13.9628  13.9628  13.9628  13.9628  13.9628
    13.9888  13.9888  13.9888  13.9888  13.9888  13.9888  13.9888  13.9888
    16.7779  16.7779  16.7779  16.7779  16.7782  16.7782  16.7782  16.7782
    16.9060  16.9060  16.9061  16.9061  16.9061  16.9061  16.9062  16.9062

     highest occupied, lowest unoccupied level (ev):    10.5471   12.4390

!    total energy              =   -5961.37861138 Ry
     total all-electron energy =   -147445.832184 Ry
     estimated scf accuracy    <          7.7E-11 Ry

     The total energy is the sum of the following terms:
     one-electron contribution =    -543.61256836 Ry
     hartree contribution      =     479.01651569 Ry
     xc contribution           =    -490.54916128 Ry
     ewald contribution        =   -1653.96634398 Ry
     one-center paw contrib.   =   -3752.26705345 Ry

     convergence has been achieved in   4 iterations

     Forces acting on atoms (cartesian axes, Ry/au):

     atom    1 type  1   force =     0.00000000    0.00000000   -0.00059367
     atom    2 type  1   force =     0.00000000    0.00000000   -0.00056533
     atom    3 type  1   force =     0.00000000    0.00000000   -0.00058253
     atom    4 type  1   force =     0.00000000    0.00000000   -0.00057147
     atom    5 type  1   force =     0.00000000    0.00000000   -0.00058253
     atom    6 type  1   force =     0.00000000    0.00000000   -0.00057147
     atom    7 type  1   force =     0.00000000    0.00000000   -0.00059878
     atom    8 type  1   force =     0.00000000    0.00000000   -0.00056267
     atom    9 type  2   force =     0.00005198    0.00005198    0.04324367
     atom   10 type  2   force =     0.00004170    0.00004170    0.04338593
     atom   11 type  2   force =     0.00005198   -0.00005198    0.04324367
     atom   12 type  2   force =     0.00004170   -0.00004170    0.04338593
     atom   13 type  2   force =    -0.00005198    0.00005198    0.04324367
     atom   14 type  2   force =    -0.00004170    0.00004170    0.04338593
     atom   15 type  2   force =    -0.00005198   -0.00005198    0.04324367
     atom   16 type  2   force =    -0.00004170   -0.00004170    0.04338593
     atom   17 type  3   force =     0.00000014    0.00000014   -0.04660161
     atom   18 type  3   force =    -0.00000118   -0.00000118   -0.04662491
     atom   19 type  3   force =     0.00000014   -0.00000014   -0.04660161
     atom   20 type  3   force =    -0.00000118    0.00000118   -0.04662491
     atom   21 type  3   force =    -0.00000014    0.00000014   -0.04660161
     atom   22 type  3   force =     0.00000118   -0.00000118   -0.04662491
     atom   23 type  3   force =    -0.00000014   -0.00000014   -0.04660161
     atom   24 type  3   force =     0.00000118    0.00000118   -0.04662491
     atom   25 type  3   force =     0.00000081    0.00000000    0.00192944
     atom   26 type  3   force =    -0.00000563    0.00000000    0.00193646
     atom   27 type  3   force =     0.00000357    0.00000000    0.00193794
     atom   28 type  3   force =     0.00000364    0.00000000    0.00195019
     atom   29 type  3   force =    -0.00000081    0.00000000    0.00192944
     atom   30 type  3   force =     0.00000563    0.00000000    0.00193646
     atom   31 type  3   force =    -0.00000357    0.00000000    0.00193794
     atom   32 type  3   force =    -0.00000364    0.00000000    0.00195019
     atom   33 type  3   force =     0.00000000    0.00000081    0.00192944
     atom   34 type  3   force =     0.00000000   -0.00000563    0.00193646
     atom   35 type  3   force =     0.00000000   -0.00000081    0.00192944
     atom   36 type  3   force =     0.00000000    0.00000563    0.00193646
     atom   37 type  3   force =    -0.00000000    0.00000357    0.00193794
     atom   38 type  3   force =     0.00000000    0.00000364    0.00195019
     atom   39 type  3   force =     0.00000000   -0.00000357    0.00193794
     atom   40 type  3   force =     0.00000000   -0.00000364    0.00195019

     Total force =     0.180152     Total SCF correction =     0.000005


     Computing stress (Cartesian axis) and pressure

          total   stress  (Ry/bohr**3)                   (kbar)     P=     -799.60
  -0.00541744   0.00000000   0.00000000         -796.93        0.00        0.00
   0.00000000  -0.00541744   0.00000000            0.00     -796.93        0.00
   0.00000000   0.00000000  -0.00547180            0.00        0.00     -804.93


     Writing all to output data dir ./tmp/30_ecut_6_kmesh_PBE.save/ :
     XML data file, charge density, pseudopotentials, collected wavefunctions

     init_run     :      0.99s CPU      1.70s WALL (       1 calls)
     electrons    :      6.49s CPU      6.84s WALL (       1 calls)
     forces       :      0.28s CPU      0.32s WALL (       1 calls)
     stress       :      0.74s CPU      0.79s WALL (       1 calls)

     Called by init_run:
     wfcinit      :      0.50s CPU      1.05s WALL (       1 calls)
     potinit      :      0.23s CPU      0.28s WALL (       1 calls)
     hinit0       :      0.15s CPU      0.25s WALL (       1 calls)

     Called by electrons:
     c_bands      :      5.34s CPU      5.60s WALL (       5 calls)
     sum_band     :      0.65s CPU      0.68s WALL (       5 calls)
     v_of_rho     :      0.03s CPU      0.05s WALL (       5 calls)
     newd         :      0.03s CPU      0.04s WALL (       5 calls)
     PAW_pot      :      0.23s CPU      0.24s WALL (       5 calls)
     mix_rho      :      0.00s CPU      0.00s WALL (       5 calls)

     Called by c_bands:
     init_us_2    :      0.06s CPU      0.06s WALL (      60 calls)
     cegterg      :      4.89s CPU      5.14s WALL (      25 calls)

     Called by *egterg:
     cdiaghg      :      1.32s CPU      1.45s WALL (      67 calls)
     h_psi        :      2.34s CPU      2.42s WALL (      77 calls)
     s_psi        :      0.28s CPU      0.28s WALL (      77 calls)
     g_psi        :      0.00s CPU      0.00s WALL (      52 calls)

     Called by h_psi:
     h_psi:calbec :      0.47s CPU      0.51s WALL (      77 calls)
     vloc_psi     :      1.57s CPU      1.61s WALL (      77 calls)
                                        0.00s GPU  (      77 calls)
     add_vuspsi   :      0.28s CPU      0.29s WALL (      77 calls)

     General routines
     calbec       :      1.46s CPU      1.60s WALL (     187 calls)
     fft          :      0.15s CPU      0.18s WALL (      89 calls)
     ffts         :      0.16s CPU      0.16s WALL (      10 calls)
     fftw         :      1.84s CPU      1.88s WALL (   27088 calls)
     interpolate  :      0.16s CPU      0.16s WALL (       5 calls)

     Parallel routines

     PWSCF        :      9.80s CPU     12.62s WALL


   This run was terminated on:   0:12:27  21May2026            

=------------------------------------------------------------------------------=
   JOB DONE.
=------------------------------------------------------------------------------=
