
     Program PWSCF v.7.5 starts on 21May2026 at  0:12:45 

     This program is part of the open-source Quantum ESPRESSO suite
     for quantum simulation of materials; please cite
         "P. Giannozzi et al., J. Phys.:Condens. Matter 21 395502 (2009);
         "P. Giannozzi et al., J. Phys.:Condens. Matter 29 465901 (2017);
         "P. Giannozzi et al., J. Chem. Phys. 152 154105 (2020);
          URL http://www.quantum-espresso.org", 
     in publications or presentations arising from this work. More details at
     http://www.quantum-espresso.org/quote

     Parallel version (MPI & OpenMP), running on     192 processor cores
     Number of MPI processes:               192
     Threads/MPI process:                     1

     MPI processes distributed on     1 nodes
     340782 MiB available memory on the printing compute node when the environment starts

     Waiting for input...
     Reading input from standard input

     Current dimensions of program PWSCF are:
     Max number of different atomic species (ntypx) = 10
     Max number of k-points (npk) =  40000
     Max angular momentum in pseudopotentials (lmaxx) =  4
     file Ba.pbe-spn-kjpaw_psl.1.0.0.UPF: wavefunction(s)  5S 6S renormalized
     file Ti.pbe-spn-kjpaw_psl.1.0.0.UPF: wavefunction(s)  3S 3P 3D renormalized
     file O.pbe-n-kjpaw_psl.1.0.0.UPF: wavefunction(s)  2S 2P renormalized

     IMPORTANT: XC functional enforced from input :
     Exchange-correlation= PBE
                           (   1   4   3   4   0   0   0)
     Any further DFT definition will be discarded
     Please, verify this is what you really want

     Found identity + ( -0.5000 -0.5000  0.0000) symmetry
     This is a supercell, fractional translations are disabled

     K-points division:     npool     =       8
     R & G space division:  proc/nbgrp/npool/nimage =      24
     Subspace diagonalization in iterative solution of the eigenvalue problem:
     one sub-group per band group will be used
     ELPA distributed-memory algorithm (size of sub-group:  2*  2 procs)


     Parallelization info
     --------------------
     sticks:   dense  smooth     PW     G-vecs:    dense   smooth      PW
     Min         240     120     33                13981     4944     727
     Max         242     122     34                13987     4947     732
     Sum        5785    2893    805               335575   118681   17493

     Using Slab Decomposition



     bravais-lattice index     =            6
     lattice parameter (alat)  =      15.0876  a.u.
     unit-cell volume          =    3472.3239 (a.u.)^3
     number of atoms/cell      =           40
     number of atomic types    =            3
     number of electrons       =       320.00
     number of Kohn-Sham states=          200
     kinetic-energy cutoff     =      40.0000  Ry
     charge density cutoff     =     320.0000  Ry
     scf convergence threshold =      1.0E-10
     mixing beta               =       0.3000
     number of iterations used =           16  plain     mixing
     Exchange-correlation= PBE
                           (   1   4   3   4   0   0   0)

     celldm(1)=  15.087600  celldm(2)=   0.000000  celldm(3)=   1.011020
     celldm(4)=   0.000000  celldm(5)=   0.000000  celldm(6)=   0.000000

     crystal axes: (cart. coord. in units of alat)
               a(1) = (   1.000000   0.000000   0.000000 )  
               a(2) = (   0.000000   1.000000   0.000000 )  
               a(3) = (   0.000000   0.000000   1.011020 )  

     reciprocal axes: (cart. coord. in units 2 pi/alat)
               b(1) = (  1.000000  0.000000  0.000000 )  
               b(2) = (  0.000000  1.000000  0.000000 )  
               b(3) = (  0.000000  0.000000  0.989100 )  


     PseudoPot. # 1 for Ba read from file:
     /home/kylay/scratch/BTO/pseuds/Ba.pbe-spn-kjpaw_psl.1.0.0.UPF
     MD5 check sum: 7cfe25f1fe7574a4710541d5a11d6531
     Pseudo is Projector augmented-wave + core cor, Zval = 10.0
     Generated using &quot;atomic&quot; code by A. Dal Corso  v.6.2.2
     Shape of augmentation charge: PSQ
     Using radial grid of 1251 points,  7 beta functions with: 
                l(1) =   0
                l(2) =   0
                l(3) =   0
                l(4) =   1
                l(5) =   1
                l(6) =   2
                l(7) =   2
     Q(r) pseudized with 0 coefficients 


     PseudoPot. # 2 for Ti read from file:
     /home/kylay/scratch/BTO/pseuds/Ti.pbe-spn-kjpaw_psl.1.0.0.UPF
     MD5 check sum: 01f69b0d8ba4438b2e03ac6ea4af1c0b
     Pseudo is Projector augmented-wave + core cor, Zval = 12.0
     Generated using &quot;atomic&quot; code by A. Dal Corso  v.6.2.2
     Shape of augmentation charge: PSQ
     Using radial grid of 1177 points,  6 beta functions with: 
                l(1) =   0
                l(2) =   0
                l(3) =   1
                l(4) =   1
                l(5) =   2
                l(6) =   2
     Q(r) pseudized with 0 coefficients 


     PseudoPot. # 3 for O  read from file:
     /home/kylay/scratch/BTO/pseuds/O.pbe-n-kjpaw_psl.1.0.0.UPF
     MD5 check sum: e99d9cef9b487d1ca56f5b95ecd0fd7a
     Pseudo is Projector augmented-wave + core cor, Zval =  6.0
     Generated using &quot;atomic&quot; code by A. Dal Corso  v.6.3
     Shape of augmentation charge: PSQ
     Using radial grid of 1095 points,  4 beta functions with: 
                l(1) =   0
                l(2) =   0
                l(3) =   1
                l(4) =   1
     Q(r) pseudized with 0 coefficients 


     atomic species   valence    mass     pseudopotential
     Ba               10.00   137.32700     Ba( 1.00)
     Ti               12.00    47.86700     Ti( 1.00)
     O                 6.00    15.99900     O ( 1.00)

      8 Sym. Ops. (no inversion) found



   Cartesian axes

     site n.     atom                  positions (alat units)
         1        Ba     tau(   1) = (   0.0000000   0.0000000  -0.0010787  )
         2        Ba     tau(   2) = (   0.0000000   0.0000000   0.5044220  )
         3        Ba     tau(   3) = (   0.0000000   0.5000000  -0.0010832  )
         4        Ba     tau(   4) = (   0.0000000   0.5000000   0.5044235  )
         5        Ba     tau(   5) = (   0.5000000   0.0000000  -0.0010832  )
         6        Ba     tau(   6) = (   0.5000000   0.0000000   0.5044235  )
         7        Ba     tau(   7) = (   0.5000000   0.5000000  -0.0010766  )
         8        Ba     tau(   8) = (   0.5000000   0.5000000   0.5044202  )
         9        Ti     tau(   9) = (   0.2500002   0.2500002   0.2436990  )
        10        Ti     tau(  10) = (   0.2500007   0.2500007   0.7492042  )
        11        Ti     tau(  11) = (   0.2500002   0.7499998   0.2436990  )
        12        Ti     tau(  12) = (   0.2500007   0.7499993   0.7492042  )
        13        Ti     tau(  13) = (   0.7499998   0.2500002   0.2436990  )
        14        Ti     tau(  14) = (   0.7499993   0.2500007   0.7492042  )
        15        Ti     tau(  15) = (   0.7499998   0.7499998   0.2436990  )
        16        Ti     tau(  16) = (   0.7499993   0.7499993   0.7492042  )
        17        O      tau(  17) = (   0.2500011   0.2500011   0.0113903  )
        18        O      tau(  18) = (   0.2500007   0.2500007   0.5168954  )
        19        O      tau(  19) = (   0.2500011   0.7499989   0.0113903  )
        20        O      tau(  20) = (   0.2500007   0.7499993   0.5168954  )
        21        O      tau(  21) = (   0.7499989   0.2500011   0.0113903  )
        22        O      tau(  22) = (   0.7499993   0.2500007   0.5168954  )
        23        O      tau(  23) = (   0.7499989   0.7499989   0.0113903  )
        24        O      tau(  24) = (   0.7499993   0.7499993   0.5168954  )
        25        O      tau(  25) = (   0.2500005   0.0000000   0.2592128  )
        26        O      tau(  26) = (   0.2500020   0.0000000   0.7647195  )
        27        O      tau(  27) = (   0.2499999   0.5000000   0.2592107  )
        28        O      tau(  28) = (   0.2499998   0.5000000   0.7647148  )
        29        O      tau(  29) = (   0.7499995   0.0000000   0.2592128  )
        30        O      tau(  30) = (   0.7499980   0.0000000   0.7647195  )
        31        O      tau(  31) = (   0.7500001   0.5000000   0.2592107  )
        32        O      tau(  32) = (   0.7500002   0.5000000   0.7647148  )
        33        O      tau(  33) = (   0.0000000   0.2500005   0.2592128  )
        34        O      tau(  34) = (   0.0000000   0.2500020   0.7647195  )
        35        O      tau(  35) = (   0.0000000   0.7499995   0.2592128  )
        36        O      tau(  36) = (   0.0000000   0.7499980   0.7647195  )
        37        O      tau(  37) = (   0.5000000   0.2499999   0.2592107  )
        38        O      tau(  38) = (   0.5000000   0.2499998   0.7647148  )
        39        O      tau(  39) = (   0.5000000   0.7500001   0.2592107  )
        40        O      tau(  40) = (   0.5000000   0.7500002   0.7647148  )

     number of k points=    18
                       cart. coord. in units 2pi/alat
        k(    1) = (   0.0000000   0.0000000   0.0000000), wk =   0.0312500
        k(    2) = (   0.0000000   0.0000000   0.2472750), wk =   0.0625000
        k(    3) = (   0.0000000   0.0000000  -0.4945501), wk =   0.0312500
        k(    4) = (   0.0000000   0.2500000   0.0000000), wk =   0.1250000
        k(    5) = (   0.0000000   0.2500000   0.2472750), wk =   0.2500000
        k(    6) = (   0.0000000   0.2500000  -0.4945501), wk =   0.1250000
        k(    7) = (   0.0000000  -0.5000000   0.0000000), wk =   0.0625000
        k(    8) = (   0.0000000  -0.5000000   0.2472750), wk =   0.1250000
        k(    9) = (   0.0000000  -0.5000000  -0.4945501), wk =   0.0625000
        k(   10) = (   0.2500000   0.2500000   0.0000000), wk =   0.1250000
        k(   11) = (   0.2500000   0.2500000   0.2472750), wk =   0.2500000
        k(   12) = (   0.2500000   0.2500000  -0.4945501), wk =   0.1250000
        k(   13) = (   0.2500000  -0.5000000   0.0000000), wk =   0.1250000
        k(   14) = (   0.2500000  -0.5000000   0.2472750), wk =   0.2500000
        k(   15) = (   0.2500000  -0.5000000  -0.4945501), wk =   0.1250000
        k(   16) = (  -0.5000000  -0.5000000   0.0000000), wk =   0.0312500
        k(   17) = (  -0.5000000  -0.5000000   0.2472750), wk =   0.0625000
        k(   18) = (  -0.5000000  -0.5000000  -0.4945501), wk =   0.0312500

     Dense  grid:   335575 G-vectors     FFT dimensions: (  90,  90,  90)

     Smooth grid:   118681 G-vectors     FFT dimensions: (  64,  64,  64)

     Estimated max dynamical RAM per process >      44.76 MB

     Estimated total dynamical RAM >       7.27 GB

     Check: negative core charge=   -0.000007

     The initial density is read from file :
     ./tmp/40_ecut_4_kmesh_PBE.save/charge-density

     Starting wfcs from file
     Checking if some PAW data can be deallocated... 

     total cpu time spent up to now is        3.3 secs

     per-process dynamical memory:   106.6 Mb

     Self-consistent Calculation

     iteration #  1     ecut=    40.00 Ry     beta= 0.30
     Davidson diagonalization with overlap
     ethr =  1.00E-05,  avg # of iterations =  1.1

     Threshold (ethr) on eigenvalues was too large:
     Diagonalizing with lowered threshold

     Davidson diagonalization with overlap
     ethr =  8.48E-13,  avg # of iterations =  2.3

     total cpu time spent up to now is        5.4 secs

     total energy              =   -5964.46992236 Ry
     estimated scf accuracy    <          3.6E-09 Ry

     iteration #  2     ecut=    40.00 Ry     beta= 0.30
     Davidson diagonalization with overlap
     ethr =  1.13E-12,  avg # of iterations =  3.2

     total cpu time spent up to now is        6.4 secs

     total energy              =   -5964.46992236 Ry
     estimated scf accuracy    <          7.3E-10 Ry

     iteration #  3     ecut=    40.00 Ry     beta= 0.30
     Davidson diagonalization with overlap
     ethr =  2.29E-13,  avg # of iterations =  3.4

     total cpu time spent up to now is        7.4 secs

     End of self-consistent calculation

          k = 0.0000 0.0000 0.0000 ( 14883 PWs)   bands (ev):

   -46.1464 -46.1455 -46.1453 -46.1453 -46.1444 -46.1444 -46.1441 -46.1433
   -22.4757 -22.4722 -22.4722 -22.4696 -22.4275 -22.4254 -22.4254 -22.4234
   -22.4209 -22.4208 -22.4177 -22.4177 -22.4174 -22.4174 -22.4151 -22.4151
   -22.3670 -22.3670 -22.3651 -22.3651 -22.3649 -22.3649 -22.3633 -22.3633
   -14.4514 -14.3397 -14.3302 -14.3302 -14.2607 -14.2606 -14.2527 -14.1922
    -6.7789  -6.7789  -6.7263  -6.5365  -6.2588  -6.1452  -6.1452  -5.9115
    -5.9115  -5.9103  -5.8497  -5.8497  -5.8154  -5.7833  -5.7518  -5.7517
    -5.7487  -5.7487  -5.7412  -5.6752  -5.5814  -5.5814  -5.5197  -5.5197
    -0.3485  -0.3485  -0.2864   0.3042   0.3042   0.3203   0.3203   0.3709
     0.3760   0.3760   0.3804   0.3804   0.5338   0.5338   0.5387   0.5387
     0.5555   0.5555   0.7445   0.7487   0.7487   0.7679   0.7679   0.8117
     5.9179   6.0802   6.1028   6.1028   6.2977   6.2977   6.3358   6.3518
     6.4124   6.4124   6.5618   6.5630   6.5630   6.5890   6.6061   7.5283
     7.5283   7.5780   7.5780   7.6255   7.6255   7.6264   7.6264   7.6424
     7.6424   7.7414   7.7414   7.9272   7.9272   7.9565   8.0511   8.0858
     8.0858   8.0952   8.0952   8.3907   8.3907   8.4596   8.4609   8.4747
     8.4747   8.5563   8.5563   8.6155   8.6905   8.6906   8.7209   8.7209
     9.0559   9.0559   9.2326   9.3487   9.3487   9.3818   9.3818   9.4778
     9.4778   9.4846   9.4846   9.5057   9.5057   9.7198   9.7198  10.0013
    10.0703  10.0703  10.1823  10.1823  10.2504  10.2504  10.3451  10.4129
    12.2494  12.3993  12.5646  12.5646  12.6828  12.6828  13.9651  13.9651
    13.9954  13.9954  14.0236  14.0236  14.0294  14.0294  14.0436  14.0436
    14.0514  14.0514  14.3947  14.3947  14.4266  14.4842  14.4898  14.5704
    14.5704  14.6314  14.6314  14.6380  14.6446  15.1176  15.3167  15.3167
    15.3478  15.4942  16.3234  16.3234  16.5226  16.9027  17.1112  17.3464

          k = 0.0000 0.0000 0.2473 ( 14835 PWs)   bands (ev):

   -46.1463 -46.1456 -46.1451 -46.1451 -46.1445 -46.1445 -46.1440 -46.1434
   -22.4687 -22.4653 -22.4653 -22.4628 -22.4346 -22.4323 -22.4323 -22.4301
   -22.4204 -22.4204 -22.4182 -22.4182 -22.4171 -22.4171 -22.4155 -22.4155
   -22.3667 -22.3667 -22.3654 -22.3654 -22.3647 -22.3647 -22.3635 -22.3635
   -14.4354 -14.3564 -14.3202 -14.3202 -14.2710 -14.2710 -14.2439 -14.2012
    -6.7056  -6.7056  -6.6792  -6.5354  -6.2804  -6.2804  -6.1873  -5.9109
    -5.8632  -5.8632  -5.8422  -5.8422  -5.8218  -5.8107  -5.7880  -5.7352
    -5.7256  -5.7256  -5.7174  -5.7174  -5.6074  -5.6074  -5.5533  -5.5533
    -0.2575  -0.2575  -0.1585   0.2032   0.2032   0.3803   0.3803   0.3946
     0.3947   0.4020   0.4020   0.4364   0.5092   0.5093   0.5104   0.5104
     0.5635   0.5825   0.5825   0.6968   0.6968   0.7190   0.7190   0.7478
     6.0028   6.0829   6.2120   6.2120   6.3856   6.3856   6.4573   6.4573
     6.5713   6.5949   6.6041   6.6170   6.7026   6.7026   6.7490   7.5393
     7.5393   7.5592   7.5592   7.5604   7.5604   7.5735   7.5735   7.7135
     7.7135   7.7173   7.7173   7.7441   7.7855   7.8556   7.8556   7.9124
     7.9124   8.0412   8.0412   8.2089   8.4287   8.4287   8.4444   8.4444
     8.5572   8.6230   8.6231   8.6311   8.7658   8.7658   8.8993   8.8993
     9.1010   9.2219   9.2219   9.2321   9.2321   9.2889   9.2889   9.3567
     9.3568   9.3757   9.3757   9.4665   9.4665   9.6825   9.7644   9.7644
    10.0138  10.0138  10.0802  10.0802  10.0927  10.0927  10.3564  10.4027
    12.2697  12.3751  12.8066  12.8066  12.9021  12.9021  13.8325  13.8325
    13.8593  13.8593  13.9721  13.9721  13.9962  13.9962  14.0387  14.0387
    14.1287  14.1287  14.2993  14.2993  14.4575  14.4858  14.4864  14.5323
    14.5323  14.6043  14.8337  14.8337  15.0186  15.2979  15.2979  15.5756
    15.6336  15.7823  16.3174  16.5111  16.5111  16.8752  17.0354  17.4598

          k = 0.0000 0.0000-0.4946 ( 14774 PWs)   bands (ev):

   -46.1459 -46.1459 -46.1448 -46.1448 -46.1448 -46.1448 -46.1437 -46.1437
   -22.4517 -22.4517 -22.4488 -22.4488 -22.4488 -22.4488 -22.4465 -22.4465
   -22.4193 -22.4193 -22.4193 -22.4193 -22.4163 -22.4163 -22.4162 -22.4162
   -22.3661 -22.3661 -22.3661 -22.3661 -22.3641 -22.3641 -22.3641 -22.3641
   -14.3963 -14.3962 -14.2958 -14.2958 -14.2957 -14.2957 -14.2227 -14.2226
    -6.5835  -6.5833  -6.5137  -6.5137  -6.5136  -6.5136  -6.0091  -6.0090
    -5.8533  -5.8532  -5.8350  -5.8350  -5.8350  -5.8350  -5.7994  -5.7993
    -5.6679  -5.6679  -5.6678  -5.6678  -5.6351  -5.6351  -5.6350  -5.6349
    -0.0321  -0.0321  -0.0320  -0.0320   0.1769   0.1770   0.4465   0.4466
     0.4466   0.4466   0.4553   0.4553   0.4553   0.4553   0.5331   0.5331
     0.5331   0.5331   0.5929   0.5930   0.6493   0.6493   0.6493   0.6493
     6.0746   6.0747   6.3262   6.3262   6.3262   6.3262   6.6001   6.6002
     6.9071   6.9071   6.9072   6.9072   7.1621   7.1622   7.1727   7.1727
     7.1728   7.1728   7.2060   7.2060   7.3871   7.3873   7.5592   7.5592
     7.5593   7.5593   7.8453   7.8453   7.8453   7.8453   7.9007   7.9007
     7.9008   7.9008   8.1357   8.1357   8.1358   8.1358   8.6215   8.6215
     8.6216   8.6216   8.8102   8.8104   8.9696   8.9696   8.9696   8.9697
     8.9933   8.9934   8.9934   8.9934   9.0934   9.0935   9.2011   9.2011
     9.2012   9.2012   9.7309   9.7309   9.7309   9.7309   9.7836   9.7836
     9.7836   9.7837   9.8839   9.8839   9.8840   9.8840  10.3797  10.3799
    12.3221  12.3222  13.3423  13.3423  13.3424  13.3424  13.3947  13.3947
    13.3948  13.3948  13.9848  13.9848  13.9849  13.9849  14.1296  14.1296
    14.1296  14.1296  14.3218  14.3218  14.3218  14.3218  14.4880  14.4880
    14.5312  14.5312  15.1763  15.1763  15.1763  15.1763  15.7385  15.7386
    16.3213  16.3215  16.4446  16.4448  16.5439  16.5441  17.1101  17.1101

          k = 0.0000 0.2500 0.0000 ( 14854 PWs)   bands (ev):

   -46.1462 -46.1455 -46.1453 -46.1451 -46.1445 -46.1443 -46.1442 -46.1434
   -22.4752 -22.4727 -22.4718 -22.4699 -22.4272 -22.4257 -22.4250 -22.4237
   -22.4203 -22.4180 -22.4173 -22.4155 -22.4131 -22.4101 -22.4098 -22.4075
   -22.3750 -22.3729 -22.3727 -22.3709 -22.3667 -22.3652 -22.3649 -22.3635
   -14.4341 -14.3484 -14.3283 -14.3191 -14.2724 -14.2642 -14.2507 -14.2023
    -6.7285  -6.7098  -6.6529  -6.5485  -6.3450  -6.2495  -6.0681  -5.8984
    -5.8875  -5.8781  -5.8554  -5.8312  -5.8053  -5.7703  -5.7686  -5.7570
    -5.7389  -5.7282  -5.7145  -5.7093  -5.6685  -5.6078  -5.5880  -5.5525
    -0.2555  -0.2294  -0.1777   0.2165   0.2712   0.3331   0.3454   0.3659
     0.3942   0.4049   0.4339   0.4385   0.4958   0.5044   0.5128   0.5287
     0.5571   0.5636   0.5742   0.6938   0.7122   0.7139   0.7154   0.7422
     6.0089   6.1033   6.1914   6.1957   6.3135   6.3814   6.4151   6.5163
     6.5669   6.5703   6.5724   6.6457   6.7302   6.7709   6.7780   7.4645
     7.5430   7.6017   7.6277   7.6341   7.6362   7.6366   7.6748   7.6778
     7.7083   7.7132   7.7408   7.7409   7.7539   7.8027   7.8259   7.9104
     7.9509   8.0181   8.0438   8.1722   8.2083   8.2593   8.2957   8.5829
     8.6012   8.6140   8.6932   8.6940   8.8063   8.8131   8.8367   8.9242
     8.9734   9.1433   9.1874   9.2440   9.3074   9.3097   9.3289   9.4258
     9.4291   9.4793   9.5175   9.5278   9.5601   9.5613   9.6012   9.6867
     9.9163  10.0121  10.0906  10.0994  10.1941  10.2281  10.2460  10.2581
    12.5336  12.6101  12.6622  12.6750  12.7175  12.8186  13.7524  13.7785
    13.7890  13.8090  13.9911  14.0034  14.0307  14.0328  14.0430  14.0444
    14.0821  14.0950  14.2820  14.3114  14.4317  14.5223  14.5295  14.5821
    14.5926  14.5996  14.7835  14.8370  14.9560  15.1412  15.2930  15.6493
    15.7873  15.7891  16.1580  16.5511  16.7104  16.9905  17.1543  17.3593

          k = 0.0000 0.2500 0.2473 ( 14847 PWs)   bands (ev):

   -46.1461 -46.1455 -46.1453 -46.1450 -46.1447 -46.1443 -46.1442 -46.1435
   -22.4682 -22.4659 -22.4650 -22.4632 -22.4342 -22.4326 -22.4320 -22.4305
   -22.4199 -22.4178 -22.4176 -22.4158 -22.4126 -22.4105 -22.4095 -22.4079
   -22.3747 -22.3732 -22.3724 -22.3711 -22.3664 -22.3652 -22.3650 -22.3638
   -14.4189 -14.3441 -14.3375 -14.3092 -14.2837 -14.2609 -14.2553 -14.2115
    -6.6621  -6.6364  -6.6144  -6.5335  -6.3211  -6.2726  -6.2098  -5.9060
    -5.8803  -5.8768  -5.8516  -5.8348  -5.8221  -5.8007  -5.7828  -5.7585
    -5.7371  -5.7166  -5.7015  -5.6991  -5.6598  -5.6236  -5.6165  -5.5773
    -0.2111  -0.1695  -0.0034   0.2145   0.2655   0.2692   0.2808   0.3492
     0.3735   0.4025   0.4272   0.4640   0.4696   0.4896   0.5208   0.5394
     0.5547   0.5954   0.5969   0.6182   0.6363   0.6846   0.6867   0.7169
     6.1082   6.1936   6.2110   6.3433   6.3599   6.5416   6.5688   6.6108
     6.6653   6.6975   6.7046   6.7120   6.7341   6.8097   6.8735   7.4336
     7.5108   7.5271   7.5426   7.5679   7.5916   7.6271   7.6386   7.6550
     7.6682   7.6728   7.7218   7.7777   7.7966   7.8520   7.8674   7.8753
     7.8782   7.9175   7.9192   8.0107   8.0140   8.3106   8.3222   8.3732
     8.4466   8.5879   8.7141   8.7271   8.7695   8.7978   8.8842   9.1353
     9.1475   9.1579   9.1782   9.1981   9.3061   9.3134   9.3738   9.3739
     9.3742   9.4395   9.4550   9.4806   9.4922   9.5046   9.5686   9.5809
     9.8509   9.9086   9.9380  10.0314  10.0664  10.0902  10.2462  10.2650
    12.5701  12.6578  12.8289  12.8835  12.9003  13.0211  13.7581  13.7735
    13.8096  13.8102  13.8357  13.8622  13.9092  13.9118  14.0067  14.0535
    14.0682  14.1133  14.1611  14.3338  14.3422  14.4022  14.4862  14.5112
    14.7266  14.7823  14.8383  15.1661  15.2130  15.2693  15.5964  15.7744
    15.9060  16.0714  16.3474  16.5030  16.6661  17.0420  17.1981  17.2875

          k = 0.0000 0.2500-0.4946 ( 14814 PWs)   bands (ev):

   -46.1458 -46.1458 -46.1450 -46.1450 -46.1446 -46.1446 -46.1438 -46.1438
   -22.4513 -22.4513 -22.4492 -22.4492 -22.4485 -22.4485 -22.4468 -22.4468
   -22.4189 -22.4188 -22.4167 -22.4167 -22.4115 -22.4115 -22.4087 -22.4087
   -22.3740 -22.3739 -22.3718 -22.3718 -22.3658 -22.3658 -22.3644 -22.3644
   -14.3819 -14.3818 -14.3108 -14.3107 -14.2853 -14.2852 -14.2336 -14.2335
    -6.5459  -6.5458  -6.4957  -6.4956  -6.4443  -6.4441  -6.0887  -6.0885
    -5.8709  -5.8709  -5.8561  -5.8560  -5.8107  -5.8106  -5.7869  -5.7868
    -5.6917  -5.6915  -5.6738  -5.6736  -5.6616  -5.6615  -5.6384  -5.6383
    -0.0311  -0.0311   0.0446   0.0447   0.2997   0.2998   0.3068   0.3069
     0.3932   0.3932   0.4033   0.4033   0.4439   0.4440   0.4823   0.4824
     0.5977   0.5977   0.6194   0.6194   0.6364   0.6364   0.6481   0.6481
     6.1855   6.1856   6.3116   6.3117   6.5217   6.5218   6.7409   6.7410
     6.9671   6.9671   7.0065   7.0067   7.1009   7.1010   7.1588   7.1588
     7.1840   7.1842   7.2880   7.2882   7.3352   7.3353   7.5802   7.5803
     7.6589   7.6590   7.6891   7.6892   7.8677   7.8678   7.8952   7.8953
     7.9390   7.9390   7.9906   7.9906   8.1377   8.1379   8.1968   8.1969
     8.4873   8.4874   8.5495   8.5495   8.8987   8.8987   8.9845   8.9846
     9.0785   9.0785   9.2378   9.2379   9.2856   9.2856   9.2933   9.2934
     9.3281   9.3282   9.6096   9.6096   9.7034   9.7034   9.7116   9.7116
     9.7536   9.7536   9.7617   9.7617   9.8080   9.8081  10.2539  10.2541
    12.6154  12.6155  13.3452  13.3453  13.3525  13.3526  13.3803  13.3804
    13.4738  13.4739  13.7771  13.7771  13.9428  13.9429  14.0380  14.0380
    14.1496  14.1496  14.1585  14.1585  14.2940  14.2940  14.4193  14.4193
    14.7742  14.7742  15.1569  15.1569  15.6270  15.6270  15.9161  15.9162
    16.5055  16.5057  16.5265  16.5267  16.8273  16.8274  16.9407  16.9408

          k = 0.0000-0.5000 0.0000 ( 14814 PWs)   bands (ev):

   -46.1458 -46.1458 -46.1449 -46.1449 -46.1447 -46.1447 -46.1438 -46.1438
   -22.4740 -22.4740 -22.4708 -22.4708 -22.4265 -22.4265 -22.4243 -22.4243
   -22.4191 -22.4191 -22.4164 -22.4164 -22.3941 -22.3941 -22.3915 -22.3915
   -22.3913 -22.3913 -22.3892 -22.3892 -22.3660 -22.3660 -22.3642 -22.3642
   -14.3917 -14.3917 -14.3006 -14.3006 -14.2919 -14.2918 -14.2267 -14.2267
    -6.6202  -6.6202  -6.5353  -6.5353  -6.4643  -6.4643  -5.8774  -5.8774
    -5.8718  -5.8718  -5.8256  -5.8256  -5.7948  -5.7948  -5.7897  -5.7897
    -5.7433  -5.7432  -5.7267  -5.7267  -5.6694  -5.6694  -5.6328  -5.6328
    -0.0249  -0.0249   0.0244   0.0245   0.1532   0.1532   0.4118   0.4118
     0.4142   0.4143   0.4523   0.4524   0.4656   0.4657   0.5237   0.5237
     0.5764   0.5765   0.5823   0.5823   0.6377   0.6378   0.6423   0.6423
     6.0899   6.0899   6.2692   6.2692   6.3147   6.3147   6.5696   6.5696
     6.8585   6.8586   6.9828   6.9828   7.1704   7.1704   7.2035   7.2035
     7.2227   7.2227   7.2958   7.2958   7.3776   7.3776   7.6222   7.6223
     7.6609   7.6609   7.8566   7.8566   7.8898   7.8898   7.8924   7.8924
     7.9028   7.9029   7.9599   7.9599   8.0130   8.0130   8.4826   8.4827
     8.6995   8.6995   8.7830   8.7830   8.8822   8.8822   8.9188   8.9188
     8.9767   8.9767   9.1305   9.1305   9.1606   9.1606   9.3017   9.3017
     9.3162   9.3163   9.6448   9.6448   9.7660   9.7660   9.7696   9.7696
     9.7899   9.7899   9.8851   9.8851   9.9110   9.9110  10.2175  10.2175
    12.6163  12.6163  13.2071  13.2071  13.2338  13.2338  13.2648  13.2648
    13.2850  13.2850  14.0339  14.0339  14.0355  14.0355  14.0855  14.0855
    14.1143  14.1143  14.2826  14.2826  14.2939  14.2939  14.5130  14.5130
    14.5962  14.5962  15.1051  15.1051  15.1478  15.1478  15.6665  15.6665
    16.4027  16.4028  16.5464  16.5464  16.6512  16.6512  17.2078  17.2078

          k = 0.0000-0.5000 0.2473 ( 14840 PWs)   bands (ev):

   -46.1457 -46.1457 -46.1451 -46.1451 -46.1446 -46.1446 -46.1439 -46.1439
   -22.4670 -22.4670 -22.4640 -22.4640 -22.4334 -22.4334 -22.4313 -22.4313
   -22.4188 -22.4188 -22.4168 -22.4168 -22.3937 -22.3937 -22.3919 -22.3919
   -22.3910 -22.3910 -22.3895 -22.3895 -22.3657 -22.3657 -22.3645 -22.3645
   -14.3786 -14.3786 -14.3142 -14.3142 -14.2824 -14.2824 -14.2364 -14.2363
    -6.5752  -6.5752  -6.4619  -6.4619  -6.4592  -6.4592  -6.0400  -6.0400
    -5.8787  -5.8787  -5.8426  -5.8426  -5.7760  -5.7760  -5.7584  -5.7583
    -5.7374  -5.7374  -5.7367  -5.7367  -5.6627  -5.6627  -5.6369  -5.6369
    -0.0049  -0.0049   0.0500   0.0500   0.2778   0.2778   0.3045   0.3045
     0.3843   0.3843   0.4017   0.4017   0.4375   0.4375   0.4897   0.4898
     0.6114   0.6114   0.6189   0.6189   0.6246   0.6246   0.6417   0.6417
     6.1969   6.1969   6.3035   6.3035   6.4745   6.4745   6.7122   6.7122
     6.9733   6.9733   7.0134   7.0134   7.1341   7.1341   7.1503   7.1503
     7.2142   7.2142   7.3407   7.3407   7.3773   7.3773   7.6087   7.6087
     7.6768   7.6768   7.7348   7.7348   7.8804   7.8804   7.9066   7.9066
     7.9247   7.9247   7.9385   7.9385   8.0131   8.0131   8.1609   8.1609
     8.5046   8.5046   8.5479   8.5479   8.9051   8.9051   9.0066   9.0066
     9.1929   9.1929   9.2017   9.2017   9.2107   9.2107   9.2791   9.2791
     9.3388   9.3388   9.5536   9.5536   9.6547   9.6547   9.7218   9.7218
     9.8016   9.8016   9.8615   9.8615   9.8901   9.8901  10.0995  10.0995
    12.8412  12.8412  13.2203  13.2203  13.2518  13.2518  13.3060  13.3061
    13.4291  13.4291  13.8453  13.8453  13.9189  13.9189  14.0772  14.0772
    14.1304  14.1304  14.1415  14.1415  14.2686  14.2686  14.4184  14.4184
    14.8303  14.8303  15.1351  15.1351  15.5309  15.5309  15.8524  15.8525
    16.5783  16.5783  16.6743  16.6744  16.8368  16.8368  17.0421  17.0422

          k = 0.0000-0.5000-0.4946 ( 14836 PWs)   bands (ev):

   -46.1454 -46.1454 -46.1454 -46.1454 -46.1442 -46.1442 -46.1442 -46.1442
   -22.4503 -22.4503 -22.4503 -22.4503 -22.4477 -22.4477 -22.4477 -22.4477
   -22.4178 -22.4178 -22.4177 -22.4177 -22.3928 -22.3928 -22.3928 -22.3928
   -22.3902 -22.3902 -22.3902 -22.3902 -22.3651 -22.3651 -22.3651 -22.3651
   -14.3467 -14.3467 -14.3466 -14.3466 -14.2596 -14.2596 -14.2595 -14.2595
    -6.4904  -6.4904  -6.4903  -6.4903  -6.2712  -6.2712  -6.2711  -6.2711
    -5.8872  -5.8872  -5.8871  -5.8871  -5.7511  -5.7511  -5.7510  -5.7510
    -5.7418  -5.7418  -5.7417  -5.7416  -5.6485  -5.6485  -5.6484  -5.6484
     0.0822   0.0823   0.0823   0.0823   0.2381   0.2381   0.2382   0.2382
     0.3644   0.3644   0.3644   0.3644   0.5210   0.5210   0.5210   0.5210
     0.5494   0.5494   0.5495   0.5495   0.6523   0.6523   0.6523   0.6523
     6.2805   6.2805   6.2806   6.2806   6.9018   6.9018   6.9019   6.9019
     7.0703   7.0703   7.0704   7.0704   7.1790   7.1790   7.1792   7.1792
     7.2527   7.2527   7.2528   7.2528   7.3284   7.3284   7.3285   7.3285
     7.6995   7.6995   7.6996   7.6996   7.8371   7.8371   7.8372   7.8372
     7.8925   7.8926   7.8926   7.8926   8.1203   8.1203   8.1204   8.1204
     8.2339   8.2340   8.2340   8.2340   8.8780   8.8780   8.8780   8.8780
     9.3198   9.3198   9.3198   9.3198   9.3599   9.3599   9.3599   9.3599
     9.3938   9.3938   9.3938   9.3938   9.7011   9.7011   9.7011   9.7011
     9.8031   9.8031   9.8031   9.8031   9.8786   9.8786   9.8788   9.8788
    13.2013  13.2013  13.2013  13.2014  13.3908  13.3908  13.3909  13.3909
    13.5653  13.5653  13.5653  13.5653  13.7769  13.7769  13.7769  13.7770
    14.1965  14.1965  14.1965  14.1965  14.2365  14.2365  14.2366  14.2366
    15.0639  15.0639  15.0639  15.0639  16.3481  16.3482  16.3483  16.3483
    16.4473  16.4474  16.4475  16.4475  17.3096  17.3110  17.3113  17.3118

          k = 0.2500 0.2500 0.0000 ( 14825 PWs)   bands (ev):

   -46.1461 -46.1453 -46.1453 -46.1452 -46.1445 -46.1443 -46.1443 -46.1436
   -22.4747 -22.4722 -22.4722 -22.4703 -22.4269 -22.4254 -22.4254 -22.4240
   -22.4126 -22.4126 -22.4104 -22.4100 -22.4097 -22.4097 -22.4080 -22.4078
   -22.3748 -22.3744 -22.3730 -22.3730 -22.3727 -22.3725 -22.3712 -22.3712
   -14.4176 -14.3363 -14.3363 -14.3171 -14.2768 -14.2623 -14.2623 -14.2128
    -6.6682  -6.6682  -6.5791  -6.5468  -6.3923  -6.1738  -6.1738  -5.8813
    -5.8619  -5.8619  -5.8365  -5.8365  -5.8067  -5.7893  -5.7695  -5.7595
    -5.7555  -5.7346  -5.7202  -5.7164  -5.7163  -5.6183  -5.6183  -5.6128
    -0.2338  -0.1166  -0.0238   0.2205   0.2205   0.3161   0.3347   0.3347
     0.3708   0.3877   0.4185   0.4532   0.4646   0.4646   0.5278   0.5436
     0.5436   0.5909   0.5909   0.6247   0.6683   0.6845   0.6870   0.6870
     6.1068   6.1993   6.1993   6.2998   6.3316   6.5755   6.5755   6.6054
     6.6054   6.6867   6.7064   6.8073   6.8073   6.8162   6.8207   7.3188
     7.5432   7.5708   7.5708   7.6136   7.6431   7.6530   7.6530   7.6612
     7.6918   7.7109   7.7109   7.7930   7.7930   7.8082   7.8714   7.8714
     7.9084   7.9176   7.9647   7.9907   8.0270   8.2474   8.2474   8.4301
     8.4301   8.6127   8.6959   8.6959   8.7016   8.7685   9.0152   9.0153
     9.1150   9.1176   9.1377   9.2115   9.2221   9.2781   9.3381   9.4215
     9.4216   9.4488   9.4488   9.4799   9.5215   9.5215   9.6099   9.6099
     9.9455   9.9456  10.0463  10.0835  10.0910  10.0910  10.1554  10.1785
    12.6520  12.7849  12.7968  12.7987  12.7987  12.8993  13.7468  13.7734
    13.7734  13.7992  13.7992  13.8654  13.8843  13.8843  14.0063  14.0393
    14.0856  14.0856  14.1836  14.3183  14.3183  14.3966  14.4807  14.4975
    14.8260  14.8524  14.8524  15.1375  15.1585  15.1618  15.7681  15.7681
    15.9517  16.0422  16.3774  16.3774  16.8352  17.2844  17.3244  17.3291

          k = 0.2500 0.2500 0.2473 ( 14816 PWs)   bands (ev):

   -46.1459 -46.1453 -46.1451 -46.1451 -46.1445 -46.1445 -46.1443 -46.1437
   -22.4677 -22.4654 -22.4654 -22.4635 -22.4339 -22.4323 -22.4323 -22.4308
   -22.4121 -22.4121 -22.4101 -22.4101 -22.4101 -22.4097 -22.4084 -22.4082
   -22.3745 -22.3741 -22.3731 -22.3728 -22.3727 -22.3727 -22.3714 -22.3714
   -14.4032 -14.3322 -14.3257 -14.3256 -14.2733 -14.2733 -14.2675 -14.2223
    -6.6009  -6.6009  -6.5486  -6.5214  -6.3208  -6.2507  -6.2507  -5.9299
    -5.8948  -5.8554  -5.8554  -5.8312  -5.8312  -5.7993  -5.7869  -5.7631
    -5.7391  -5.7139  -5.7135  -5.7032  -5.7032  -5.6392  -5.6392  -5.6354
    -0.1561  -0.1207   0.1520   0.2323   0.2581   0.2581   0.2926   0.3187
     0.3187   0.3737   0.3800   0.3857   0.3982   0.3982   0.4903   0.4904
     0.5089   0.6206   0.6414   0.6467   0.6468   0.7233   0.7233   0.7371
     6.2384   6.3333   6.3429   6.3429   6.5172   6.5729   6.5729   6.6728
     6.6728   6.7950   6.8161   6.8184   6.8375   6.9071   6.9072   7.3661
     7.4093   7.4093   7.4841   7.4978   7.6553   7.6553   7.6608   7.6672
     7.6672   7.7073   7.7969   7.7969   7.8147   7.8343   7.8418   7.8641
     7.8641   7.8846   7.9021   7.9138   8.0683   8.0683   8.0804   8.3572
     8.4596   8.4596   8.5056   8.5318   8.7340   8.7340   8.9672   9.1501
     9.1780   9.2046   9.2046   9.2345   9.3072   9.3072   9.3150   9.3917
     9.3917   9.4304   9.4430   9.5081   9.5081   9.5409   9.5593   9.5593
     9.8154   9.8692   9.9061   9.9640  10.0199  10.0199  10.1625  10.1713
    12.7609  12.8789  12.9213  12.9446  13.0005  13.0005  13.7960  13.7960
    13.8108  13.8349  13.8349  13.8501  13.8522  13.8522  13.8542  13.9182
    13.9182  13.9428  14.1985  14.1985  14.2131  14.3455  14.3662  14.3883
    15.1397  15.1558  15.1801  15.1801  15.2273  15.6139  15.7530  15.7530
    16.1753  16.3035  16.4899  16.4899  16.6212  17.1776  17.3669  17.4261

          k = 0.2500 0.2500-0.4946 ( 14798 PWs)   bands (ev):

   -46.1456 -46.1456 -46.1448 -46.1448 -46.1448 -46.1448 -46.1440 -46.1440
   -22.4509 -22.4509 -22.4489 -22.4489 -22.4489 -22.4489 -22.4472 -22.4472
   -22.4111 -22.4111 -22.4111 -22.4111 -22.4092 -22.4092 -22.4089 -22.4089
   -22.3738 -22.3738 -22.3735 -22.3735 -22.3721 -22.3721 -22.3721 -22.3721
   -14.3680 -14.3679 -14.2997 -14.2997 -14.2996 -14.2996 -14.2451 -14.2450
    -6.5047  -6.5046  -6.4315  -6.4315  -6.4314  -6.4314  -6.1388  -6.1387
    -5.8762  -5.8761  -5.8330  -5.8330  -5.8330  -5.8330  -5.7814  -5.7812
    -5.7037  -5.7036  -5.6883  -5.6882  -5.6787  -5.6787  -5.6785  -5.6785
     0.0316   0.0316   0.0351   0.0351   0.3104   0.3104   0.3105   0.3105
     0.3801   0.3801   0.3851   0.3851   0.3852   0.3852   0.4029   0.4030
     0.4351   0.4351   0.7192   0.7192   0.7192   0.7192   0.7240   0.7240
     6.3329   6.3330   6.4948   6.4948   6.4948   6.4948   6.8171   6.8172
     7.0129   7.0129   7.0130   7.0130   7.0268   7.0269   7.1100   7.1101
     7.2995   7.2995   7.2996   7.2996   7.4168   7.4169   7.5680   7.5680
     7.6855   7.6855   7.6856   7.6856   7.7809   7.7810   7.8777   7.8778
     7.9385   7.9386   8.0121   8.0121   8.0122   8.0122   8.1883   8.1884
     8.2402   8.2403   8.5220   8.5220   8.5221   8.5221   8.9337   8.9338
     9.2591   9.2591   9.2591   9.2591   9.2994   9.2994   9.4621   9.4621
     9.4621   9.4621   9.5590   9.5590   9.6506   9.6507   9.6949   9.6950
     9.7020   9.7020   9.7683   9.7683   9.7684   9.7684  10.1623  10.1625
    12.8271  12.8272  13.3584  13.3584  13.3853  13.3854  13.4552  13.4552
    13.4553  13.4553  13.8396  13.8396  13.8397  13.8397  13.9764  13.9764
    13.9765  13.9765  14.1049  14.1049  14.1368  14.1368  14.2924  14.2925
    15.1469  15.1469  15.6218  15.6218  15.6218  15.6218  16.0018  16.0019
    16.5383  16.5385  16.7345  16.7347  16.9541  16.9541  17.0192  17.0194

          k = 0.2500-0.5000 0.0000 ( 14818 PWs)   bands (ev):

   -46.1457 -46.1457 -46.1449 -46.1449 -46.1448 -46.1448 -46.1439 -46.1439
   -22.4735 -22.4735 -22.4713 -22.4713 -22.4261 -22.4261 -22.4247 -22.4247
   -22.4114 -22.4114 -22.4088 -22.4088 -22.3937 -22.3937 -22.3917 -22.3917
   -22.3912 -22.3912 -22.3896 -22.3896 -22.3738 -22.3738 -22.3719 -22.3719
   -14.3774 -14.3773 -14.3068 -14.3068 -14.2899 -14.2899 -14.2377 -14.2377
    -6.5859  -6.5859  -6.5248  -6.5248  -6.3897  -6.3897  -5.9836  -5.9836
    -5.8503  -5.8503  -5.8226  -5.8226  -5.7976  -5.7976  -5.7921  -5.7921
    -5.7489  -5.7489  -5.7259  -5.7259  -5.6840  -5.6840  -5.6618  -5.6618
    -0.0401  -0.0401   0.1046   0.1046   0.2715   0.2715   0.2918   0.2918
     0.3656   0.3656   0.3963   0.3963   0.4788   0.4788   0.4951   0.4952
     0.5769   0.5769   0.6233   0.6233   0.6322   0.6323   0.6371   0.6371
     6.1859   6.1859   6.2715   6.2715   6.5092   6.5092   6.7126   6.7126
     6.8754   6.8755   7.1132   7.1133   7.1225   7.1225   7.1434   7.1434
     7.2807   7.2807   7.2971   7.2971   7.3573   7.3573   7.6255   7.6255
     7.7113   7.7114   7.7214   7.7214   7.8707   7.8707   7.8870   7.8870
     7.9284   7.9284   8.0123   8.0123   8.0612   8.0612   8.2527   8.2527
     8.4675   8.4676   8.6086   8.6086   8.7085   8.7085   8.8289   8.8289
     9.1256   9.1256   9.1389   9.1389   9.2474   9.2474   9.3420   9.3420
     9.3985   9.3985   9.6853   9.6853   9.7512   9.7512   9.7546   9.7546
     9.7662   9.7662   9.7930   9.7930   9.9287   9.9287  10.1022  10.1022
    12.7491  12.7491  13.2437  13.2437  13.2652  13.2652  13.2896  13.2896
    13.4014  13.4014  13.8078  13.8078  13.9372  13.9372  14.0491  14.0491
    14.1207  14.1207  14.1261  14.1262  14.2591  14.2591  14.4041  14.4041
    14.8686  14.8686  15.1191  15.1191  15.6036  15.6036  15.8619  15.8620
    16.6496  16.6496  16.6808  16.6808  16.7751  16.7751  17.0153  17.0153

          k = 0.2500-0.5000 0.2473 ( 14838 PWs)   bands (ev):

   -46.1456 -46.1456 -46.1449 -46.1449 -46.1447 -46.1447 -46.1441 -46.1441
   -22.4666 -22.4666 -22.4645 -22.4645 -22.4331 -22.4331 -22.4316 -22.4316
   -22.4110 -22.4110 -22.4092 -22.4092 -22.3933 -22.3933 -22.3916 -22.3916
   -22.3914 -22.3914 -22.3899 -22.3899 -22.3735 -22.3735 -22.3722 -22.3722
   -14.3648 -14.3648 -14.3030 -14.3029 -14.2968 -14.2968 -14.2479 -14.2479
    -6.5368  -6.5368  -6.4553  -6.4553  -6.3908  -6.3908  -6.0820  -6.0820
    -5.8586  -5.8586  -5.8374  -5.8374  -5.7972  -5.7972  -5.7813  -5.7812
    -5.7535  -5.7535  -5.7288  -5.7288  -5.6890  -5.6890  -5.6698  -5.6698
     0.0181   0.0181   0.0746   0.0746   0.2851   0.2851   0.2868   0.2868
     0.3821   0.3821   0.3871   0.3871   0.3948   0.3948   0.4164   0.4165
     0.4353   0.4353   0.7119   0.7119   0.7199   0.7199   0.7203   0.7203
     6.3356   6.3356   6.4631   6.4631   6.4867   6.4867   6.7767   6.7767
     6.9562   6.9562   7.0558   7.0558   7.0838   7.0838   7.1048   7.1048
     7.3081   7.3082   7.3671   7.3671   7.4121   7.4121   7.5993   7.5993
     7.7099   7.7099   7.7147   7.7148   7.7752   7.7752   7.8847   7.8847
     7.9681   7.9681   7.9707   7.9707   7.9917   7.9917   8.2032   8.2032
     8.2581   8.2581   8.4195   8.4195   8.6310   8.6310   8.7490   8.7490
     9.2611   9.2612   9.2728   9.2728   9.3032   9.3032   9.3623   9.3623
     9.4796   9.4796   9.6155   9.6155   9.6243   9.6243   9.7202   9.7202
     9.7650   9.7650   9.8138   9.8138   9.8992   9.8992  10.0173  10.0173
    12.9454  12.9454  13.2952  13.2952  13.3410  13.3410  13.3829  13.3829
    13.4070  13.4070  13.8658  13.8658  13.8664  13.8664  13.9590  13.9590
    13.9667  13.9667  14.0777  14.0777  14.1216  14.1216  14.2858  14.2858
    15.1985  15.1985  15.5479  15.5479  15.6013  15.6013  15.9445  15.9445
    16.6821  16.6821  16.8148  16.8149  16.9913  16.9913  17.0205  17.0206

          k = 0.2500-0.5000-0.4946 ( 14848 PWs)   bands (ev):

   -46.1452 -46.1452 -46.1452 -46.1452 -46.1444 -46.1444 -46.1444 -46.1444
   -22.4499 -22.4499 -22.4499 -22.4499 -22.4481 -22.4481 -22.4481 -22.4481
   -22.4101 -22.4101 -22.4101 -22.4101 -22.3925 -22.3925 -22.3924 -22.3924
   -22.3906 -22.3906 -22.3906 -22.3906 -22.3729 -22.3729 -22.3728 -22.3728
   -14.3341 -14.3341 -14.3341 -14.3340 -14.2726 -14.2726 -14.2725 -14.2725
    -6.4385  -6.4385  -6.4384  -6.4384  -6.2790  -6.2790  -6.2789  -6.2789
    -5.8734  -5.8734  -5.8734  -5.8734  -5.7727  -5.7727  -5.7726  -5.7726
    -5.7449  -5.7449  -5.7448  -5.7448  -5.6886  -5.6886  -5.6884  -5.6884
     0.1227   0.1227   0.1228   0.1228   0.1926   0.1926   0.1927   0.1927
     0.3211   0.3211   0.3212   0.3212   0.3691   0.3691   0.3691   0.3691
     0.6355   0.6355   0.6356   0.6356   0.7746   0.7746   0.7746   0.7746
     6.4498   6.4499   6.4499   6.4500   6.8147   6.8147   6.8148   6.8148
     7.0139   7.0139   7.0139   7.0139   7.2520   7.2520   7.2521   7.2521
     7.2685   7.2685   7.2685   7.2685   7.4876   7.4876   7.4876   7.4876
     7.5718   7.5718   7.5719   7.5719   7.9037   7.9037   7.9037   7.9037
     7.9114   7.9114   7.9114   7.9115   8.0554   8.0554   8.0554   8.0554
     8.1228   8.1228   8.1229   8.1229   8.5557   8.5558   8.5558   8.5558
     9.3797   9.3797   9.3798   9.3798   9.4458   9.4458   9.4458   9.4458
     9.5436   9.5436   9.5437   9.5437   9.6908   9.6908   9.6908   9.6908
     9.7432   9.7432   9.7432   9.7432   9.8697   9.8697   9.8699   9.8699
    13.3080  13.3080  13.3081  13.3081  13.4500  13.4500  13.4501  13.4501
    13.6046  13.6046  13.6047  13.6047  13.7469  13.7469  13.7470  13.7470
    14.0154  14.0154  14.0154  14.0155  14.0650  14.0650  14.0650  14.0650
    15.5420  15.5420  15.5420  15.5420  16.3705  16.3706  16.3707  16.3707
    16.4394  16.4395  16.4395  16.4396  17.0928  17.0928  17.0929  17.0929

          k =-0.5000-0.5000 0.0000 ( 14852 PWs)   bands (ev):

   -46.1453 -46.1453 -46.1453 -46.1453 -46.1443 -46.1443 -46.1443 -46.1443
   -22.4724 -22.4724 -22.4724 -22.4724 -22.4254 -22.4254 -22.4254 -22.4254
   -22.3931 -22.3931 -22.3931 -22.3931 -22.3923 -22.3923 -22.3923 -22.3923
   -22.3906 -22.3906 -22.3906 -22.3906 -22.3902 -22.3902 -22.3902 -22.3902
   -14.3424 -14.3424 -14.3423 -14.3423 -14.2640 -14.2640 -14.2639 -14.2639
    -6.5316  -6.5316  -6.5316  -6.5316  -6.1993  -6.1993  -6.1993  -6.1993
    -5.8086  -5.8086  -5.8086  -5.8086  -5.7842  -5.7842  -5.7842  -5.7842
    -5.7819  -5.7819  -5.7819  -5.7819  -5.6859  -5.6859  -5.6859  -5.6859
     0.0615   0.0615   0.0615   0.0615   0.2945   0.2946   0.2946   0.2946
     0.3445   0.3445   0.3445   0.3445   0.5106   0.5106   0.5107   0.5107
     0.5402   0.5402   0.5403   0.5403   0.6521   0.6521   0.6521   0.6522
     6.2603   6.2603   6.2603   6.2603   6.8952   6.8952   6.8952   6.8952
     6.9156   6.9156   6.9156   6.9156   7.3101   7.3101   7.3101   7.3101
     7.3197   7.3197   7.3197   7.3198   7.3750   7.3750   7.3750   7.3750
     7.7001   7.7001   7.7001   7.7002   7.8508   7.8508   7.8508   7.8508
     7.9121   7.9121   7.9121   7.9121   8.2263   8.2263   8.2263   8.2263
     8.2461   8.2461   8.2462   8.2462   8.5253   8.5253   8.5253   8.5253
     9.2609   9.2609   9.2609   9.2609   9.4873   9.4873   9.4873   9.4873
     9.5241   9.5241   9.5241   9.5241   9.6957   9.6957   9.6957   9.6957
     9.7818   9.7818   9.7818   9.7818   9.9040   9.9040   9.9040   9.9040
    13.1422  13.1422  13.1422  13.1422  13.3626  13.3626  13.3626  13.3626
    13.5569  13.5569  13.5569  13.5569  13.7547  13.7547  13.7547  13.7548
    14.1715  14.1715  14.1715  14.1715  14.2115  14.2115  14.2115  14.2115
    15.0887  15.0887  15.0887  15.0887  16.3889  16.3889  16.3889  16.3890
    16.4634  16.4634  16.4634  16.4634  17.1412  17.1412  17.1413  17.1413

          k =-0.5000-0.5000 0.2473 ( 14844 PWs)   bands (ev):

   -46.1452 -46.1452 -46.1452 -46.1452 -46.1445 -46.1445 -46.1445 -46.1445
   -22.4655 -22.4655 -22.4655 -22.4655 -22.4323 -22.4323 -22.4323 -22.4323
   -22.3927 -22.3927 -22.3927 -22.3927 -22.3920 -22.3920 -22.3920 -22.3920
   -22.3910 -22.3910 -22.3910 -22.3910 -22.3905 -22.3905 -22.3905 -22.3905
   -14.3311 -14.3311 -14.3310 -14.3310 -14.2757 -14.2756 -14.2756 -14.2756
    -6.4720  -6.4720  -6.4720  -6.4720  -6.2269  -6.2269  -6.2269  -6.2269
    -5.8286  -5.8286  -5.8286  -5.8286  -5.7991  -5.7991  -5.7991  -5.7991
    -5.7702  -5.7702  -5.7702  -5.7702  -5.7008  -5.7007  -5.7007  -5.7007
     0.1032   0.1032   0.1032   0.1032   0.2290   0.2290   0.2290   0.2290
     0.3033   0.3033   0.3033   0.3033   0.3715   0.3715   0.3715   0.3715
     0.6371   0.6371   0.6371   0.6371   0.7697   0.7697   0.7697   0.7697
     6.4379   6.4379   6.4379   6.4379   6.8118   6.8118   6.8118   6.8118
     6.9262   6.9262   6.9262   6.9262   7.3158   7.3158   7.3158   7.3158
     7.3629   7.3630   7.3630   7.3630   7.4840   7.4840   7.4840   7.4840
     7.5504   7.5504   7.5504   7.5504   7.9259   7.9259   7.9259   7.9259
     7.9280   7.9280   7.9280   7.9280   8.1384   8.1384   8.1384   8.1384
     8.1386   8.1386   8.1386   8.1386   8.3469   8.3469   8.3469   8.3469
     9.4124   9.4124   9.4124   9.4125   9.4478   9.4478   9.4478   9.4478
     9.5566   9.5566   9.5566   9.5566   9.6839   9.6839   9.6839   9.6839
     9.7860   9.7860   9.7860   9.7860   9.8551   9.8551   9.8551   9.8551
    13.2966  13.2966  13.2966  13.2966  13.4468  13.4468  13.4468  13.4468
    13.5932  13.5932  13.5932  13.5932  13.7234  13.7234  13.7234  13.7235
    14.0117  14.0117  14.0117  14.0117  14.0520  14.0520  14.0520  14.0520
    15.5215  15.5215  15.5215  15.5215  16.4056  16.4056  16.4056  16.4056
    16.4551  16.4551  16.4551  16.4551  17.1195  17.1196  17.1196  17.1196

          k =-0.5000-0.5000-0.4946 ( 14872 PWs)   bands (ev):

   -46.1448 -46.1448 -46.1448 -46.1448 -46.1448 -46.1448 -46.1448 -46.1448
   -22.4490 -22.4490 -22.4490 -22.4490 -22.4490 -22.4490 -22.4490 -22.4490
   -22.3918 -22.3918 -22.3918 -22.3918 -22.3918 -22.3918 -22.3918 -22.3918
   -22.3913 -22.3913 -22.3913 -22.3913 -22.3912 -22.3912 -22.3912 -22.3912
   -14.3036 -14.3036 -14.3036 -14.3036 -14.3035 -14.3035 -14.3035 -14.3035
    -6.3352  -6.3352  -6.3352  -6.3352  -6.3351  -6.3350  -6.3350  -6.3350
    -5.8308  -5.8308  -5.8308  -5.8308  -5.8308  -5.8308  -5.8308  -5.8307
    -5.7360  -5.7360  -5.7360  -5.7360  -5.7359  -5.7358  -5.7358  -5.7358
     0.2035   0.2035   0.2035   0.2035   0.2035   0.2035   0.2036   0.2036
     0.2323   0.2323   0.2324   0.2324   0.2324   0.2324   0.2324   0.2325
     0.7761   0.7761   0.7761   0.7761   0.7761   0.7761   0.7761   0.7761
     6.6565   6.6565   6.6565   6.6565   6.6565   6.6566   6.6566   6.6566
     7.2443   7.2443   7.2443   7.2443   7.2444   7.2444   7.2444   7.2444
     7.3367   7.3367   7.3367   7.3367   7.3367   7.3368   7.3368   7.3368
     7.8495   7.8495   7.8495   7.8495   7.8495   7.8495   7.8495   7.8495
     7.9906   7.9906   7.9906   7.9906   7.9906   7.9907   7.9907   7.9907
     7.9951   7.9951   7.9951   7.9951   7.9952   7.9952   7.9952   7.9952
     9.5813   9.5813   9.5813   9.5813   9.5813   9.5813   9.5813   9.5813
     9.5873   9.5873   9.5873   9.5873   9.5873   9.5873   9.5873   9.5874
     9.7785   9.7786   9.7786   9.7786   9.7787   9.7787   9.7787   9.7787
    13.6143  13.6143  13.6143  13.6144  13.6144  13.6144  13.6144  13.6144
    13.6845  13.6845  13.6845  13.6845  13.6846  13.6846  13.6846  13.6846
    13.7173  13.7173  13.7173  13.7173  13.7173  13.7173  13.7173  13.7173
    16.4076  16.4076  16.4076  16.4076  16.4078  16.4078  16.4078  16.4078
    16.4344  16.4344  16.4344  16.4344  16.4344  16.4345  16.4345  16.4345

     highest occupied, lowest unoccupied level (ev):    10.4129   12.2494

!    total energy              =   -5964.46992236 Ry
     total all-electron energy =   -147448.923495 Ry
     estimated scf accuracy    <          5.9E-11 Ry

     The total energy is the sum of the following terms:
     one-electron contribution =    -550.15642850 Ry
     hartree contribution      =     483.64607071 Ry
     xc contribution           =    -491.48575908 Ry
     ewald contribution        =   -1653.96634398 Ry
     one-center paw contrib.   =   -3752.50746152 Ry

     convergence has been achieved in   3 iterations

     Forces acting on atoms (cartesian axes, Ry/au):

     atom    1 type  1   force =     0.00000000    0.00000000   -0.00098713
     atom    2 type  1   force =     0.00000000    0.00000000   -0.00095429
     atom    3 type  1   force =     0.00000000    0.00000000   -0.00097365
     atom    4 type  1   force =     0.00000000    0.00000000   -0.00096211
     atom    5 type  1   force =     0.00000000    0.00000000   -0.00097365
     atom    6 type  1   force =     0.00000000    0.00000000   -0.00096211
     atom    7 type  1   force =     0.00000000    0.00000000   -0.00099136
     atom    8 type  1   force =     0.00000000    0.00000000   -0.00095329
     atom    9 type  2   force =    -0.00000076   -0.00000076   -0.00061142
     atom   10 type  2   force =    -0.00000127   -0.00000127   -0.00060272
     atom   11 type  2   force =    -0.00000076    0.00000076   -0.00061142
     atom   12 type  2   force =    -0.00000127    0.00000127   -0.00060272
     atom   13 type  2   force =     0.00000076   -0.00000076   -0.00061142
     atom   14 type  2   force =     0.00000127   -0.00000127   -0.00060272
     atom   15 type  2   force =     0.00000076    0.00000076   -0.00061142
     atom   16 type  2   force =     0.00000127    0.00000127   -0.00060272
     atom   17 type  3   force =    -0.00000146   -0.00000146    0.00079381
     atom   18 type  3   force =    -0.00000244   -0.00000244    0.00080322
     atom   19 type  3   force =    -0.00000146    0.00000146    0.00079381
     atom   20 type  3   force =    -0.00000244    0.00000244    0.00080322
     atom   21 type  3   force =     0.00000146   -0.00000146    0.00079381
     atom   22 type  3   force =     0.00000244   -0.00000244    0.00080322
     atom   23 type  3   force =     0.00000146    0.00000146    0.00079381
     atom   24 type  3   force =     0.00000244    0.00000244    0.00080322
     atom   25 type  3   force =    -0.00000196    0.00000000    0.00038339
     atom   26 type  3   force =    -0.00000566    0.00000000    0.00038783
     atom   27 type  3   force =     0.00000074    0.00000000    0.00038800
     atom   28 type  3   force =     0.00000306    0.00000000    0.00039728
     atom   29 type  3   force =     0.00000196    0.00000000    0.00038339
     atom   30 type  3   force =     0.00000566    0.00000000    0.00038783
     atom   31 type  3   force =    -0.00000074    0.00000000    0.00038800
     atom   32 type  3   force =    -0.00000306    0.00000000    0.00039728
     atom   33 type  3   force =     0.00000000   -0.00000196    0.00038339
     atom   34 type  3   force =     0.00000000   -0.00000566    0.00038783
     atom   35 type  3   force =     0.00000000    0.00000196    0.00038339
     atom   36 type  3   force =     0.00000000    0.00000566    0.00038783
     atom   37 type  3   force =     0.00000000    0.00000074    0.00038800
     atom   38 type  3   force =     0.00000000    0.00000306    0.00039728
     atom   39 type  3   force =     0.00000000   -0.00000074    0.00038800
     atom   40 type  3   force =     0.00000000   -0.00000306    0.00039728

     Total force =     0.004242     Total SCF correction =     0.000002


     Computing stress (Cartesian axis) and pressure

          total   stress  (Ry/bohr**3)                   (kbar)     P=       -2.97
  -0.00005883   0.00000000   0.00000000           -8.65        0.00        0.00
   0.00000000  -0.00005883   0.00000000            0.00       -8.65        0.00
   0.00000000   0.00000000   0.00005710            0.00        0.00        8.40


     Writing all to output data dir ./tmp/40_ecut_4_kmesh_PBE.save/ :
     XML data file, charge density, pseudopotentials, collected wavefunctions

     init_run     :      1.25s CPU      1.96s WALL (       1 calls)
     electrons    :      3.89s CPU      4.13s WALL (       1 calls)
     forces       :      0.24s CPU      0.27s WALL (       1 calls)
     stress       :      0.50s CPU      0.53s WALL (       1 calls)

     Called by init_run:
     wfcinit      :      0.43s CPU      0.97s WALL (       1 calls)
     potinit      :      0.27s CPU      0.31s WALL (       1 calls)
     hinit0       :      0.34s CPU      0.42s WALL (       1 calls)

     Called by electrons:
     c_bands      :      3.06s CPU      3.21s WALL (       4 calls)
     sum_band     :      0.38s CPU      0.41s WALL (       4 calls)
     v_of_rho     :      0.04s CPU      0.06s WALL (       4 calls)
     newd         :      0.03s CPU      0.05s WALL (       4 calls)
     PAW_pot      :      0.17s CPU      0.18s WALL (       4 calls)
     mix_rho      :      0.00s CPU      0.00s WALL (       4 calls)

     Called by c_bands:
     init_us_2    :      0.05s CPU      0.05s WALL (      30 calls)
     cegterg      :      2.83s CPU      2.97s WALL (      12 calls)

     Called by *egterg:
     cdiaghg      :      0.67s CPU      0.75s WALL (      45 calls)
     h_psi        :      1.34s CPU      1.39s WALL (      51 calls)
     s_psi        :      0.19s CPU      0.19s WALL (      51 calls)
     g_psi        :      0.00s CPU      0.00s WALL (      39 calls)

     Called by h_psi:
     h_psi:calbec :      0.28s CPU      0.30s WALL (      51 calls)
     vloc_psi     :      0.87s CPU      0.89s WALL (      51 calls)
                                        0.00s GPU  (      51 calls)
     add_vuspsi   :      0.19s CPU      0.19s WALL (      51 calls)

     General routines
     calbec       :      0.90s CPU      0.96s WALL (     114 calls)
     fft          :      0.33s CPU      0.37s WALL (      76 calls)
     ffts         :      0.21s CPU      0.21s WALL (       8 calls)
     fftw         :      0.99s CPU      1.02s WALL (   13002 calls)
     interpolate  :      0.21s CPU      0.21s WALL (       4 calls)

     Parallel routines

     PWSCF        :      7.17s CPU      9.98s WALL


   This run was terminated on:   0:12:55  21May2026            

=------------------------------------------------------------------------------=
   JOB DONE.
=------------------------------------------------------------------------------=
