
     Program PWSCF v.7.5 starts on 21May2026 at  0:13:47 

     This program is part of the open-source Quantum ESPRESSO suite
     for quantum simulation of materials; please cite
         "P. Giannozzi et al., J. Phys.:Condens. Matter 21 395502 (2009);
         "P. Giannozzi et al., J. Phys.:Condens. Matter 29 465901 (2017);
         "P. Giannozzi et al., J. Chem. Phys. 152 154105 (2020);
          URL http://www.quantum-espresso.org", 
     in publications or presentations arising from this work. More details at
     http://www.quantum-espresso.org/quote

     Parallel version (MPI & OpenMP), running on     192 processor cores
     Number of MPI processes:               192
     Threads/MPI process:                     1

     MPI processes distributed on     1 nodes
     491761 MiB available memory on the printing compute node when the environment starts

     Waiting for input...
     Reading input from standard input

     Current dimensions of program PWSCF are:
     Max number of different atomic species (ntypx) = 10
     Max number of k-points (npk) =  40000
     Max angular momentum in pseudopotentials (lmaxx) =  4
     file Ba.pbe-spn-kjpaw_psl.1.0.0.UPF: wavefunction(s)  5S 6S renormalized
     file Ti.pbe-spn-kjpaw_psl.1.0.0.UPF: wavefunction(s)  3S 3P 3D renormalized
     file O.pbe-n-kjpaw_psl.1.0.0.UPF: wavefunction(s)  2S 2P renormalized

     IMPORTANT: XC functional enforced from input :
     Exchange-correlation= PBE
                           (   1   4   3   4   0   0   0)
     Any further DFT definition will be discarded
     Please, verify this is what you really want

     Found identity + ( -0.5000 -0.5000  0.0000) symmetry
     This is a supercell, fractional translations are disabled

     K-points division:     npool     =       8
     R & G space division:  proc/nbgrp/npool/nimage =      24
     Subspace diagonalization in iterative solution of the eigenvalue problem:
     one sub-group per band group will be used
     ELPA distributed-memory algorithm (size of sub-group:  2*  2 procs)


     Parallelization info
     --------------------
     sticks:   dense  smooth     PW     G-vecs:    dense   smooth      PW
     Min         362     181     50                25696     9081    1304
     Max         363     182     51                25701     9084    1307
     Sum        8693    4349   1201               616735   217983   31311

     Using Slab Decomposition



     bravais-lattice index     =            6
     lattice parameter (alat)  =      15.0876  a.u.
     unit-cell volume          =    3472.3239 (a.u.)^3
     number of atoms/cell      =           40
     number of atomic types    =            3
     number of electrons       =       320.00
     number of Kohn-Sham states=          200
     kinetic-energy cutoff     =      60.0000  Ry
     charge density cutoff     =     480.0000  Ry
     scf convergence threshold =      1.0E-10
     mixing beta               =       0.3000
     number of iterations used =           16  plain     mixing
     Exchange-correlation= PBE
                           (   1   4   3   4   0   0   0)

     celldm(1)=  15.087600  celldm(2)=   0.000000  celldm(3)=   1.011020
     celldm(4)=   0.000000  celldm(5)=   0.000000  celldm(6)=   0.000000

     crystal axes: (cart. coord. in units of alat)
               a(1) = (   1.000000   0.000000   0.000000 )  
               a(2) = (   0.000000   1.000000   0.000000 )  
               a(3) = (   0.000000   0.000000   1.011020 )  

     reciprocal axes: (cart. coord. in units 2 pi/alat)
               b(1) = (  1.000000  0.000000  0.000000 )  
               b(2) = (  0.000000  1.000000  0.000000 )  
               b(3) = (  0.000000  0.000000  0.989100 )  


     PseudoPot. # 1 for Ba read from file:
     /home/kylay/scratch/BTO/pseuds/Ba.pbe-spn-kjpaw_psl.1.0.0.UPF
     MD5 check sum: 7cfe25f1fe7574a4710541d5a11d6531
     Pseudo is Projector augmented-wave + core cor, Zval = 10.0
     Generated using &quot;atomic&quot; code by A. Dal Corso  v.6.2.2
     Shape of augmentation charge: PSQ
     Using radial grid of 1251 points,  7 beta functions with: 
                l(1) =   0
                l(2) =   0
                l(3) =   0
                l(4) =   1
                l(5) =   1
                l(6) =   2
                l(7) =   2
     Q(r) pseudized with 0 coefficients 


     PseudoPot. # 2 for Ti read from file:
     /home/kylay/scratch/BTO/pseuds/Ti.pbe-spn-kjpaw_psl.1.0.0.UPF
     MD5 check sum: 01f69b0d8ba4438b2e03ac6ea4af1c0b
     Pseudo is Projector augmented-wave + core cor, Zval = 12.0
     Generated using &quot;atomic&quot; code by A. Dal Corso  v.6.2.2
     Shape of augmentation charge: PSQ
     Using radial grid of 1177 points,  6 beta functions with: 
                l(1) =   0
                l(2) =   0
                l(3) =   1
                l(4) =   1
                l(5) =   2
                l(6) =   2
     Q(r) pseudized with 0 coefficients 


     PseudoPot. # 3 for O  read from file:
     /home/kylay/scratch/BTO/pseuds/O.pbe-n-kjpaw_psl.1.0.0.UPF
     MD5 check sum: e99d9cef9b487d1ca56f5b95ecd0fd7a
     Pseudo is Projector augmented-wave + core cor, Zval =  6.0
     Generated using &quot;atomic&quot; code by A. Dal Corso  v.6.3
     Shape of augmentation charge: PSQ
     Using radial grid of 1095 points,  4 beta functions with: 
                l(1) =   0
                l(2) =   0
                l(3) =   1
                l(4) =   1
     Q(r) pseudized with 0 coefficients 


     atomic species   valence    mass     pseudopotential
     Ba               10.00   137.32700     Ba( 1.00)
     Ti               12.00    47.86700     Ti( 1.00)
     O                 6.00    15.99900     O ( 1.00)

      8 Sym. Ops. (no inversion) found



   Cartesian axes

     site n.     atom                  positions (alat units)
         1        Ba     tau(   1) = (   0.0000000   0.0000000  -0.0010787  )
         2        Ba     tau(   2) = (   0.0000000   0.0000000   0.5044220  )
         3        Ba     tau(   3) = (   0.0000000   0.5000000  -0.0010832  )
         4        Ba     tau(   4) = (   0.0000000   0.5000000   0.5044235  )
         5        Ba     tau(   5) = (   0.5000000   0.0000000  -0.0010832  )
         6        Ba     tau(   6) = (   0.5000000   0.0000000   0.5044235  )
         7        Ba     tau(   7) = (   0.5000000   0.5000000  -0.0010766  )
         8        Ba     tau(   8) = (   0.5000000   0.5000000   0.5044202  )
         9        Ti     tau(   9) = (   0.2500002   0.2500002   0.2436990  )
        10        Ti     tau(  10) = (   0.2500007   0.2500007   0.7492042  )
        11        Ti     tau(  11) = (   0.2500002   0.7499998   0.2436990  )
        12        Ti     tau(  12) = (   0.2500007   0.7499993   0.7492042  )
        13        Ti     tau(  13) = (   0.7499998   0.2500002   0.2436990  )
        14        Ti     tau(  14) = (   0.7499993   0.2500007   0.7492042  )
        15        Ti     tau(  15) = (   0.7499998   0.7499998   0.2436990  )
        16        Ti     tau(  16) = (   0.7499993   0.7499993   0.7492042  )
        17        O      tau(  17) = (   0.2500011   0.2500011   0.0113903  )
        18        O      tau(  18) = (   0.2500007   0.2500007   0.5168954  )
        19        O      tau(  19) = (   0.2500011   0.7499989   0.0113903  )
        20        O      tau(  20) = (   0.2500007   0.7499993   0.5168954  )
        21        O      tau(  21) = (   0.7499989   0.2500011   0.0113903  )
        22        O      tau(  22) = (   0.7499993   0.2500007   0.5168954  )
        23        O      tau(  23) = (   0.7499989   0.7499989   0.0113903  )
        24        O      tau(  24) = (   0.7499993   0.7499993   0.5168954  )
        25        O      tau(  25) = (   0.2500005   0.0000000   0.2592128  )
        26        O      tau(  26) = (   0.2500020   0.0000000   0.7647195  )
        27        O      tau(  27) = (   0.2499999   0.5000000   0.2592107  )
        28        O      tau(  28) = (   0.2499998   0.5000000   0.7647148  )
        29        O      tau(  29) = (   0.7499995   0.0000000   0.2592128  )
        30        O      tau(  30) = (   0.7499980   0.0000000   0.7647195  )
        31        O      tau(  31) = (   0.7500001   0.5000000   0.2592107  )
        32        O      tau(  32) = (   0.7500002   0.5000000   0.7647148  )
        33        O      tau(  33) = (   0.0000000   0.2500005   0.2592128  )
        34        O      tau(  34) = (   0.0000000   0.2500020   0.7647195  )
        35        O      tau(  35) = (   0.0000000   0.7499995   0.2592128  )
        36        O      tau(  36) = (   0.0000000   0.7499980   0.7647195  )
        37        O      tau(  37) = (   0.5000000   0.2499999   0.2592107  )
        38        O      tau(  38) = (   0.5000000   0.2499998   0.7647148  )
        39        O      tau(  39) = (   0.5000000   0.7500001   0.2592107  )
        40        O      tau(  40) = (   0.5000000   0.7500002   0.7647148  )

     number of k points=   126

     Number of k-points >= 100: set verbosity='high' to print them.

     Dense  grid:   616735 G-vectors     FFT dimensions: ( 108, 108, 108)

     Smooth grid:   217983 G-vectors     FFT dimensions: (  75,  75,  75)

     Estimated max dynamical RAM per process >     120.87 MB

     Estimated total dynamical RAM >      20.61 GB

     Check: negative core charge=   -0.000002

     The initial density is read from file :
     ./tmp/60_ecut_10_kmesh_PBE.save/charge-density

     Starting wfcs from file
     Checking if some PAW data can be deallocated... 

     total cpu time spent up to now is        8.1 secs

     per-process dynamical memory:   174.7 Mb

     Self-consistent Calculation

     iteration #  1     ecut=    60.00 Ry     beta= 0.30
     Davidson diagonalization with overlap
     ethr =  1.00E-05,  avg # of iterations =  1.0

     Threshold (ethr) on eigenvalues was too large:
     Diagonalizing with lowered threshold

     Davidson diagonalization with overlap
     ethr =  2.97E-12,  avg # of iterations =  2.6

     total cpu time spent up to now is       22.9 secs

     total energy              =   -5964.60370123 Ry
     estimated scf accuracy    <       0.00000001 Ry

     iteration #  2     ecut=    60.00 Ry     beta= 0.30
     Davidson diagonalization with overlap
     ethr =  3.55E-12,  avg # of iterations =  2.1

     total cpu time spent up to now is       30.5 secs

     total energy              =   -5964.60370124 Ry
     estimated scf accuracy    <          2.1E-09 Ry

     iteration #  3     ecut=    60.00 Ry     beta= 0.30
     Davidson diagonalization with overlap
     ethr =  6.45E-13,  avg # of iterations =  3.6

     total cpu time spent up to now is       39.2 secs

     total energy              =   -5964.60370124 Ry
     estimated scf accuracy    <          1.6E-10 Ry

     iteration #  4     ecut=    60.00 Ry     beta= 0.30
     Davidson diagonalization with overlap
     ethr =  1.00E-13,  avg # of iterations =  5.6

     total cpu time spent up to now is       49.6 secs

     End of self-consistent calculation

     Number of k-points >= 100: set verbosity='high' to print the bands.

     highest occupied, lowest unoccupied level (ev):    10.4085   12.2307

!    total energy              =   -5964.60370124 Ry
     total all-electron energy =   -147449.057274 Ry
     estimated scf accuracy    <          4.0E-11 Ry

     The total energy is the sum of the following terms:
     one-electron contribution =    -550.43487030 Ry
     hartree contribution      =     483.85695676 Ry
     xc contribution           =    -491.50430484 Ry
     ewald contribution        =   -1653.96634398 Ry
     one-center paw contrib.   =   -3752.55513887 Ry

     convergence has been achieved in   4 iterations

     Forces acting on atoms (cartesian axes, Ry/au):

     atom    1 type  1   force =     0.00000000    0.00000000   -0.00095991
     atom    2 type  1   force =     0.00000000    0.00000000   -0.00092750
     atom    3 type  1   force =     0.00000000    0.00000000   -0.00094805
     atom    4 type  1   force =     0.00000000    0.00000000   -0.00093441
     atom    5 type  1   force =     0.00000000    0.00000000   -0.00094805
     atom    6 type  1   force =     0.00000000    0.00000000   -0.00093441
     atom    7 type  1   force =     0.00000000    0.00000000   -0.00096435
     atom    8 type  1   force =     0.00000000    0.00000000   -0.00092597
     atom    9 type  2   force =    -0.00000079   -0.00000079    0.00015730
     atom   10 type  2   force =    -0.00000139   -0.00000139    0.00016608
     atom   11 type  2   force =    -0.00000079    0.00000079    0.00015730
     atom   12 type  2   force =    -0.00000139    0.00000139    0.00016608
     atom   13 type  2   force =     0.00000079   -0.00000079    0.00015730
     atom   14 type  2   force =     0.00000139   -0.00000139    0.00016608
     atom   15 type  2   force =     0.00000079    0.00000079    0.00015730
     atom   16 type  2   force =     0.00000139    0.00000139    0.00016608
     atom   17 type  3   force =    -0.00000144   -0.00000144   -0.00004532
     atom   18 type  3   force =    -0.00000238   -0.00000238   -0.00003611
     atom   19 type  3   force =    -0.00000144    0.00000144   -0.00004532
     atom   20 type  3   force =    -0.00000238    0.00000238   -0.00003611
     atom   21 type  3   force =     0.00000144   -0.00000144   -0.00004532
     atom   22 type  3   force =     0.00000238   -0.00000238   -0.00003611
     atom   23 type  3   force =     0.00000144    0.00000144   -0.00004532
     atom   24 type  3   force =     0.00000238    0.00000238   -0.00003611
     atom   25 type  3   force =    -0.00000188    0.00000000    0.00040521
     atom   26 type  3   force =    -0.00000559    0.00000000    0.00040969
     atom   27 type  3   force =     0.00000071    0.00000000    0.00040975
     atom   28 type  3   force =     0.00000307    0.00000000    0.00041904
     atom   29 type  3   force =     0.00000188    0.00000000    0.00040521
     atom   30 type  3   force =     0.00000559    0.00000000    0.00040969
     atom   31 type  3   force =    -0.00000071    0.00000000    0.00040975
     atom   32 type  3   force =    -0.00000307   -0.00000000    0.00041904
     atom   33 type  3   force =     0.00000000   -0.00000188    0.00040521
     atom   34 type  3   force =     0.00000000   -0.00000559    0.00040969
     atom   35 type  3   force =     0.00000000    0.00000188    0.00040521
     atom   36 type  3   force =     0.00000000    0.00000559    0.00040969
     atom   37 type  3   force =    -0.00000000    0.00000071    0.00040975
     atom   38 type  3   force =     0.00000000    0.00000307    0.00041904
     atom   39 type  3   force =     0.00000000   -0.00000071    0.00040975
     atom   40 type  3   force =     0.00000000   -0.00000307    0.00041904

     Total force =     0.003168     Total SCF correction =     0.000010


     Computing stress (Cartesian axis) and pressure

          total   stress  (Ry/bohr**3)                   (kbar)     P=       38.94
   0.00023514   0.00000000   0.00000000           34.59        0.00        0.00
   0.00000000   0.00023514   0.00000000            0.00       34.59        0.00
   0.00000000   0.00000000   0.00032384            0.00        0.00       47.64


     Writing all to output data dir ./tmp/60_ecut_10_kmesh_PBE.save/ :
     XML data file, charge density, pseudopotentials, collected wavefunctions

     init_run     :      2.07s CPU      6.81s WALL (       1 calls)
     electrons    :     40.32s CPU     41.58s WALL (       1 calls)
     forces       :      1.53s CPU      1.63s WALL (       1 calls)
     stress       :      4.37s CPU      4.54s WALL (       1 calls)

     Called by init_run:
     wfcinit      :      1.24s CPU      5.77s WALL (       1 calls)
     potinit      :      0.20s CPU      0.28s WALL (       1 calls)
     hinit0       :      0.42s CPU      0.51s WALL (       1 calls)

     Called by electrons:
     c_bands      :     35.57s CPU     36.63s WALL (       5 calls)
     sum_band     :      4.14s CPU      4.27s WALL (       5 calls)
     v_of_rho     :      0.10s CPU      0.13s WALL (       5 calls)
     newd         :      0.07s CPU      0.09s WALL (       5 calls)
     PAW_pot      :      0.22s CPU      0.23s WALL (       5 calls)
     mix_rho      :      0.01s CPU      0.01s WALL (       5 calls)

     Called by c_bands:
     init_us_2    :      0.87s CPU      0.88s WALL (     192 calls)
     cegterg      :     32.77s CPU     33.77s WALL (      80 calls)

     Called by *egterg:
     cdiaghg      :      5.43s CPU      5.69s WALL (     355 calls)
     h_psi        :     16.97s CPU     17.37s WALL (     387 calls)
     s_psi        :      2.41s CPU      2.44s WALL (     387 calls)
     g_psi        :      0.03s CPU      0.03s WALL (     307 calls)

     Called by h_psi:
     h_psi:calbec :      3.26s CPU      3.42s WALL (     387 calls)
     vloc_psi     :     11.07s CPU     11.24s WALL (     387 calls)
                                        0.00s GPU  (     387 calls)
     add_vuspsi   :      2.48s CPU      2.54s WALL (     387 calls)

     General routines
     calbec       :      8.89s CPU      9.35s WALL (     739 calls)
     fft          :      0.43s CPU      0.49s WALL (      89 calls)
     ffts         :      0.12s CPU      0.13s WALL (      10 calls)
     fftw         :     12.74s CPU     12.93s WALL (   87566 calls)
     interpolate  :      0.12s CPU      0.13s WALL (       5 calls)

     Parallel routines

     PWSCF        :     50.31s CPU     59.04s WALL


   This run was terminated on:   0:14:46  21May2026            

=------------------------------------------------------------------------------=
   JOB DONE.
=------------------------------------------------------------------------------=
