
     Program PWSCF v.7.5 starts on 21May2026 at  0:15:53 

     This program is part of the open-source Quantum ESPRESSO suite
     for quantum simulation of materials; please cite
         "P. Giannozzi et al., J. Phys.:Condens. Matter 21 395502 (2009);
         "P. Giannozzi et al., J. Phys.:Condens. Matter 29 465901 (2017);
         "P. Giannozzi et al., J. Chem. Phys. 152 154105 (2020);
          URL http://www.quantum-espresso.org", 
     in publications or presentations arising from this work. More details at
     http://www.quantum-espresso.org/quote

     Parallel version (MPI & OpenMP), running on     192 processor cores
     Number of MPI processes:               192
     Threads/MPI process:                     1

     MPI processes distributed on     1 nodes
     480228 MiB available memory on the printing compute node when the environment starts

     Waiting for input...
     Reading input from standard input

     Current dimensions of program PWSCF are:
     Max number of different atomic species (ntypx) = 10
     Max number of k-points (npk) =  40000
     Max angular momentum in pseudopotentials (lmaxx) =  4
     file Ba.pbe-spn-kjpaw_psl.1.0.0.UPF: wavefunction(s)  5S 6S renormalized
     file Ti.pbe-spn-kjpaw_psl.1.0.0.UPF: wavefunction(s)  3S 3P 3D renormalized
     file O.pbe-n-kjpaw_psl.1.0.0.UPF: wavefunction(s)  2S 2P renormalized

     IMPORTANT: XC functional enforced from input :
     Exchange-correlation= PBE
                           (   1   4   3   4   0   0   0)
     Any further DFT definition will be discarded
     Please, verify this is what you really want

     Found identity + ( -0.5000 -0.5000  0.0000) symmetry
     This is a supercell, fractional translations are disabled

     K-points division:     npool     =       8
     R & G space division:  proc/nbgrp/npool/nimage =      24
     Subspace diagonalization in iterative solution of the eigenvalue problem:
     one sub-group per band group will be used
     ELPA distributed-memory algorithm (size of sub-group:  2*  2 procs)


     Parallelization info
     --------------------
     sticks:   dense  smooth     PW     G-vecs:    dense   smooth      PW
     Min         482     240     65                39550    13981    1967
     Max         485     242     66                39552    13987    1972
     Sum       11585    5785   1565               949235   335575   47241

     Using Slab Decomposition



     bravais-lattice index     =            6
     lattice parameter (alat)  =      15.0876  a.u.
     unit-cell volume          =    3472.3239 (a.u.)^3
     number of atoms/cell      =           40
     number of atomic types    =            3
     number of electrons       =       320.00
     number of Kohn-Sham states=          200
     kinetic-energy cutoff     =      80.0000  Ry
     charge density cutoff     =     640.0000  Ry
     scf convergence threshold =      1.0E-10
     mixing beta               =       0.3000
     number of iterations used =           16  plain     mixing
     Exchange-correlation= PBE
                           (   1   4   3   4   0   0   0)

     celldm(1)=  15.087600  celldm(2)=   0.000000  celldm(3)=   1.011020
     celldm(4)=   0.000000  celldm(5)=   0.000000  celldm(6)=   0.000000

     crystal axes: (cart. coord. in units of alat)
               a(1) = (   1.000000   0.000000   0.000000 )  
               a(2) = (   0.000000   1.000000   0.000000 )  
               a(3) = (   0.000000   0.000000   1.011020 )  

     reciprocal axes: (cart. coord. in units 2 pi/alat)
               b(1) = (  1.000000  0.000000  0.000000 )  
               b(2) = (  0.000000  1.000000  0.000000 )  
               b(3) = (  0.000000  0.000000  0.989100 )  


     PseudoPot. # 1 for Ba read from file:
     /home/kylay/scratch/BTO/pseuds/Ba.pbe-spn-kjpaw_psl.1.0.0.UPF
     MD5 check sum: 7cfe25f1fe7574a4710541d5a11d6531
     Pseudo is Projector augmented-wave + core cor, Zval = 10.0
     Generated using &quot;atomic&quot; code by A. Dal Corso  v.6.2.2
     Shape of augmentation charge: PSQ
     Using radial grid of 1251 points,  7 beta functions with: 
                l(1) =   0
                l(2) =   0
                l(3) =   0
                l(4) =   1
                l(5) =   1
                l(6) =   2
                l(7) =   2
     Q(r) pseudized with 0 coefficients 


     PseudoPot. # 2 for Ti read from file:
     /home/kylay/scratch/BTO/pseuds/Ti.pbe-spn-kjpaw_psl.1.0.0.UPF
     MD5 check sum: 01f69b0d8ba4438b2e03ac6ea4af1c0b
     Pseudo is Projector augmented-wave + core cor, Zval = 12.0
     Generated using &quot;atomic&quot; code by A. Dal Corso  v.6.2.2
     Shape of augmentation charge: PSQ
     Using radial grid of 1177 points,  6 beta functions with: 
                l(1) =   0
                l(2) =   0
                l(3) =   1
                l(4) =   1
                l(5) =   2
                l(6) =   2
     Q(r) pseudized with 0 coefficients 


     PseudoPot. # 3 for O  read from file:
     /home/kylay/scratch/BTO/pseuds/O.pbe-n-kjpaw_psl.1.0.0.UPF
     MD5 check sum: e99d9cef9b487d1ca56f5b95ecd0fd7a
     Pseudo is Projector augmented-wave + core cor, Zval =  6.0
     Generated using &quot;atomic&quot; code by A. Dal Corso  v.6.3
     Shape of augmentation charge: PSQ
     Using radial grid of 1095 points,  4 beta functions with: 
                l(1) =   0
                l(2) =   0
                l(3) =   1
                l(4) =   1
     Q(r) pseudized with 0 coefficients 


     atomic species   valence    mass     pseudopotential
     Ba               10.00   137.32700     Ba( 1.00)
     Ti               12.00    47.86700     Ti( 1.00)
     O                 6.00    15.99900     O ( 1.00)

      8 Sym. Ops. (no inversion) found



   Cartesian axes

     site n.     atom                  positions (alat units)
         1        Ba     tau(   1) = (   0.0000000   0.0000000  -0.0010787  )
         2        Ba     tau(   2) = (   0.0000000   0.0000000   0.5044220  )
         3        Ba     tau(   3) = (   0.0000000   0.5000000  -0.0010832  )
         4        Ba     tau(   4) = (   0.0000000   0.5000000   0.5044235  )
         5        Ba     tau(   5) = (   0.5000000   0.0000000  -0.0010832  )
         6        Ba     tau(   6) = (   0.5000000   0.0000000   0.5044235  )
         7        Ba     tau(   7) = (   0.5000000   0.5000000  -0.0010766  )
         8        Ba     tau(   8) = (   0.5000000   0.5000000   0.5044202  )
         9        Ti     tau(   9) = (   0.2500002   0.2500002   0.2436990  )
        10        Ti     tau(  10) = (   0.2500007   0.2500007   0.7492042  )
        11        Ti     tau(  11) = (   0.2500002   0.7499998   0.2436990  )
        12        Ti     tau(  12) = (   0.2500007   0.7499993   0.7492042  )
        13        Ti     tau(  13) = (   0.7499998   0.2500002   0.2436990  )
        14        Ti     tau(  14) = (   0.7499993   0.2500007   0.7492042  )
        15        Ti     tau(  15) = (   0.7499998   0.7499998   0.2436990  )
        16        Ti     tau(  16) = (   0.7499993   0.7499993   0.7492042  )
        17        O      tau(  17) = (   0.2500011   0.2500011   0.0113903  )
        18        O      tau(  18) = (   0.2500007   0.2500007   0.5168954  )
        19        O      tau(  19) = (   0.2500011   0.7499989   0.0113903  )
        20        O      tau(  20) = (   0.2500007   0.7499993   0.5168954  )
        21        O      tau(  21) = (   0.7499989   0.2500011   0.0113903  )
        22        O      tau(  22) = (   0.7499993   0.2500007   0.5168954  )
        23        O      tau(  23) = (   0.7499989   0.7499989   0.0113903  )
        24        O      tau(  24) = (   0.7499993   0.7499993   0.5168954  )
        25        O      tau(  25) = (   0.2500005   0.0000000   0.2592128  )
        26        O      tau(  26) = (   0.2500020   0.0000000   0.7647195  )
        27        O      tau(  27) = (   0.2499999   0.5000000   0.2592107  )
        28        O      tau(  28) = (   0.2499998   0.5000000   0.7647148  )
        29        O      tau(  29) = (   0.7499995   0.0000000   0.2592128  )
        30        O      tau(  30) = (   0.7499980   0.0000000   0.7647195  )
        31        O      tau(  31) = (   0.7500001   0.5000000   0.2592107  )
        32        O      tau(  32) = (   0.7500002   0.5000000   0.7647148  )
        33        O      tau(  33) = (   0.0000000   0.2500005   0.2592128  )
        34        O      tau(  34) = (   0.0000000   0.2500020   0.7647195  )
        35        O      tau(  35) = (   0.0000000   0.7499995   0.2592128  )
        36        O      tau(  36) = (   0.0000000   0.7499980   0.7647195  )
        37        O      tau(  37) = (   0.5000000   0.2499999   0.2592107  )
        38        O      tau(  38) = (   0.5000000   0.2499998   0.7647148  )
        39        O      tau(  39) = (   0.5000000   0.7500001   0.2592107  )
        40        O      tau(  40) = (   0.5000000   0.7500002   0.7647148  )

     number of k points=    75
                       cart. coord. in units 2pi/alat
        k(    1) = (   0.0000000   0.0000000   0.0000000), wk =   0.0039062
        k(    2) = (   0.0000000   0.0000000   0.1236375), wk =   0.0078125
        k(    3) = (   0.0000000   0.0000000   0.2472750), wk =   0.0078125
        k(    4) = (   0.0000000   0.0000000   0.3709125), wk =   0.0078125
        k(    5) = (   0.0000000   0.0000000  -0.4945501), wk =   0.0039062
        k(    6) = (   0.0000000   0.1250000   0.0000000), wk =   0.0156250
        k(    7) = (   0.0000000   0.1250000   0.1236375), wk =   0.0312500
        k(    8) = (   0.0000000   0.1250000   0.2472750), wk =   0.0312500
        k(    9) = (   0.0000000   0.1250000   0.3709125), wk =   0.0312500
        k(   10) = (   0.0000000   0.1250000  -0.4945501), wk =   0.0156250
        k(   11) = (   0.0000000   0.2500000   0.0000000), wk =   0.0156250
        k(   12) = (   0.0000000   0.2500000   0.1236375), wk =   0.0312500
        k(   13) = (   0.0000000   0.2500000   0.2472750), wk =   0.0312500
        k(   14) = (   0.0000000   0.2500000   0.3709125), wk =   0.0312500
        k(   15) = (   0.0000000   0.2500000  -0.4945501), wk =   0.0156250
        k(   16) = (   0.0000000   0.3750000   0.0000000), wk =   0.0156250
        k(   17) = (   0.0000000   0.3750000   0.1236375), wk =   0.0312500
        k(   18) = (   0.0000000   0.3750000   0.2472750), wk =   0.0312500
        k(   19) = (   0.0000000   0.3750000   0.3709125), wk =   0.0312500
        k(   20) = (   0.0000000   0.3750000  -0.4945501), wk =   0.0156250
        k(   21) = (   0.0000000  -0.5000000   0.0000000), wk =   0.0078125
        k(   22) = (   0.0000000  -0.5000000   0.1236375), wk =   0.0156250
        k(   23) = (   0.0000000  -0.5000000   0.2472750), wk =   0.0156250
        k(   24) = (   0.0000000  -0.5000000   0.3709125), wk =   0.0156250
        k(   25) = (   0.0000000  -0.5000000  -0.4945501), wk =   0.0078125
        k(   26) = (   0.1250000   0.1250000   0.0000000), wk =   0.0156250
        k(   27) = (   0.1250000   0.1250000   0.1236375), wk =   0.0312500
        k(   28) = (   0.1250000   0.1250000   0.2472750), wk =   0.0312500
        k(   29) = (   0.1250000   0.1250000   0.3709125), wk =   0.0312500
        k(   30) = (   0.1250000   0.1250000  -0.4945501), wk =   0.0156250
        k(   31) = (   0.1250000   0.2500000   0.0000000), wk =   0.0312500
        k(   32) = (   0.1250000   0.2500000   0.1236375), wk =   0.0625000
        k(   33) = (   0.1250000   0.2500000   0.2472750), wk =   0.0625000
        k(   34) = (   0.1250000   0.2500000   0.3709125), wk =   0.0625000
        k(   35) = (   0.1250000   0.2500000  -0.4945501), wk =   0.0312500
        k(   36) = (   0.1250000   0.3750000   0.0000000), wk =   0.0312500
        k(   37) = (   0.1250000   0.3750000   0.1236375), wk =   0.0625000
        k(   38) = (   0.1250000   0.3750000   0.2472750), wk =   0.0625000
        k(   39) = (   0.1250000   0.3750000   0.3709125), wk =   0.0625000
        k(   40) = (   0.1250000   0.3750000  -0.4945501), wk =   0.0312500
        k(   41) = (   0.1250000  -0.5000000   0.0000000), wk =   0.0156250
        k(   42) = (   0.1250000  -0.5000000   0.1236375), wk =   0.0312500
        k(   43) = (   0.1250000  -0.5000000   0.2472750), wk =   0.0312500
        k(   44) = (   0.1250000  -0.5000000   0.3709125), wk =   0.0312500
        k(   45) = (   0.1250000  -0.5000000  -0.4945501), wk =   0.0156250
        k(   46) = (   0.2500000   0.2500000   0.0000000), wk =   0.0156250
        k(   47) = (   0.2500000   0.2500000   0.1236375), wk =   0.0312500
        k(   48) = (   0.2500000   0.2500000   0.2472750), wk =   0.0312500
        k(   49) = (   0.2500000   0.2500000   0.3709125), wk =   0.0312500
        k(   50) = (   0.2500000   0.2500000  -0.4945501), wk =   0.0156250
        k(   51) = (   0.2500000   0.3750000   0.0000000), wk =   0.0312500
        k(   52) = (   0.2500000   0.3750000   0.1236375), wk =   0.0625000
        k(   53) = (   0.2500000   0.3750000   0.2472750), wk =   0.0625000
        k(   54) = (   0.2500000   0.3750000   0.3709125), wk =   0.0625000
        k(   55) = (   0.2500000   0.3750000  -0.4945501), wk =   0.0312500
        k(   56) = (   0.2500000  -0.5000000   0.0000000), wk =   0.0156250
        k(   57) = (   0.2500000  -0.5000000   0.1236375), wk =   0.0312500
        k(   58) = (   0.2500000  -0.5000000   0.2472750), wk =   0.0312500
        k(   59) = (   0.2500000  -0.5000000   0.3709125), wk =   0.0312500
        k(   60) = (   0.2500000  -0.5000000  -0.4945501), wk =   0.0156250
        k(   61) = (   0.3750000   0.3750000   0.0000000), wk =   0.0156250
        k(   62) = (   0.3750000   0.3750000   0.1236375), wk =   0.0312500
        k(   63) = (   0.3750000   0.3750000   0.2472750), wk =   0.0312500
        k(   64) = (   0.3750000   0.3750000   0.3709125), wk =   0.0312500
        k(   65) = (   0.3750000   0.3750000  -0.4945501), wk =   0.0156250
        k(   66) = (   0.3750000  -0.5000000   0.0000000), wk =   0.0156250
        k(   67) = (   0.3750000  -0.5000000   0.1236375), wk =   0.0312500
        k(   68) = (   0.3750000  -0.5000000   0.2472750), wk =   0.0312500
        k(   69) = (   0.3750000  -0.5000000   0.3709125), wk =   0.0312500
        k(   70) = (   0.3750000  -0.5000000  -0.4945501), wk =   0.0156250
        k(   71) = (  -0.5000000  -0.5000000   0.0000000), wk =   0.0039062
        k(   72) = (  -0.5000000  -0.5000000   0.1236375), wk =   0.0078125
        k(   73) = (  -0.5000000  -0.5000000   0.2472750), wk =   0.0078125
        k(   74) = (  -0.5000000  -0.5000000   0.3709125), wk =   0.0078125
        k(   75) = (  -0.5000000  -0.5000000  -0.4945501), wk =   0.0039062

     Dense  grid:   949235 G-vectors     FFT dimensions: ( 125, 125, 125)

     Smooth grid:   335575 G-vectors     FFT dimensions: (  90,  90,  90)

     Estimated max dynamical RAM per process >     149.90 MB

     Estimated total dynamical RAM >      24.94 GB

     The initial density is read from file :
     ./tmp/80_ecut_8_kmesh_PBE.save/charge-density

     Starting wfcs from file
     Checking if some PAW data can be deallocated... 

     total cpu time spent up to now is        7.0 secs

     per-process dynamical memory:   183.4 Mb

     Self-consistent Calculation

     iteration #  1     ecut=    80.00 Ry     beta= 0.30
     Davidson diagonalization with overlap
     ethr =  1.00E-05,  avg # of iterations =  1.1

     Threshold (ethr) on eigenvalues was too large:
     Diagonalizing with lowered threshold

     Davidson diagonalization with overlap
     ethr =  3.21E-12,  avg # of iterations =  5.1

     total cpu time spent up to now is       20.9 secs

     total energy              =   -5964.63493791 Ry
     estimated scf accuracy    <       0.00000001 Ry

     iteration #  2     ecut=    80.00 Ry     beta= 0.30
     Davidson diagonalization with overlap
     ethr =  4.52E-12,  avg # of iterations =  2.0

     total cpu time spent up to now is       27.3 secs

     total energy              =   -5964.63493791 Ry
     estimated scf accuracy    <          3.3E-09 Ry

     iteration #  3     ecut=    80.00 Ry     beta= 0.30
     Davidson diagonalization with overlap
     ethr =  1.02E-12,  avg # of iterations =  5.2

     total cpu time spent up to now is       35.5 secs

     total energy              =   -5964.63493791 Ry
     estimated scf accuracy    <          4.6E-10 Ry

     iteration #  4     ecut=    80.00 Ry     beta= 0.30
     Davidson diagonalization with overlap
     ethr =  1.45E-13,  avg # of iterations =  5.5

     total cpu time spent up to now is       44.5 secs

     total energy              =   -5964.63493791 Ry
     estimated scf accuracy    <          1.8E-10 Ry

     iteration #  5     ecut=    80.00 Ry     beta= 0.30
     Davidson diagonalization with overlap
     ethr =  1.00E-13,  avg # of iterations =  1.9

     total cpu time spent up to now is       50.9 secs

     total energy              =   -5964.63493791 Ry
     estimated scf accuracy    <          1.2E-10 Ry

     iteration #  6     ecut=    80.00 Ry     beta= 0.30
     Davidson diagonalization with overlap
     ethr =  1.00E-13,  avg # of iterations =  1.3

     total cpu time spent up to now is       56.9 secs

     End of self-consistent calculation

          k = 0.0000 0.0000 0.0000 ( 42051 PWs)   bands (ev):

   -46.1071 -46.1062 -46.1061 -46.1061 -46.1052 -46.1052 -46.1050 -46.1042
   -22.4422 -22.4387 -22.4387 -22.4360 -22.3940 -22.3918 -22.3918 -22.3897
   -22.3880 -22.3880 -22.3847 -22.3847 -22.3845 -22.3845 -22.3822 -22.3822
   -22.3338 -22.3338 -22.3320 -22.3320 -22.3317 -22.3317 -22.3300 -22.3300
   -14.4582 -14.3466 -14.3372 -14.3371 -14.2677 -14.2677 -14.2597 -14.1992
    -6.7735  -6.7735  -6.7212  -6.5307  -6.2524  -6.1394  -6.1394  -5.9049
    -5.9049  -5.9041  -5.8435  -5.8435  -5.8096  -5.7775  -5.7457  -5.7456
    -5.7426  -5.7426  -5.7341  -5.6682  -5.5748  -5.5748  -5.5132  -5.5132
    -0.3543  -0.3543  -0.2921   0.2988   0.2988   0.3149   0.3149   0.3648
     0.3705   0.3705   0.3743   0.3743   0.5275   0.5275   0.5323   0.5324
     0.5492   0.5492   0.7380   0.7422   0.7422   0.7625   0.7625   0.8063
     5.9194   6.0770   6.1022   6.1022   6.2944   6.2944   6.3336   6.3490
     6.4059   6.4059   6.5583   6.5583   6.5587   6.5801   6.5958   7.5252
     7.5252   7.5767   7.5767   7.6241   7.6241   7.6250   7.6250   7.6383
     7.6383   7.7375   7.7375   7.9229   7.9229   7.9525   8.0507   8.0854
     8.0854   8.0904   8.0904   8.3846   8.3846   8.4537   8.4572   8.4695
     8.4695   8.5500   8.5500   8.6149   8.6904   8.6904   8.7146   8.7146
     9.0492   9.0492   9.2279   9.3428   9.3428   9.3757   9.3757   9.4725
     9.4725   9.4813   9.4813   9.4995   9.4996   9.7141   9.7141   9.9942
    10.0591  10.0591  10.1756  10.1756  10.2458  10.2458  10.3372  10.4077
    12.2289  12.3751  12.5471  12.5471  12.6636  12.6636  13.9441  13.9441
    13.9726  13.9726  14.0001  14.0001  14.0062  14.0062  14.0208  14.0208
    14.0227  14.0227  14.3639  14.3639  14.3928  14.4623  14.4628  14.5492
    14.5492  14.6096  14.6096  14.6146  14.6174  15.0984  15.2985  15.2985
    15.3435  15.4899  16.2945  16.2945  16.4903  16.8974  17.1086  17.1086

          k = 0.0000 0.0000 0.1236 ( 42023 PWs)   bands (ev):

   -46.1071 -46.1063 -46.1060 -46.1060 -46.1052 -46.1052 -46.1050 -46.1042
   -22.4404 -22.4369 -22.4369 -22.4343 -22.3959 -22.3936 -22.3936 -22.3915
   -22.3878 -22.3878 -22.3849 -22.3849 -22.3844 -22.3844 -22.3822 -22.3822
   -22.3338 -22.3338 -22.3320 -22.3320 -22.3317 -22.3317 -22.3300 -22.3300
   -14.4540 -14.3509 -14.3346 -14.3345 -14.2704 -14.2704 -14.2574 -14.2016
    -6.7547  -6.7547  -6.7087  -6.5291  -6.2339  -6.1803  -6.1803  -5.9058
    -5.8868  -5.8868  -5.8414  -5.8414  -5.8084  -5.7787  -5.7552  -5.7367
    -5.7367  -5.7366  -5.7366  -5.6843  -5.5816  -5.5816  -5.5219  -5.5219
    -0.3307  -0.3307  -0.2595   0.2723   0.2723   0.3303   0.3303   0.3752
     0.3752   0.3799   0.3799   0.3819   0.5214   0.5214   0.5245   0.5246
     0.5562   0.5562   0.6895   0.7344   0.7344   0.7439   0.7439   0.7897
     5.9460   6.0778   6.1356   6.1356   6.3346   6.3346   6.3945   6.3989
     6.3989   6.4189   6.5807   6.5890   6.5890   6.5952   6.6014   7.5279
     7.5279   7.5753   7.5753   7.6139   7.6139   7.6479   7.6479   7.6587
     7.6587   7.7665   7.7665   7.8960   7.8960   7.8978   7.9195   7.9195
     7.9808   8.0744   8.0744   8.3978   8.3978   8.4788   8.5004   8.5041
     8.5046   8.5046   8.5168   8.5168   8.7089   8.7089   8.9068   8.9068
     9.0058   9.0058   9.1925   9.3089   9.3089   9.3959   9.3959   9.4187
     9.4187   9.4448   9.4448   9.4608   9.4608   9.7257   9.7257   9.9061
    10.0453  10.0453  10.1541  10.1541  10.2000  10.2000  10.3398  10.4050
    12.2342  12.3693  12.6114  12.6114  12.7215  12.7215  13.9454  13.9454
    13.9554  13.9554  13.9716  13.9716  13.9723  13.9723  14.0025  14.0025
    14.0426  14.0426  14.3383  14.3383  14.4010  14.4622  14.4624  14.5825
    14.5825  14.6085  14.6271  14.6271  14.7190  15.2211  15.2935  15.2935
    15.4180  15.5636  16.3395  16.3395  16.4375  16.8951  17.2047  17.2563

          k = 0.0000 0.0000 0.2473 ( 41979 PWs)   bands (ev):

   -46.1070 -46.1064 -46.1059 -46.1059 -46.1053 -46.1053 -46.1049 -46.1043
   -22.4352 -22.4318 -22.4318 -22.4293 -22.4011 -22.3987 -22.3987 -22.3966
   -22.3875 -22.3875 -22.3852 -22.3852 -22.3841 -22.3841 -22.3825 -22.3825
   -22.3336 -22.3336 -22.3322 -22.3322 -22.3315 -22.3315 -22.3302 -22.3302
   -14.4422 -14.3633 -14.3271 -14.3271 -14.2780 -14.2780 -14.2510 -14.2082
    -6.7001  -6.7001  -6.6740  -6.5297  -6.2746  -6.2746  -6.1808  -5.9047
    -5.8567  -5.8567  -5.8360  -5.8360  -5.8148  -5.8050  -5.7822  -5.7283
    -5.7194  -5.7194  -5.7113  -5.7112  -5.6008  -5.6008  -5.5468  -5.5468
    -0.2631  -0.2631  -0.1644   0.1978   0.1978   0.3749   0.3749   0.3890
     0.3891   0.3959   0.3959   0.4305   0.5031   0.5031   0.5041   0.5041
     0.5571   0.5761   0.5761   0.6915   0.6915   0.7125   0.7125   0.7424
     6.0025   6.0795   6.2092   6.2092   6.3798   6.3798   6.4533   6.4533
     6.5697   6.5824   6.5935   6.6128   6.6981   6.6981   6.7462   7.5353
     7.5353   7.5546   7.5546   7.5590   7.5590   7.5713   7.5713   7.7118
     7.7118   7.7119   7.7119   7.7400   7.7837   7.8499   7.8499   7.9076
     7.9076   8.0406   8.0406   8.2077   8.4232   8.4232   8.4386   8.4386
     8.5517   8.6178   8.6178   8.6269   8.7636   8.7636   8.8931   8.8931
     9.0953   9.2180   9.2180   9.2258   9.2258   9.2849   9.2849   9.3505
     9.3505   9.3698   9.3698   9.4592   9.4592   9.6783   9.7597   9.7597
    10.0057  10.0057  10.0750  10.0750  10.0859  10.0859  10.3473  10.3972
    12.2495  12.3529  12.7883  12.7883  12.8820  12.8820  13.8099  13.8099
    13.8335  13.8335  13.9488  13.9488  13.9688  13.9688  14.0142  14.0142
    14.0998  14.0998  14.2705  14.2706  14.4244  14.4616  14.4619  14.5092
    14.5092  14.5833  14.8126  14.8126  14.9917  15.2751  15.2751  15.5490
    15.6289  15.7780  16.2823  16.4835  16.4835  16.8642  17.0279  17.4566

          k = 0.0000 0.0000 0.3709 ( 41944 PWs)   bands (ev):

   -46.1068 -46.1065 -46.1058 -46.1058 -46.1055 -46.1055 -46.1048 -46.1044
   -22.4274 -22.4243 -22.4243 -22.4218 -22.4090 -22.4063 -22.4063 -22.4041
   -22.3870 -22.3870 -22.3857 -22.3857 -22.3838 -22.3838 -22.3829 -22.3829
   -22.3333 -22.3333 -22.3325 -22.3325 -22.3312 -22.3312 -22.3305 -22.3305
   -14.4243 -14.3816 -14.3160 -14.3160 -14.2894 -14.2894 -14.2412 -14.2181
    -6.6260  -6.6151  -6.6151  -6.5438  -6.3899  -6.3899  -6.1000  -5.9020
    -5.8877  -5.8363  -5.8363  -5.8303  -5.8303  -5.7998  -5.7881  -5.7875
    -5.6932  -5.6932  -5.6733  -5.6733  -5.6290  -5.6290  -5.5843  -5.5843
    -0.1607  -0.1607  -0.0157   0.0884   0.0884   0.3722   0.4115   0.4115
     0.4201   0.4201   0.4437   0.4437   0.4730   0.4731   0.4787   0.4787
     0.5026   0.6064   0.6064   0.6150   0.6150   0.6713   0.6802   0.6802
     6.0486   6.0791   6.2750   6.2750   6.3531   6.3531   6.5849   6.5910
     6.6454   6.6454   6.8370   6.8901   6.9049   6.9049   7.0139   7.2112
     7.2112   7.4117   7.4117   7.4939   7.4977   7.5452   7.5452   7.5646
     7.5646   7.7787   7.7787   7.8024   7.8024   7.8066   7.8823   7.8823
     7.9766   7.9766   7.9818   7.9818   8.2864   8.2864   8.5101   8.5101
     8.6652   8.7505   8.7505   8.7883   8.7883   8.8279   8.8517   8.8517
     8.9580   9.0951   9.0951   9.1847   9.1848   9.1905   9.1905   9.2727
     9.2727   9.3849   9.5270   9.5270   9.5694   9.5694   9.8126   9.8126
     9.9032   9.9032   9.9463   9.9463   9.9625   9.9625  10.3587  10.3857
    12.2727  12.3286  13.0393  13.0393  13.1119  13.1120  13.5885  13.5885
    13.6240  13.6240  13.9537  13.9537  13.9645  13.9645  14.0453  14.0453
    14.1837  14.1837  14.1874  14.1874  14.4070  14.4070  14.4600  14.4611
    14.4615  14.5460  15.0079  15.0079  15.2328  15.2328  15.3483  15.9432
    15.9868  16.0346  16.1139  16.6962  16.7289  16.7371  16.7371  17.0073

          k = 0.0000 0.0000-0.4946 ( 41964 PWs)   bands (ev):

   -46.1067 -46.1067 -46.1056 -46.1056 -46.1056 -46.1056 -46.1046 -46.1046
   -22.4182 -22.4182 -22.4153 -22.4153 -22.4153 -22.4153 -22.4130 -22.4130
   -22.3864 -22.3864 -22.3863 -22.3863 -22.3833 -22.3833 -22.3833 -22.3833
   -22.3329 -22.3329 -22.3329 -22.3329 -22.3309 -22.3309 -22.3308 -22.3308
   -14.4031 -14.4030 -14.3028 -14.3028 -14.3027 -14.3027 -14.2297 -14.2296
    -6.5780  -6.5779  -6.5081  -6.5081  -6.5079  -6.5079  -6.0024  -6.0023
    -5.8467  -5.8466  -5.8287  -5.8287  -5.8287  -5.8287  -5.7937  -5.7936
    -5.6616  -5.6616  -5.6614  -5.6614  -5.6287  -5.6287  -5.6286  -5.6286
    -0.0377  -0.0377  -0.0376  -0.0376   0.1708   0.1710   0.4406   0.4407
     0.4407   0.4408   0.4491   0.4491   0.4491   0.4491   0.5277   0.5277
     0.5278   0.5278   0.5872   0.5873   0.6429   0.6429   0.6429   0.6429
     6.0716   6.0717   6.3198   6.3198   6.3199   6.3199   6.5879   6.5880
     6.9020   6.9020   6.9022   6.9022   7.1607   7.1608   7.1704   7.1704
     7.1705   7.1705   7.2009   7.2010   7.3850   7.3852   7.5555   7.5555
     7.5557   7.5557   7.8392   7.8392   7.8392   7.8392   7.8990   7.8990
     7.8991   7.8991   8.1293   8.1293   8.1295   8.1295   8.6156   8.6156
     8.6157   8.6157   8.8066   8.8068   8.9664   8.9664   8.9664   8.9664
     8.9875   8.9876   8.9876   8.9876   9.0883   9.0884   9.1951   9.1951
     9.1952   9.1952   9.7236   9.7236   9.7236   9.7236   9.7763   9.7764
     9.7764   9.7764   9.8779   9.8779   9.8780   9.8780  10.3720  10.3722
    12.3003  12.3004  13.3197  13.3197  13.3198  13.3198  13.3720  13.3720
    13.3721  13.3721  13.9592  13.9592  13.9592  13.9592  14.1029  14.1029
    14.1029  14.1030  14.2943  14.2943  14.2944  14.2944  14.4611  14.4612
    14.5026  14.5027  15.1498  15.1498  15.1498  15.1498  15.7128  15.7129
    16.3161  16.3163  16.4193  16.4195  16.5392  16.5394  17.0753  17.0753

          k = 0.0000 0.1250 0.0000 ( 41983 PWs)   bands (ev):

   -46.1071 -46.1062 -46.1061 -46.1060 -46.1052 -46.1052 -46.1051 -46.1042
   -22.4421 -22.4388 -22.4386 -22.4361 -22.3939 -22.3919 -22.3917 -22.3898
   -22.3878 -22.3859 -22.3846 -22.3846 -22.3828 -22.3825 -22.3822 -22.3802
   -22.3359 -22.3340 -22.3338 -22.3338 -22.3320 -22.3319 -22.3318 -22.3300
   -14.4537 -14.3436 -14.3419 -14.3342 -14.2707 -14.2651 -14.2627 -14.2019
    -6.7602  -6.7557  -6.7023  -6.5326  -6.2754  -6.1680  -6.1195  -5.9013
    -5.8987  -5.8965  -5.8450  -5.8387  -5.8081  -5.7739  -5.7443  -5.7412
    -5.7407  -5.7395  -5.7337  -5.6771  -5.5977  -5.5817  -5.5314  -5.5217
    -0.3302  -0.3227  -0.2652   0.2877   0.3061   0.3146   0.3212   0.3431
     0.3708   0.3807   0.3854   0.3896   0.5174   0.5256   0.5273   0.5352
     0.5422   0.5499   0.6908   0.7300   0.7335   0.7431   0.7481   0.7881
     5.9481   6.1023   6.1115   6.1332   6.3197   6.3277   6.3666   6.3902
     6.3975   6.4663   6.5584   6.5642   6.6088   6.6111   6.6312   7.5464
     7.5529   7.5692   7.6019   7.6027   7.6274   7.6328   7.6362   7.6462
     7.6672   7.7347   7.7542   7.8661   7.9187   7.9527   8.0109   8.0260
     8.0344   8.0487   8.0753   8.1207   8.1862   8.3505   8.4950   8.5026
     8.5562   8.5800   8.6368   8.6846   8.7215   8.7344   8.8147   8.9286
     8.9839   9.0132   9.1880   9.2092   9.3400   9.3537   9.3635   9.4317
     9.4798   9.4942   9.5008   9.5228   9.5398   9.6400   9.6587   9.8873
    10.0157  10.0706  10.1533  10.1782  10.2046  10.2424  10.3134  10.3629
    12.3135  12.4513  12.5524  12.5775  12.6582  12.6914  13.8890  13.9190
    13.9368  13.9487  13.9591  13.9916  13.9937  14.0013  14.0066  14.0202
    14.0216  14.0295  14.3335  14.3632  14.3732  14.5332  14.5535  14.5557
    14.5784  14.5841  14.6024  14.6312  14.6669  15.1077  15.2923  15.4211
    15.4274  15.5663  16.2550  16.3495  16.5367  16.9364  17.1633  17.2061

          k = 0.0000 0.1250 0.1236 ( 41987 PWs)   bands (ev):

   -46.1070 -46.1062 -46.1061 -46.1060 -46.1053 -46.1052 -46.1050 -46.1042
   -22.4403 -22.4370 -22.4368 -22.4344 -22.3958 -22.3937 -22.3935 -22.3916
   -22.3877 -22.3858 -22.3848 -22.3845 -22.3829 -22.3824 -22.3823 -22.3803
   -22.3358 -22.3341 -22.3337 -22.3337 -22.3320 -22.3320 -22.3317 -22.3301
   -14.4496 -14.3479 -14.3392 -14.3317 -14.2735 -14.2678 -14.2604 -14.2042
    -6.7418  -6.7369  -6.6903  -6.5301  -6.2569  -6.2011  -6.1612  -5.9034
    -5.8852  -5.8799  -5.8430  -5.8364  -5.8069  -5.7753  -5.7650  -5.7385
    -5.7323  -5.7311  -5.7282  -5.6929  -5.6017  -5.5878  -5.5399  -5.5298
    -0.3096  -0.3070  -0.2238   0.2781   0.2884   0.3034   0.3301   0.3457
     0.3688   0.3863   0.3953   0.4125   0.5007   0.5105   0.5166   0.5290
     0.5491   0.5732   0.6863   0.6883   0.7241   0.7258   0.7327   0.7744
     5.9762   6.1124   6.1357   6.1689   6.3604   6.3881   6.3907   6.4022
     6.4553   6.4586   6.5891   6.5992   6.6117   6.6362   6.6366   7.5481
     7.5555   7.5630   7.6014   7.6203   7.6286   7.6296   7.6503   7.6545
     7.6858   7.7638   7.7808   7.8297   7.8567   7.9169   7.9341   7.9345
     7.9489   8.0296   8.0651   8.0663   8.1804   8.3634   8.5222   8.5251
     8.5276   8.5373   8.5980   8.7398   8.8295   8.8317   8.9163   8.9225
     8.9628   8.9700   9.1454   9.2010   9.3303   9.3633   9.3729   9.3750
     9.4430   9.4667   9.4751   9.4850   9.4877   9.6540   9.6706   9.8244
    10.0011  10.0350  10.1339  10.1558  10.1594  10.1956  10.3154  10.3637
    12.3184  12.4458  12.6166  12.6369  12.7164  12.7485  13.8903  13.9168
    13.9401  13.9410  13.9507  13.9559  13.9726  13.9808  13.9812  13.9922
    14.0045  14.0410  14.3059  14.3475  14.3713  14.5437  14.5502  14.5554
    14.5689  14.5817  14.6307  14.7136  14.7611  15.2300  15.2873  15.4233
    15.4937  15.6394  16.2998  16.3893  16.4837  16.9459  17.2426  17.2950

          k = 0.0000 0.1250 0.2473 ( 41972 PWs)   bands (ev):

   -46.1069 -46.1063 -46.1060 -46.1059 -46.1054 -46.1053 -46.1049 -46.1043
   -22.4351 -22.4320 -22.4317 -22.4294 -22.4010 -22.3988 -22.3986 -22.3967
   -22.3873 -22.3854 -22.3851 -22.3843 -22.3832 -22.3826 -22.3821 -22.3805
   -22.3356 -22.3343 -22.3335 -22.3335 -22.3322 -22.3322 -22.3316 -22.3303
   -14.4379 -14.3601 -14.3316 -14.3243 -14.2813 -14.2754 -14.2539 -14.2109
    -6.6885  -6.6823  -6.6572  -6.5280  -6.2837  -6.2562  -6.2036  -5.9039
    -5.8629  -5.8495  -5.8383  -5.8307  -5.8294  -5.8032  -5.7792  -5.7361
    -5.7220  -5.7125  -5.7100  -5.7071  -5.6153  -5.6051  -5.5639  -5.5530
    -0.2570  -0.2404  -0.1187   0.1997   0.2147   0.3488   0.3532   0.3544
     0.3786   0.4024   0.4271   0.4624   0.4636   0.4912   0.4920   0.5116
     0.5662   0.5689   0.6017   0.6708   0.6807   0.6892   0.7041   0.7350
     6.0359   6.1140   6.2088   6.2488   6.3726   6.4381   6.4815   6.5083
     6.5616   6.6133   6.6225   6.6361   6.6985   6.7368   6.7506   7.5255
     7.5340   7.5343   7.5529   7.5626   7.5975   7.6050   7.6395   7.6731
     7.6929   7.6975   7.7139   7.7339   7.7574   7.8475   7.8555   7.9097
     7.9105   7.9898   8.0334   8.1554   8.1912   8.2399   8.4035   8.4269
     8.6135   8.6448   8.6502   8.7806   8.7941   8.8577   8.8852   8.8942
     9.0379   9.1520   9.1771   9.2196   9.2413   9.2559   9.3607   9.3662
     9.3889   9.3936   9.4231   9.4335   9.4346   9.6324   9.6941   9.7055
     9.9595   9.9722  10.0364  10.0716  10.0718  10.0850  10.3212  10.3605
    12.3326  12.4302  12.7928  12.8024  12.8774  12.9064  13.7963  13.8107
    13.8299  13.8435  13.8940  13.9173  13.9543  13.9563  13.9878  14.0181
    14.0425  14.0967  14.2331  14.2796  14.3945  14.4736  14.4992  14.5500
    14.5529  14.5547  14.8144  14.9121  15.0291  15.2690  15.4064  15.5579
    15.6990  15.8523  16.3276  16.4434  16.5189  16.9195  17.0705  17.4993

          k = 0.0000 0.1250 0.3709 ( 41963 PWs)   bands (ev):

   -46.1068 -46.1065 -46.1058 -46.1058 -46.1055 -46.1054 -46.1048 -46.1045
   -22.4273 -22.4244 -22.4242 -22.4219 -22.4089 -22.4064 -22.4063 -22.4042
   -22.3868 -22.3856 -22.3849 -22.3839 -22.3837 -22.3830 -22.3818 -22.3809
   -22.3353 -22.3346 -22.3332 -22.3332 -22.3325 -22.3325 -22.3313 -22.3306
   -14.4203 -14.3782 -14.3202 -14.3132 -14.2930 -14.2867 -14.2441 -14.2209
    -6.6118  -6.6059  -6.5972  -6.5379  -6.3904  -6.3719  -6.1222  -5.9207
    -5.8895  -5.8439  -5.8339  -5.8294  -5.8245  -5.7976  -5.7960  -5.7834
    -5.6970  -5.6886  -5.6780  -5.6714  -5.6385  -5.6305  -5.5992  -5.5880
    -0.1637  -0.1394   0.0311   0.0858   0.1066   0.3706   0.3841   0.3971
     0.4010   0.4188   0.4268   0.4270   0.4575   0.4630   0.4816   0.4859
     0.5289   0.5931   0.5989   0.6251   0.6275   0.6678   0.6720   0.6753
     6.0838   6.1140   6.2731   6.3219   6.3473   6.4088   6.6157   6.6213
     6.6756   6.6824   6.8260   6.8957   6.9067   6.9336   7.0106   7.2087
     7.2318   7.4102   7.4418   7.4669   7.4731   7.5596   7.5722   7.5793
     7.5910   7.6900   7.7524   7.7935   7.8036   7.8851   7.8928   7.9104
     7.9265   7.9631   7.9750   7.9778   8.1635   8.2861   8.2879   8.4744
     8.6109   8.7149   8.7296   8.7513   8.7940   8.8812   8.9217   8.9606
     8.9838   9.0515   9.1086   9.1209   9.1905   9.2455   9.2657   9.3032
     9.3266   9.3774   9.5166   9.5402   9.5545   9.5551   9.7552   9.7598
     9.8672   9.8977   9.9007   9.9034   9.9578   9.9580  10.3302  10.3521
    12.3543  12.4072  13.0415  13.0427  13.1080  13.1324  13.5771  13.5899
    13.6210  13.6363  13.8993  13.9115  13.9641  13.9810  13.9892  14.0513
    14.1357  14.1396  14.1822  14.1923  14.3667  14.3982  14.4298  14.5153
    14.5518  14.5538  15.0071  15.1236  15.2275  15.3642  15.3870  15.9984
    16.0053  16.0783  16.1866  16.6967  16.7427  16.7549  16.7685  17.0783

          k = 0.0000 0.1250-0.4946 ( 41936 PWs)   bands (ev):

   -46.1066 -46.1066 -46.1057 -46.1057 -46.1056 -46.1056 -46.1046 -46.1046
   -22.4181 -22.4181 -22.4154 -22.4154 -22.4152 -22.4152 -22.4131 -22.4130
   -22.3862 -22.3862 -22.3843 -22.3843 -22.3834 -22.3834 -22.3813 -22.3813
   -22.3350 -22.3349 -22.3329 -22.3329 -22.3328 -22.3328 -22.3309 -22.3309
   -14.3994 -14.3993 -14.3067 -14.3066 -14.3001 -14.3000 -14.2326 -14.2325
    -6.5676  -6.5675  -6.5027  -6.5025  -6.4901  -6.4900  -6.0234  -6.0233
    -5.8515  -5.8514  -5.8344  -5.8343  -5.8224  -5.8224  -5.7910  -5.7909
    -5.6676  -5.6675  -5.6599  -5.6597  -5.6396  -5.6394  -5.6296  -5.6294
    -0.0429  -0.0428  -0.0179  -0.0178   0.2098   0.2099   0.3950   0.3951
     0.4198   0.4198   0.4309   0.4310   0.4561   0.4561   0.5043   0.5044
     0.5515   0.5516   0.6032   0.6033   0.6350   0.6351   0.6498   0.6498
     6.1069   6.1070   6.3159   6.3160   6.3721   6.3721   6.6186   6.6187
     6.9190   6.9191   6.9304   6.9305   7.1453   7.1454   7.1732   7.1733
     7.1877   7.1878   7.1954   7.1955   7.3690   7.3692   7.5677   7.5678
     7.5822   7.5823   7.8429   7.8430   7.8467   7.8467   7.8664   7.8664
     7.8981   7.8982   8.0777   8.0778   8.1290   8.1291   8.4417   8.4417
     8.5796   8.5797   8.8231   8.8231   8.9108   8.9109   8.9526   8.9527
     8.9943   8.9944   9.0886   9.0887   9.1455   9.1455   9.2267   9.2267
     9.2435   9.2436   9.6907   9.6908   9.7176   9.7176   9.7681   9.7682
     9.7843   9.7843   9.8271   9.8272   9.8283   9.8284  10.3410  10.3412
    12.3804  12.3805  13.3132  13.3133  13.3220  13.3221  13.3686  13.3687
    13.3880  13.3881  13.9054  13.9055  13.9727  13.9727  14.0523  14.0523
    14.1106  14.1106  14.2485  14.2486  14.2871  14.2872  14.4721  14.4722
    14.5528  14.5528  15.1463  15.1463  15.2768  15.2768  15.7542  15.7543
    16.3695  16.3697  16.4402  16.4404  16.6108  16.6110  17.0337  17.0338

          k = 0.0000 0.2500 0.0000 ( 41967 PWs)   bands (ev):

   -46.1070 -46.1062 -46.1061 -46.1059 -46.1053 -46.1052 -46.1050 -46.1043
   -22.4417 -22.4392 -22.4383 -22.4364 -22.3937 -22.3921 -22.3915 -22.3901
   -22.3874 -22.3850 -22.3844 -22.3825 -22.3801 -22.3771 -22.3768 -22.3745
   -22.3418 -22.3397 -22.3395 -22.3377 -22.3335 -22.3320 -22.3317 -22.3303
   -14.4409 -14.3553 -14.3352 -14.3260 -14.2794 -14.2713 -14.2578 -14.2094
    -6.7230  -6.7043  -6.6477  -6.5427  -6.3388  -6.2438  -6.0622  -5.8922
    -5.8808  -5.8715  -5.8492  -5.8250  -5.7995  -5.7644  -5.7615  -5.7509
    -5.7328  -5.7220  -5.7083  -5.7023  -5.6620  -5.6013  -5.5816  -5.5461
    -0.2612  -0.2352  -0.1834   0.2110   0.2656   0.3275   0.3399   0.3604
     0.3881   0.3988   0.4284   0.4325   0.4897   0.4982   0.5066   0.5224
     0.5508   0.5572   0.5678   0.6884   0.7068   0.7074   0.7090   0.7368
     6.0099   6.1021   6.1888   6.1956   6.3123   6.3752   6.4109   6.5125
     6.5591   6.5658   6.5659   6.6394   6.7210   6.7640   6.7689   7.4621
     7.5408   7.5969   7.6234   7.6307   7.6341   7.6344   7.6691   7.6757
     7.7077   7.7080   7.7369   7.7378   7.7494   7.7973   7.8230   7.9046
     7.9458   8.0174   8.0427   8.1666   8.2045   8.2546   8.2938   8.5769
     8.5968   8.6091   8.6869   8.6930   8.8011   8.8113   8.8315   8.9183
     8.9672   9.1377   9.1821   9.2383   9.3018   9.3030   9.3229   9.4200
     9.4236   9.4737   9.5142   9.5236   9.5539   9.5577   9.5942   9.6820
     9.9074  10.0075  10.0830  10.0927  10.1857  10.2215  10.2388  10.2515
    12.5151  12.5895  12.6433  12.6555  12.6983  12.7979  13.7299  13.7612
    13.7650  13.7851  13.9659  13.9802  14.0057  14.0078  14.0183  14.0184
    14.0547  14.0679  14.2535  14.2846  14.3999  14.4945  14.5015  14.5617
    14.5680  14.5752  14.7622  14.8119  14.9349  15.1235  15.2699  15.6449
    15.7634  15.7846  16.1342  16.5225  16.6806  16.9823  17.1476  17.3520

          k = 0.0000 0.2500 0.1236 ( 41981 PWs)   bands (ev):

   -46.1069 -46.1062 -46.1061 -46.1059 -46.1054 -46.1051 -46.1051 -46.1043
   -22.4399 -22.4374 -22.4365 -22.4347 -22.3955 -22.3939 -22.3933 -22.3918
   -22.3873 -22.3849 -22.3845 -22.3826 -22.3800 -22.3772 -22.3767 -22.3746
   -22.3417 -22.3398 -22.3394 -22.3377 -22.3335 -22.3320 -22.3317 -22.3303
   -14.4369 -14.3525 -14.3393 -14.3234 -14.2824 -14.2689 -14.2604 -14.2118
    -6.7059  -6.6855  -6.6373  -6.5377  -6.3201  -6.2621  -6.1067  -5.8953
    -5.8727  -5.8597  -5.8480  -5.8225  -5.7984  -5.7952  -5.7666  -5.7456
    -5.7259  -5.7168  -5.7150  -5.7043  -5.6554  -5.6054  -5.5892  -5.5525
    -0.2433  -0.2390  -0.1258   0.2276   0.2626   0.2956   0.3351   0.3393
     0.3752   0.4046   0.4442   0.4588   0.4615   0.4810   0.4946   0.5291
     0.5509   0.5626   0.5968   0.6686   0.6767   0.7002   0.7015   0.7306
     6.0414   6.1355   6.1892   6.2385   6.3693   6.3712   6.4490   6.5641
     6.5893   6.5896   6.5977   6.6300   6.7219   6.7716   6.7865   7.4782
     7.5332   7.5941   7.6138   7.6269   7.6384   7.6439   7.6571   7.6728
     7.6740   7.6744   7.7613   7.7652   7.7699   7.7882   7.8172   7.9074
     7.9349   7.9709   8.0346   8.0399   8.0727   8.2669   8.3139   8.5411
     8.5886   8.6325   8.6348   8.7506   8.8292   8.8586   8.8759   8.9183
     8.9511   9.1693   9.1765   9.2545   9.2712   9.2971   9.3171   9.3925
     9.4413   9.4737   9.5029   9.5113   9.5253   9.5270   9.5685   9.6344
     9.8905   9.9699  10.0495  10.0696  10.1609  10.1738  10.2389  10.2588
    12.5298  12.6422  12.6507  12.7019  12.7445  12.8516  13.7316  13.7626
    13.7670  13.8114  13.9297  13.9575  13.9700  13.9703  14.0108  14.0207
    14.0362  14.0517  14.2209  14.2925  14.3740  14.4631  14.4921  14.5486
    14.6231  14.6376  14.7619  14.9066  14.9867  15.2451  15.2650  15.7120
    15.7616  15.8563  16.1784  16.5488  16.6269  17.0200  17.1817  17.3797

          k = 0.0000 0.2500 0.2473 ( 41974 PWs)   bands (ev):

   -46.1068 -46.1062 -46.1061 -46.1058 -46.1055 -46.1052 -46.1051 -46.1044
   -22.4347 -22.4323 -22.4315 -22.4297 -22.4008 -22.3991 -22.3984 -22.3969
   -22.3870 -22.3848 -22.3846 -22.3829 -22.3796 -22.3775 -22.3765 -22.3749
   -22.3415 -22.3401 -22.3392 -22.3379 -22.3333 -22.3319 -22.3318 -22.3305
   -14.4257 -14.3510 -14.3444 -14.3162 -14.2907 -14.2679 -14.2623 -14.2186
    -6.6566  -6.6308  -6.6091  -6.5277  -6.3154  -6.2664  -6.2039  -5.8998
    -5.8735  -5.8703  -5.8454  -5.8283  -5.8159  -5.7949  -5.7767  -5.7520
    -5.7309  -5.7104  -5.6952  -5.6929  -5.6532  -5.6171  -5.6101  -5.5708
    -0.2170  -0.1751  -0.0091   0.2088   0.2597   0.2638   0.2754   0.3437
     0.3675   0.3963   0.4211   0.4579   0.4636   0.4840   0.5148   0.5331
     0.5484   0.5891   0.5907   0.6129   0.6301   0.6791   0.6803   0.7113
     6.1077   6.1900   6.2076   6.3421   6.3539   6.5400   6.5640   6.6042
     6.6612   6.6901   6.7001   6.7082   6.7245   6.8039   6.8680   7.4283
     7.5082   7.5248   7.5409   7.5623   7.5874   7.6253   7.6352   7.6537
     7.6650   7.6706   7.7197   7.7738   7.7918   7.8481   7.8637   7.8697
     7.8753   7.9129   7.9139   8.0084   8.0091   8.3054   8.3204   8.3702
     8.4412   8.5821   8.7090   8.7222   8.7641   8.7928   8.8820   9.1299
     9.1426   9.1515   9.1729   9.1925   9.2994   9.3089   9.3679   9.3681
     9.3694   9.4335   9.4491   9.4759   9.4873   9.4988   9.5646   9.5751
     9.8429   9.9020   9.9318  10.0251  10.0594  10.0835  10.2397  10.2585
    12.5491  12.6371  12.8089  12.8643  12.8780  12.9995  13.7362  13.7502
    13.7868  13.7883  13.8133  13.8388  13.8849  13.8872  13.9811  14.0294
    14.0428  14.0876  14.1344  14.3054  14.3152  14.3776  14.4602  14.4828
    14.7020  14.7606  14.8170  15.1419  15.1890  15.2474  15.5726  15.7488
    15.9008  16.0668  16.3211  16.4690  16.6386  17.0269  17.1904  17.2801

          k = 0.0000 0.2500 0.3709 ( 41966 PWs)   bands (ev):

   -46.1067 -46.1063 -46.1059 -46.1056 -46.1056 -46.1053 -46.1049 -46.1046
   -22.4270 -22.4247 -22.4239 -22.4222 -22.4086 -22.4067 -22.4060 -22.4044
   -22.3865 -22.3853 -22.3842 -22.3833 -22.3791 -22.3780 -22.3761 -22.3752
   -22.3412 -22.3404 -22.3389 -22.3382 -22.3330 -22.3322 -22.3315 -22.3308
   -14.4088 -14.3684 -14.3322 -14.3052 -14.3032 -14.2791 -14.2524 -14.2287
    -6.5813  -6.5724  -6.5457  -6.5250  -6.3962  -6.3202  -6.1837  -5.9741
    -5.8931  -5.8605  -5.8447  -5.8172  -5.8095  -5.8083  -5.7889  -5.7717
    -5.7093  -5.6913  -5.6756  -5.6660  -5.6644  -5.6387  -5.6346  -5.5987
    -0.1449  -0.0780   0.0891   0.1389   0.1593   0.2679   0.3380   0.3489
     0.3595   0.3756   0.4245   0.4273   0.4461   0.4577   0.5067   0.5315
     0.5365   0.5741   0.5778   0.6211   0.6420   0.6459   0.6491   0.6777
     6.1590   6.1893   6.2682   6.3326   6.4452   6.5664   6.7281   6.7302
     6.7538   6.7852   6.7952   6.9120   6.9172   7.0067   7.0379   7.1857
     7.2842   7.3809   7.4054   7.4104   7.5401   7.5801   7.5888   7.5970
     7.6068   7.6454   7.6642   7.7813   7.8062   7.8287   7.8894   7.9203
     7.9345   7.9630   7.9764   8.0029   8.0106   8.0349   8.2967   8.3752
     8.3891   8.4515   8.6198   8.6547   8.8124   8.8260   8.9662   9.0000
     9.1350   9.1896   9.1951   9.2009   9.2699   9.2913   9.3185   9.3548
     9.3732   9.4065   9.4633   9.4921   9.5189   9.6202   9.6233   9.6655
     9.7702   9.7739   9.8341   9.8947   9.9387   9.9469  10.2422  10.2530
    12.5701  12.6170  13.0536  13.0818  13.0964  13.2116  13.5745  13.5943
    13.6081  13.6884  13.7432  13.7635  13.8353  13.9936  13.9962  14.0220
    14.0293  14.0685  14.1672  14.2167  14.2574  14.3497  14.3721  14.4347
    14.7371  14.7575  15.0021  15.2084  15.4054  15.5240  15.7049  16.0179
    16.1825  16.2166  16.3993  16.5738  16.8193  16.8445  16.8734  17.2896

          k = 0.0000 0.2500-0.4946 ( 41964 PWs)   bands (ev):

   -46.1065 -46.1065 -46.1058 -46.1058 -46.1055 -46.1055 -46.1047 -46.1047
   -22.4178 -22.4178 -22.4158 -22.4157 -22.4150 -22.4150 -22.4133 -22.4133
   -22.3859 -22.3859 -22.3838 -22.3837 -22.3786 -22.3786 -22.3757 -22.3757
   -22.3408 -22.3408 -22.3386 -22.3386 -22.3326 -22.3326 -22.3312 -22.3311
   -14.3887 -14.3887 -14.3178 -14.3177 -14.2923 -14.2922 -14.2406 -14.2405
    -6.5404  -6.5403  -6.4901  -6.4900  -6.4385  -6.4384  -6.0822  -6.0820
    -5.8645  -5.8644  -5.8498  -5.8497  -5.8044  -5.8043  -5.7811  -5.7809
    -5.6853  -5.6851  -5.6676  -5.6674  -5.6553  -5.6551  -5.6321  -5.6320
    -0.0369  -0.0369   0.0391   0.0392   0.2937   0.2938   0.3009   0.3010
     0.3875   0.3875   0.3973   0.3974   0.4385   0.4386   0.4761   0.4761
     0.5921   0.5921   0.6130   0.6131   0.6306   0.6306   0.6419   0.6420
     6.1823   6.1824   6.3061   6.3062   6.5165   6.5166   6.7315   6.7316
     6.9624   6.9624   7.0021   7.0023   7.0998   7.0999   7.1541   7.1542
     7.1821   7.1822   7.2847   7.2848   7.3327   7.3329   7.5771   7.5772
     7.6555   7.6556   7.6864   7.6865   7.8623   7.8623   7.8935   7.8936
     7.9336   7.9336   7.9846   7.9846   8.1332   8.1333   8.1928   8.1929
     8.4817   8.4818   8.5453   8.5454   8.8930   8.8931   8.9798   8.9799
     9.0747   9.0748   9.2328   9.2328   9.2793   9.2793   9.2877   9.2877
     9.3223   9.3224   9.6030   9.6030   9.6964   9.6965   9.7041   9.7042
     9.7472   9.7473   9.7555   9.7555   9.8014   9.8015  10.2468  10.2469
    12.5935  12.5935  13.3265  13.3266  13.3292  13.3293  13.3581  13.3582
    13.4526  13.4526  13.7518  13.7518  13.9151  13.9151  14.0130  14.0131
    14.1232  14.1232  14.1324  14.1324  14.2661  14.2662  14.3913  14.3913
    14.7510  14.7511  15.1329  15.1330  15.6000  15.6000  15.8893  15.8895
    16.4772  16.4774  16.5207  16.5209  16.8224  16.8226  16.9080  16.9081

          k = 0.0000 0.3750 0.0000 ( 41969 PWs)   bands (ev):

   -46.1068 -46.1064 -46.1059 -46.1057 -46.1055 -46.1054 -46.1049 -46.1045
   -22.4411 -22.4398 -22.4378 -22.4368 -22.3933 -22.3925 -22.3912 -22.3904
   -22.3869 -22.3856 -22.3839 -22.3829 -22.3713 -22.3685 -22.3683 -22.3661
   -22.3506 -22.3483 -22.3481 -22.3462 -22.3332 -22.3324 -22.3313 -22.3306
   -14.4215 -14.3752 -14.3226 -14.3136 -14.2924 -14.2840 -14.2468 -14.2206
    -6.6703  -6.6256  -6.5693  -6.5633  -6.4288  -6.3471  -5.9751  -5.8785
    -5.8561  -5.8534  -5.8332  -5.8053  -5.7937  -5.7729  -5.7642  -5.7543
    -5.7539  -5.7377  -5.7310  -5.6953  -5.6706  -5.6507  -5.6300  -5.5828
    -0.1565  -0.1147  -0.0424   0.0987   0.1515   0.3565   0.3618   0.3699
     0.4145   0.4263   0.4313   0.4507   0.4541   0.4786   0.4932   0.4951
     0.4963   0.5908   0.5985   0.6088   0.6446   0.6620   0.6729   0.6742
     6.0617   6.0994   6.2401   6.2594   6.2917   6.3448   6.5604   6.5645
     6.5942   6.7110   6.8494   6.9023   6.9297   7.0089   7.0278   7.1630
     7.3025   7.4298   7.4645   7.5397   7.5426   7.6131   7.6212   7.6239
     7.6453   7.6647   7.7796   7.7959   7.8088   7.8502   7.8709   7.8783
     7.9284   7.9565   7.9651   7.9816   8.1146   8.1212   8.3269   8.6196
     8.6507   8.7314   8.7518   8.7615   8.7772   8.7992   8.8224   8.9370
     8.9510   9.0184   9.0863   9.1627   9.2674   9.3244   9.3338   9.3436
     9.4228   9.4234   9.5038   9.5178   9.6346   9.6474   9.6503   9.7150
     9.7727   9.8899   9.9402   9.9560  10.0622  10.1051  10.1972  10.2257
    12.5714  12.6215  12.8571  12.9230  12.9360  12.9975  13.4850  13.5057
    13.5298  13.5380  13.9947  14.0009  14.0099  14.0136  14.0156  14.0232
    14.1460  14.1485  14.1521  14.1830  14.3792  14.3878  14.4399  14.5348
    14.5683  14.5726  14.9719  14.9796  15.1224  15.2202  15.2970  15.9294
    15.9877  16.1184  16.2014  16.8026  16.8135  16.9116  16.9222  17.0226

          k = 0.0000 0.3750 0.1236 ( 41916 PWs)   bands (ev):

   -46.1068 -46.1064 -46.1059 -46.1057 -46.1055 -46.1053 -46.1049 -46.1045
   -22.4393 -22.4380 -22.4361 -22.4351 -22.3952 -22.3943 -22.3930 -22.3922
   -22.3868 -22.3854 -22.3841 -22.3830 -22.3712 -22.3686 -22.3682 -22.3662
   -22.3506 -22.3484 -22.3480 -22.3462 -22.3331 -22.3323 -22.3314 -22.3307
   -14.4178 -14.3721 -14.3264 -14.3111 -14.2956 -14.2816 -14.2494 -14.2230
    -6.6553  -6.6068  -6.5608  -6.5560  -6.4100  -6.3530  -6.0254  -5.8816
    -5.8560  -5.8503  -5.8436  -5.8271  -5.8023  -5.7734  -5.7671  -5.7597
    -5.7401  -5.7260  -5.7233  -5.6906  -5.6689  -5.6568  -5.6313  -5.5867
    -0.1357  -0.1353   0.0198   0.1165   0.1403   0.3249   0.3629   0.3877
     0.3967   0.4072   0.4112   0.4323   0.4406   0.4630   0.4997   0.5114
     0.5226   0.5843   0.5877   0.6199   0.6501   0.6615   0.6653   0.6657
     6.0953   6.1330   6.2584   6.2902   6.3404   6.3485   6.5909   6.5954
     6.6281   6.7430   6.8563   6.8896   6.9318   7.0254   7.0279   7.1883
     7.2856   7.4294   7.4395   7.5176   7.5613   7.5970   7.6245   7.6314
     7.6676   7.6797   7.7466   7.7781   7.8260   7.8612   7.8679   7.8886
     7.9102   7.9234   7.9764   7.9875   8.0472   8.1262   8.1904   8.5563
     8.5813   8.6581   8.7576   8.7634   8.7785   8.7856   8.8955   8.9681
     9.0282   9.0780   9.1072   9.1385   9.2712   9.3145   9.3387   9.3710
     9.3845   9.3957   9.4897   9.5435   9.6125   9.6182   9.6266   9.7005
     9.7522   9.8591   9.9001   9.9523  10.0533  10.1025  10.1694  10.1984
    12.6297  12.6809  12.8642  12.9320  12.9534  13.0448  13.4873  13.5158
    13.5270  13.5705  13.9521  13.9601  13.9671  14.0027  14.0289  14.0294
    14.1016  14.1131  14.1434  14.1905  14.3435  14.3793  14.4137  14.5081
    14.6409  14.6429  14.9707  15.0877  15.2159  15.2426  15.3391  15.9725
    16.0453  16.1901  16.2039  16.8252  16.8397  16.8677  16.9446  17.0974

          k = 0.0000 0.3750 0.2473 ( 41952 PWs)   bands (ev):

   -46.1067 -46.1063 -46.1060 -46.1056 -46.1056 -46.1052 -46.1050 -46.1046
   -22.4342 -22.4329 -22.4311 -22.4301 -22.4004 -22.3995 -22.3981 -22.3972
   -22.3864 -22.3852 -22.3844 -22.3833 -22.3709 -22.3689 -22.3680 -22.3664
   -22.3503 -22.3487 -22.3478 -22.3464 -22.3329 -22.3321 -22.3316 -22.3308
   -14.4073 -14.3633 -14.3374 -14.3047 -14.3039 -14.2748 -14.2567 -14.2300
    -6.6127  -6.5521  -6.5395  -6.5372  -6.3744  -6.3558  -6.1255  -5.9446
    -5.8888  -5.8622  -5.8570  -5.8016  -5.7949  -5.7942  -5.7731  -5.7473
    -5.7459  -5.7174  -5.7024  -5.6774  -5.6721  -5.6640  -5.6351  -5.5979
    -0.1321  -0.0757   0.1285   0.1366   0.1679   0.2315   0.3287   0.3395
     0.3527   0.3737   0.4164   0.4282   0.4494   0.4569   0.5183   0.5284
     0.5486   0.5657   0.5697   0.6156   0.6417   0.6453   0.6562   0.6698
     6.1656   6.2042   6.2560   6.3288   6.4241   6.5098   6.7030   6.7079
     6.7254   6.8328   6.8534   6.8812   6.9377   7.0222   7.0954   7.2244
     7.2569   7.3666   7.4279   7.4351   7.5623   7.5948   7.6066   7.6309
     7.6320   7.7103   7.7277   7.7685   7.7733   7.8633   7.8866   7.8880
     7.9099   7.9167   7.9520   7.9525   7.9598   8.0648   8.1639   8.3696
     8.4163   8.4755   8.6043   8.6460   8.8107   8.8432   9.0044   9.0181
     9.1493   9.1518   9.1682   9.2807   9.2911   9.2986   9.3007   9.3141
     9.3803   9.3951   9.4139   9.5318   9.5984   9.6080   9.6224   9.6636
     9.6957   9.7906   9.8179   9.9356  10.0106  10.0839  10.0959  10.1363
    12.7727  12.8447  12.9018  12.9206  13.0460  13.1753  13.4940  13.5181
    13.5504  13.6606  13.8158  13.8175  13.8294  13.9769  14.0083  14.0243
    14.0508  14.0735  14.1287  14.2122  14.2453  14.3442  14.3547  14.4371
    14.7788  14.8159  14.9659  15.2006  15.3682  15.4928  15.5669  16.1139
    16.1976  16.2068  16.4018  16.7074  16.8670  16.9472  16.9735  17.3088

          k = 0.0000 0.3750 0.3709 ( 41976 PWs)   bands (ev):

   -46.1065 -46.1062 -46.1061 -46.1058 -46.1055 -46.1051 -46.1051 -46.1047
   -22.4265 -22.4253 -22.4235 -22.4226 -22.4082 -22.4072 -22.4057 -22.4048
   -22.3860 -22.3848 -22.3847 -22.3837 -22.3705 -22.3694 -22.3676 -22.3668
   -22.3499 -22.3491 -22.3475 -22.3468 -22.3326 -22.3319 -22.3318 -22.3311
   -14.3915 -14.3536 -14.3500 -14.3183 -14.2932 -14.2677 -14.2646 -14.2404
    -6.5503  -6.5172  -6.5169  -6.4669  -6.4175  -6.2719  -6.2419  -6.0542
    -5.8916  -5.8719  -5.8614  -5.8443  -5.7842  -5.7788  -5.7694  -5.7538
    -5.7299  -5.7105  -5.7008  -5.6896  -5.6582  -5.6568  -5.6412  -5.6152
    -0.0848   0.0158   0.1142   0.1391   0.2403   0.2455   0.2466   0.2732
     0.3518   0.3640   0.3897   0.3920   0.4417   0.4754   0.5297   0.5329
     0.5383   0.5466   0.5905   0.6144   0.6153   0.6349   0.6496   0.6659
     6.2184   6.2518   6.2608   6.3131   6.5883   6.7494   6.7969   6.8807
     6.8932   6.9205   6.9325   6.9457   6.9635   7.0589   7.1223   7.2376
     7.2527   7.2709   7.3526   7.3577   7.3951   7.5274   7.5287   7.5429
     7.6029   7.7098   7.7354   7.7625   7.7650   7.8063   7.8648   7.8920
     7.9095   7.9192   7.9286   7.9572   8.0039   8.1567   8.1598   8.1648
     8.2360   8.3249   8.4201   8.4974   8.8540   8.8578   8.9105   9.0744
     9.0975   9.2277   9.2694   9.2837   9.2845   9.3100   9.3698   9.3767
     9.4197   9.4457   9.4597   9.4791   9.5937   9.6159   9.6215   9.6411
     9.6946   9.7013   9.7954   9.8855   9.8928   9.9364  10.0894  10.0983
    12.8536  12.9033  13.0778  13.0791  13.2000  13.3635  13.4932  13.5051
    13.6016  13.6196  13.6200  13.6326  13.7923  13.7938  13.8683  14.0513
    14.0954  14.1055  14.1064  14.1437  14.2453  14.2535  14.3137  14.3466
    14.8800  14.9544  14.9873  15.1672  15.7126  15.7785  16.0084  16.1454
    16.3671  16.4494  16.4524  16.7365  16.8254  16.9635  17.0340  17.1044

          k = 0.0000 0.3750-0.4946 ( 41966 PWs)   bands (ev):

   -46.1064 -46.1063 -46.1059 -46.1059 -46.1053 -46.1053 -46.1049 -46.1049
   -22.4173 -22.4173 -22.4162 -22.4162 -22.4146 -22.4146 -22.4137 -22.4137
   -22.3854 -22.3854 -22.3843 -22.3842 -22.3699 -22.3699 -22.3672 -22.3672
   -22.3495 -22.3495 -22.3471 -22.3471 -22.3323 -22.3323 -22.3315 -22.3315
   -14.3727 -14.3726 -14.3343 -14.3342 -14.2805 -14.2804 -14.2526 -14.2525
    -6.5078  -6.5077  -6.4802  -6.4801  -6.3600  -6.3599  -6.1676  -6.1674
    -5.8780  -5.8779  -5.8689  -5.8688  -5.7771  -5.7770  -5.7624  -5.7623
    -5.7123  -5.7122  -5.7027  -5.7025  -5.6489  -5.6487  -5.6364  -5.6363
     0.0017   0.0017   0.1264   0.1265   0.1790   0.1790   0.3425   0.3426
     0.3649   0.3650   0.3702   0.3702   0.4104   0.4104   0.5065   0.5066
     0.5806   0.5806   0.5965   0.5965   0.6266   0.6267   0.6476   0.6477
     6.2425   6.2426   6.2928   6.2929   6.7151   6.7151   6.9495   6.9496
     7.0154   7.0154   7.0233   7.0234   7.0998   7.0999   7.1115   7.1116
     7.1954   7.1956   7.2973   7.2975   7.4585   7.4587   7.4653   7.4654
     7.5044   7.5045   7.7528   7.7529   7.8752   7.8753   7.8778   7.8779
     7.9174   7.9174   7.9478   7.9479   8.0177   8.0177   8.1582   8.1583
     8.2779   8.2780   8.3504   8.3505   8.8571   8.8572   8.9426   8.9426
     9.1988   9.1988   9.2830   9.2831   9.3137   9.3137   9.3235   9.3235
     9.4895   9.4895   9.5278   9.5279   9.5929   9.5930   9.6939   9.6939
     9.7271   9.7271   9.7612   9.7613   9.8111   9.8112  10.0879  10.0881
    12.8818  12.8818  13.3336  13.3336  13.3420  13.3420  13.4012  13.4013
    13.5252  13.5253  13.5796  13.5797  13.7295  13.7296  13.9472  13.9473
    14.0794  14.0794  14.1653  14.1654  14.2322  14.2323  14.2866  14.2867
    14.9304  14.9304  15.1026  15.1026  15.9938  15.9939  16.1264  16.1265
    16.4649  16.4651  16.6984  16.6985  16.7470  16.7472  17.1616  17.1626

          k = 0.0000-0.5000 0.0000 ( 41958 PWs)   bands (ev):

   -46.1066 -46.1066 -46.1057 -46.1057 -46.1055 -46.1055 -46.1047 -46.1047
   -22.4404 -22.4404 -22.4373 -22.4373 -22.3929 -22.3929 -22.3908 -22.3908
   -22.3862 -22.3862 -22.3834 -22.3834 -22.3610 -22.3610 -22.3585 -22.3585
   -22.3582 -22.3582 -22.3562 -22.3561 -22.3328 -22.3328 -22.3310 -22.3310
   -14.3985 -14.3985 -14.3076 -14.3075 -14.2988 -14.2988 -14.2337 -14.2337
    -6.6146  -6.6146  -6.5295  -6.5295  -6.4589  -6.4589  -5.8712  -5.8712
    -5.8656  -5.8656  -5.8187  -5.8187  -5.7880  -5.7880  -5.7835  -5.7835
    -5.7372  -5.7372  -5.7207  -5.7206  -5.6630  -5.6630  -5.6265  -5.6265
    -0.0305  -0.0305   0.0188   0.0188   0.1472   0.1472   0.4059   0.4059
     0.4084   0.4084   0.4462   0.4462   0.4594   0.4594   0.5183   0.5183
     0.5708   0.5708   0.5768   0.5769   0.6314   0.6314   0.6359   0.6359
     6.0889   6.0889   6.2684   6.2684   6.3081   6.3081   6.5624   6.5624
     6.8542   6.8542   6.9779   6.9780   7.1651   7.1652   7.1977   7.1978
     7.2187   7.2188   7.2915   7.2916   7.3718   7.3718   7.6191   7.6191
     7.6582   7.6582   7.8506   7.8506   7.8884   7.8884   7.8899   7.8899
     7.8966   7.8966   7.9553   7.9553   8.0076   8.0076   8.4774   8.4774
     8.6931   8.6932   8.7787   8.7787   8.8765   8.8765   8.9126   8.9126
     8.9717   8.9717   9.1279   9.1279   9.1556   9.1556   9.2962   9.2962
     9.3119   9.3119   9.6377   9.6377   9.7621   9.7621   9.7639   9.7639
     9.7833   9.7833   9.8781   9.8781   9.9045   9.9045  10.2110  10.2110
    12.5966  12.5966  13.1818  13.1818  13.2104  13.2104  13.2416  13.2416
    13.2601  13.2602  14.0072  14.0072  14.0126  14.0126  14.0606  14.0606
    14.0875  14.0876  14.2559  14.2559  14.2643  14.2643  14.4873  14.4873
    14.5720  14.5720  15.0814  15.0815  15.1264  15.1264  15.6441  15.6441
    16.3973  16.3974  16.5414  16.5414  16.6274  16.6274  17.1779  17.1780

          k = 0.0000-0.5000 0.1236 ( 41932 PWs)   bands (ev):

   -46.1066 -46.1066 -46.1057 -46.1057 -46.1055 -46.1055 -46.1047 -46.1047
   -22.4386 -22.4386 -22.4356 -22.4356 -22.3947 -22.3947 -22.3926 -22.3926
   -22.3861 -22.3861 -22.3835 -22.3835 -22.3609 -22.3609 -22.3586 -22.3586
   -22.3581 -22.3581 -22.3562 -22.3562 -22.3327 -22.3327 -22.3310 -22.3310
   -14.3951 -14.3951 -14.3111 -14.3111 -14.2964 -14.2964 -14.2363 -14.2362
    -6.6025  -6.6025  -6.5107  -6.5106  -6.4566  -6.4566  -5.9326  -5.9325
    -5.8673  -5.8673  -5.8037  -5.8037  -5.7824  -5.7824  -5.7798  -5.7798
    -5.7334  -5.7334  -5.7241  -5.7241  -5.6612  -5.6612  -5.6275  -5.6275
    -0.0112  -0.0112  -0.0002  -0.0002   0.1976   0.1976   0.3647   0.3647
     0.3985   0.3985   0.4281   0.4281   0.4656   0.4657   0.4957   0.4957
     0.5883   0.5883   0.5885   0.5885   0.6245   0.6245   0.6420   0.6420
     6.1228   6.1228   6.3054   6.3054   6.3225   6.3225   6.5929   6.5929
     6.8847   6.8847   6.9869   6.9870   7.1550   7.1550   7.2008   7.2008
     7.2008   7.2008   7.3098   7.3098   7.3608   7.3608   7.6224   7.6225
     7.6790   7.6790   7.8318   7.8318   7.8732   7.8732   7.8871   7.8871
     7.8987   7.8988   7.9674   7.9674   7.9757   7.9757   8.3662   8.3662
     8.6528   8.6528   8.7039   8.7039   8.9417   8.9417   8.9482   8.9482
     8.9981   8.9981   9.1437   9.1437   9.1746   9.1746   9.2931   9.2932
     9.3099   9.3099   9.6133   9.6133   9.7333   9.7333   9.7470   9.7470
     9.7737   9.7737   9.8713   9.8713   9.8986   9.8986  10.1812  10.1813
    12.6564  12.6564  13.1854  13.1854  13.2282  13.2282  13.2383  13.2384
    13.2998  13.2998  13.9634  13.9634  14.0158  14.0158  14.0194  14.0194
    14.0944  14.0944  14.2154  14.2154  14.2572  14.2572  14.4608  14.4608
    14.6445  14.6445  15.1235  15.1235  15.1980  15.1980  15.6858  15.6859
    16.4425  16.4426  16.6156  16.6156  16.6399  16.6399  17.1744  17.1744

          k = 0.0000-0.5000 0.2473 ( 41938 PWs)   bands (ev):

   -46.1065 -46.1065 -46.1058 -46.1058 -46.1054 -46.1054 -46.1048 -46.1048
   -22.4335 -22.4335 -22.4306 -22.4306 -22.3999 -22.3999 -22.3976 -22.3976
   -22.3858 -22.3858 -22.3838 -22.3838 -22.3606 -22.3606 -22.3588 -22.3588
   -22.3579 -22.3579 -22.3565 -22.3564 -22.3325 -22.3325 -22.3312 -22.3312
   -14.3854 -14.3854 -14.3211 -14.3211 -14.2894 -14.2894 -14.2434 -14.2434
    -6.5695  -6.5695  -6.4561  -6.4560  -6.4537  -6.4537  -6.0337  -6.0337
    -5.8725  -5.8725  -5.8361  -5.8361  -5.7698  -5.7697  -5.7518  -5.7518
    -5.7314  -5.7313  -5.7306  -5.7306  -5.6563  -5.6563  -5.6306  -5.6306
    -0.0108  -0.0108   0.0444   0.0444   0.2718   0.2718   0.2987   0.2987
     0.3785   0.3785   0.3957   0.3957   0.4321   0.4321   0.4835   0.4835
     0.6050   0.6050   0.6132   0.6132   0.6188   0.6188   0.6355   0.6355
     6.1938   6.1938   6.2985   6.2985   6.4737   6.4737   6.7066   6.7066
     6.9690   6.9690   7.0094   7.0094   7.1290   7.1290   7.1471   7.1471
     7.2093   7.2094   7.3349   7.3349   7.3725   7.3725   7.6069   7.6070
     7.6751   7.6751   7.7321   7.7321   7.8784   7.8784   7.9009   7.9009
     7.9204   7.9204   7.9324   7.9324   8.0091   8.0091   8.1566   8.1567
     8.5017   8.5017   8.5426   8.5426   8.8999   8.8999   9.0018   9.0018
     9.1898   9.1898   9.1967   9.1967   9.2053   9.2053   9.2742   9.2743
     9.3331   9.3331   9.5469   9.5469   9.6483   9.6483   9.7157   9.7157
     9.7951   9.7951   9.8539   9.8539   9.8841   9.8841  10.0921  10.0921
    12.8202  12.8202  13.1968  13.1969  13.2287  13.2287  13.2860  13.2860
    13.4097  13.4097  13.8230  13.8230  13.8929  13.8929  14.0552  14.0552
    14.1033  14.1033  14.1143  14.1143  14.2369  14.2369  14.3903  14.3903
    14.8064  14.8064  15.1128  15.1128  15.5094  15.5094  15.8278  15.8279
    16.5722  16.5723  16.6468  16.6468  16.8318  16.8318  17.0091  17.0091

          k = 0.0000-0.5000 0.3709 ( 41926 PWs)   bands (ev):

   -46.1063 -46.1063 -46.1060 -46.1060 -46.1053 -46.1053 -46.1049 -46.1049
   -22.4259 -22.4259 -22.4230 -22.4230 -22.4077 -22.4077 -22.4052 -22.4052
   -22.3854 -22.3854 -22.3843 -22.3843 -22.3602 -22.3602 -22.3592 -22.3592
   -22.3576 -22.3576 -22.3568 -22.3568 -22.3322 -22.3322 -22.3315 -22.3315
   -14.3709 -14.3708 -14.3361 -14.3360 -14.2790 -14.2790 -14.2541 -14.2540
    -6.5255  -6.5255  -6.4601  -6.4601  -6.3713  -6.3713  -6.1486  -6.1485
    -5.8797  -5.8797  -5.8661  -5.8661  -5.7564  -5.7564  -5.7409  -5.7409
    -5.7361  -5.7361  -5.7324  -5.7324  -5.6495  -5.6495  -5.6356  -5.6356
     0.0142   0.0142   0.1295   0.1295   0.1674   0.1674   0.3392   0.3392
     0.3625   0.3625   0.3700   0.3700   0.4113   0.4113   0.5106   0.5106
     0.5763   0.5763   0.5934   0.5934   0.6358   0.6358   0.6407   0.6407
     6.2477   6.2477   6.2888   6.2888   6.6871   6.6871   6.9273   6.9273
     7.0369   7.0369   7.0534   7.0534   7.0904   7.0904   7.0968   7.0968
     7.2193   7.2194   7.3084   7.3084   7.4583   7.4583   7.4995   7.4995
     7.5029   7.5029   7.7914   7.7914   7.8622   7.8622   7.8893   7.8893
     7.8963   7.8964   7.9278   7.9278   8.0137   8.0137   8.0950   8.0950
     8.2722   8.2722   8.3901   8.3901   8.8646   8.8646   8.9409   8.9409
     9.2558   9.2558   9.2626   9.2626   9.3017   9.3017   9.3399   9.3399
     9.4548   9.4548   9.4569   9.4569   9.5156   9.5156   9.7557   9.7557
     9.8090   9.8090   9.8245   9.8245   9.8698   9.8698   9.9542   9.9542
    13.0422  13.0422  13.2125  13.2125  13.2256  13.2257  13.3917  13.3917
    13.5693  13.5693  13.6121  13.6121  13.7225  13.7225  13.9412  13.9412
    14.1111  14.1111  14.1472  14.1472  14.2059  14.2059  14.2976  14.2976
    14.9532  14.9532  15.0893  15.0893  15.9217  15.9218  16.0876  16.0877
    16.5674  16.5674  16.7480  16.7480  16.7720  16.7721  17.1712  17.1717

          k = 0.0000-0.5000-0.4946 ( 41948 PWs)   bands (ev):

   -46.1061 -46.1061 -46.1061 -46.1061 -46.1051 -46.1051 -46.1051 -46.1051
   -22.4168 -22.4168 -22.4168 -22.4168 -22.4142 -22.4142 -22.4141 -22.4141
   -22.3848 -22.3848 -22.3848 -22.3848 -22.3597 -22.3597 -22.3597 -22.3597
   -22.3572 -22.3572 -22.3572 -22.3572 -22.3319 -22.3319 -22.3319 -22.3319
   -14.3536 -14.3536 -14.3535 -14.3535 -14.2666 -14.2666 -14.2665 -14.2665
    -6.4848  -6.4848  -6.4846  -6.4846  -6.2652  -6.2652  -6.2650  -6.2650
    -5.8809  -5.8809  -5.8808  -5.8808  -5.7447  -5.7447  -5.7446  -5.7446
    -5.7357  -5.7357  -5.7356  -5.7356  -5.6422  -5.6422  -5.6421  -5.6421
     0.0762   0.0762   0.0763   0.0763   0.2327   0.2327   0.2328   0.2328
     0.3586   0.3586   0.3586   0.3586   0.5150   0.5150   0.5150   0.5150
     0.5431   0.5431   0.5432   0.5432   0.6465   0.6465   0.6466   0.6466
     6.2746   6.2746   6.2747   6.2747   6.9007   6.9007   6.9008   6.9008
     7.0656   7.0656   7.0657   7.0657   7.1745   7.1745   7.1747   7.1747
     7.2485   7.2485   7.2486   7.2486   7.3242   7.3242   7.3244   7.3244
     7.6959   7.6959   7.6960   7.6960   7.8350   7.8350   7.8351   7.8351
     7.8873   7.8873   7.8873   7.8874   8.1156   8.1156   8.1156   8.1156
     8.2295   8.2295   8.2296   8.2296   8.8738   8.8738   8.8738   8.8738
     9.3147   9.3147   9.3147   9.3147   9.3548   9.3548   9.3548   9.3548
     9.3878   9.3878   9.3879   9.3879   9.6943   9.6943   9.6943   9.6943
     9.7971   9.7971   9.7971   9.7971   9.8712   9.8712   9.8714   9.8714
    13.1815  13.1815  13.1815  13.1815  13.3694  13.3694  13.3695  13.3695
    13.5437  13.5438  13.5438  13.5438  13.7546  13.7546  13.7547  13.7547
    14.1665  14.1665  14.1666  14.1666  14.2072  14.2072  14.2072  14.2072
    15.0424  15.0424  15.0424  15.0424  16.3157  16.3157  16.3158  16.3158
    16.4211  16.4212  16.4212  16.4213  17.0227  17.0228  17.2816  17.2823

          k = 0.1250 0.1250 0.0000 ( 42013 PWs)   bands (ev):

   -46.1070 -46.1061 -46.1061 -46.1061 -46.1052 -46.1052 -46.1051 -46.1042
   -22.4419 -22.4387 -22.4387 -22.4362 -22.3938 -22.3918 -22.3918 -22.3899
   -22.3858 -22.3858 -22.3827 -22.3827 -22.3826 -22.3826 -22.3803 -22.3802
   -22.3359 -22.3358 -22.3339 -22.3339 -22.3338 -22.3338 -22.3320 -22.3320
   -14.4492 -14.3407 -14.3389 -14.3389 -14.2682 -14.2681 -14.2658 -14.2046
    -6.7429  -6.7429  -6.6834  -6.5336  -6.2950  -6.1482  -6.1482  -5.8981
    -5.8908  -5.8908  -5.8401  -5.8401  -5.8074  -5.7703  -5.7476  -5.7455
    -5.7347  -5.7346  -5.7284  -5.6853  -5.6260  -5.5830  -5.5398  -5.5398
    -0.3248  -0.2774  -0.2354   0.2923   0.2923   0.3018   0.3406   0.3583
     0.3583   0.3719   0.3769   0.4179   0.4889   0.5199   0.5200   0.5419
     0.5419   0.5588   0.6872   0.6872   0.7221   0.7324   0.7324   0.7695
     5.9779   6.1334   6.1334   6.1475   6.3224   6.3831   6.3831   6.4338
     6.4572   6.4572   6.5826   6.6124   6.6124   6.6382   6.6519   7.5722
     7.5722   7.5773   7.5912   7.5912   7.6305   7.6502   7.6521   7.6521
     7.6807   7.7501   7.7502   7.8124   7.9170   7.9332   7.9524   7.9645
     8.0385   8.0462   8.0684   8.0684   8.1697   8.2060   8.2060   8.6112
     8.6113   8.6556   8.7011   8.7011   8.7461   8.8667   8.9161   8.9214
     8.9214   8.9723   9.2098   9.2304   9.2304   9.2802   9.3634   9.4554
     9.4554   9.5039   9.5039   9.5389   9.5571   9.5571   9.6344   9.7621
    10.0267  10.0519  10.1553  10.1553  10.1839  10.2203  10.2917  10.3193
    12.3851  12.5221  12.5718  12.5960  12.6861  12.6861  13.8934  13.8934
    13.9386  13.9386  13.9401  13.9406  13.9406  13.9762  13.9855  14.0028
    14.0284  14.0284  14.3319  14.3429  14.3429  14.5501  14.5688  14.5737
    14.6360  14.6360  14.6509  14.6532  14.6701  15.1161  15.4220  15.4220
    15.4987  15.6396  16.3092  16.3092  16.5784  16.9929  17.1887  17.3017

          k = 0.1250 0.1250 0.1236 ( 41992 PWs)   bands (ev):

   -46.1070 -46.1062 -46.1060 -46.1060 -46.1052 -46.1052 -46.1051 -46.1043
   -22.4401 -22.4369 -22.4369 -22.4345 -22.3957 -22.3936 -22.3936 -22.3917
   -22.3856 -22.3856 -22.3828 -22.3828 -22.3826 -22.3825 -22.3804 -22.3803
   -22.3358 -22.3357 -22.3340 -22.3340 -22.3338 -22.3338 -22.3321 -22.3321
   -14.4452 -14.3449 -14.3363 -14.3363 -14.2709 -14.2709 -14.2635 -14.2069
    -6.7245  -6.7245  -6.6719  -6.5304  -6.2765  -6.1819  -6.1819  -5.9007
    -5.8790  -5.8790  -5.8381  -5.8381  -5.8060  -5.7743  -5.7717  -5.7397
    -5.7268  -5.7268  -5.7236  -5.7010  -5.6256  -5.5896  -5.5477  -5.5477
    -0.3022  -0.2751  -0.1847   0.2765   0.3028   0.3028   0.3102   0.3643
     0.3643   0.3730   0.3763   0.4424   0.4843   0.4954   0.4954   0.5483
     0.5599   0.5599   0.6835   0.6853   0.6853   0.7188   0.7188   0.7599
     6.0079   6.1486   6.1692   6.1692   6.3822   6.4190   6.4190   6.4499
     6.4499   6.4939   6.6204   6.6387   6.6402   6.6402   6.6513   7.5740
     7.5741   7.5800   7.5800   7.5924   7.6432   7.6432   7.6500   7.6666
     7.6976   7.7769   7.7769   7.7795   7.9074   7.9074   7.9095   7.9141
     7.9355   7.9744   8.0124   8.0362   8.1863   8.2004   8.2004   8.5477
     8.6282   8.6282   8.7662   8.8450   8.8450   8.8760   8.8788   8.8989
     8.9391   8.9391   9.2005   9.2006   9.2196   9.3027   9.3854   9.4020
     9.4020   9.5006   9.5006   9.5045   9.5045   9.5561   9.6471   9.7158
    10.0055  10.0087  10.1349  10.1349  10.1400  10.1717  10.2930  10.3246
    12.3905  12.5167  12.6336  12.6525  12.7434  12.7434  13.8956  13.8956
    13.9349  13.9373  13.9373  13.9426  13.9426  13.9523  13.9627  13.9815
    13.9815  13.9959  14.3153  14.3153  14.3400  14.5336  14.5406  14.5528
    14.6508  14.6526  14.7178  14.7178  14.7761  15.2380  15.4178  15.4178
    15.5692  15.7117  16.3487  16.3487  16.5250  17.0010  17.2742  17.3451

          k = 0.1250 0.1250 0.2473 ( 41985 PWs)   bands (ev):

   -46.1069 -46.1063 -46.1059 -46.1059 -46.1053 -46.1053 -46.1050 -46.1044
   -22.4349 -22.4319 -22.4319 -22.4295 -22.4009 -22.3987 -22.3987 -22.3967
   -22.3853 -22.3853 -22.3831 -22.3831 -22.3823 -22.3822 -22.3806 -22.3806
   -22.3356 -22.3355 -22.3342 -22.3342 -22.3336 -22.3336 -22.3323 -22.3323
   -14.4337 -14.3570 -14.3287 -14.3287 -14.2787 -14.2787 -14.2569 -14.2136
    -6.6711  -6.6711  -6.6403  -6.5257  -6.2654  -6.2654  -6.2231  -5.9027
    -5.8561  -5.8561  -5.8433  -5.8331  -5.8331  -5.8020  -5.7758  -5.7437
    -5.7229  -5.7101  -5.7060  -5.7060  -5.6308  -5.6082  -5.5700  -5.5700
    -0.2371  -0.2333  -0.0732   0.2052   0.2255   0.3284   0.3284   0.3794
     0.3874   0.3875   0.3886   0.4586   0.4586   0.4713   0.4946   0.5198
     0.5748   0.5748   0.5765   0.6795   0.6795   0.6845   0.6845   0.7313
     6.0716   6.1508   6.2487   6.2487   6.4302   6.4302   6.5280   6.5280
     6.5539   6.6399   6.6497   6.6614   6.7400   6.7400   6.7533   7.4931
     7.4931   7.5791   7.5791   7.6001   7.6001   7.6389   7.6566   7.6567
     7.6567   7.7010   7.7055   7.7276   7.7419   7.8524   7.8524   7.9040
     7.9138   7.9634   8.0051   8.0880   8.2072   8.2072   8.2351   8.2662
     8.6764   8.6764   8.7443   8.7672   8.8248   8.8834   8.8835   8.9195
     9.0466   9.0466   9.2003   9.2470   9.2470   9.2945   9.2945   9.3728
     9.4022   9.4022   9.4524   9.4529   9.4529   9.5622   9.6045   9.6840
     9.9204   9.9594  10.0183  10.0506  10.0702  10.0702  10.2971  10.3262
    12.4054  12.5016  12.8047  12.8112  12.9016  12.9016  13.7903  13.8076
    13.8393  13.8393  13.9016  13.9016  13.9367  13.9367  13.9586  13.9587
    14.0262  14.0526  14.2424  14.2424  14.3631  14.4622  14.4649  14.5218
    14.6506  14.6513  14.9147  14.9147  15.0536  15.4009  15.4009  15.5658
    15.7688  15.9224  16.3678  16.4778  16.4778  16.9698  17.1136  17.5193

          k = 0.1250 0.1250 0.3709 ( 41958 PWs)   bands (ev):

   -46.1068 -46.1064 -46.1058 -46.1058 -46.1055 -46.1055 -46.1048 -46.1045
   -22.4272 -22.4243 -22.4243 -22.4220 -22.4088 -22.4064 -22.4064 -22.4043
   -22.3848 -22.3848 -22.3836 -22.3836 -22.3819 -22.3818 -22.3810 -22.3810
   -22.3353 -22.3352 -22.3345 -22.3345 -22.3333 -22.3333 -22.3326 -22.3326
   -14.4163 -14.3748 -14.3174 -14.3173 -14.2903 -14.2903 -14.2471 -14.2236
    -6.5975  -6.5884  -6.5884  -6.5316  -6.3725  -6.3725  -6.1414  -5.9375
    -5.8907  -5.8372  -5.8372  -5.8282  -5.8282  -5.8009  -5.7960  -5.7818
    -5.6975  -5.6899  -5.6763  -5.6763  -5.6455  -5.6355  -5.6029  -5.6029
    -0.1466  -0.1386   0.0766   0.1005   0.1050   0.3564   0.3564   0.4024
     0.4073   0.4208   0.4208   0.4229   0.4361   0.4361   0.4520   0.4802
     0.5586   0.5586   0.5588   0.6577   0.6578   0.6703   0.6703   0.6851
     6.1219   6.1515   6.3197   6.3197   6.4024   6.4024   6.6420   6.6473
     6.7061   6.7061   6.8150   6.9030   6.9369   6.9369   7.0061   7.2221
     7.2221   7.4433   7.4433   7.4476   7.4506   7.5863   7.5863   7.6072
     7.6072   7.6683   7.7144   7.7862   7.7971   7.8828   7.8938   7.8998
     7.9508   7.9566   7.9618   7.9618   8.1717   8.1717   8.2510   8.3153
     8.5763   8.6135   8.7456   8.7456   8.8615   8.8615   8.9156   9.0015
     9.0380   9.0380   9.1289   9.1773   9.1773   9.2716   9.2716   9.3424
     9.3630   9.3630   9.4938   9.5437   9.5437   9.5651   9.6756   9.7417
     9.8401   9.8458   9.8884   9.8901   9.9526   9.9526  10.3039  10.3208
    12.4273  12.4792  13.0435  13.0489  13.1281  13.1281  13.5720  13.5884
    13.6327  13.6327  13.9099  13.9099  13.9284  13.9284  13.9957  13.9957
    14.1211  14.1397  14.1485  14.1485  14.3551  14.3605  14.3983  14.4838
    14.6503  14.6505  15.1237  15.1237  15.3594  15.3594  15.4173  16.0086
    16.0672  16.1165  16.2538  16.7136  16.7136  16.7896  16.8025  17.1410

          k = 0.1250 0.1250-0.4946 ( 41940 PWs)   bands (ev):

   -46.1066 -46.1066 -46.1056 -46.1056 -46.1056 -46.1056 -46.1047 -46.1047
   -22.4180 -22.4180 -22.4154 -22.4154 -22.4153 -22.4153 -22.4132 -22.4131
   -22.3842 -22.3842 -22.3842 -22.3842 -22.3815 -22.3815 -22.3814 -22.3814
   -22.3349 -22.3349 -22.3348 -22.3348 -22.3330 -22.3330 -22.3329 -22.3329
   -14.3957 -14.3956 -14.3039 -14.3039 -14.3039 -14.3038 -14.2354 -14.2353
    -6.5570  -6.5568  -6.4850  -6.4850  -6.4849  -6.4849  -6.0419  -6.0417
    -5.8552  -5.8551  -5.8282  -5.8282  -5.8281  -5.8281  -5.7890  -5.7889
    -5.6670  -5.6669  -5.6668  -5.6668  -5.6405  -5.6405  -5.6404  -5.6404
    -0.0272  -0.0272  -0.0204  -0.0203   0.2484   0.2485   0.3862   0.3862
     0.3863   0.3863   0.4295   0.4295   0.4382   0.4383   0.5012   0.5012
     0.5013   0.5013   0.6252   0.6252   0.6597   0.6598   0.6598   0.6598
     6.1451   6.1452   6.3675   6.3675   6.3676   6.3676   6.6445   6.6446
     6.9416   6.9417   6.9418   6.9418   7.1292   7.1294   7.1697   7.1697
     7.1994   7.1994   7.1995   7.1995   7.3705   7.3707   7.5950   7.5950
     7.5951   7.5951   7.8057   7.8058   7.8470   7.8471   7.8742   7.8743
     7.8884   7.8885   8.0800   8.0800   8.0801   8.0801   8.4288   8.4289
     8.4350   8.4351   8.8132   8.8132   8.8132   8.8133   9.0246   9.0247
     9.0883   9.0883   9.0884   9.0884   9.1417   9.1417   9.2755   9.2755
     9.2755   9.2755   9.6592   9.6592   9.7167   9.7167   9.7577   9.7578
     9.7754   9.7754   9.7754   9.7754   9.8135   9.8136  10.3123  10.3125
    12.4531  12.4532  13.3106  13.3107  13.3236  13.3236  13.3841  13.3841
    13.3842  13.3842  13.9192  13.9192  13.9193  13.9193  14.0603  14.0604
    14.0604  14.0604  14.2356  14.2356  14.2467  14.2468  14.4405  14.4405
    14.6501  14.6502  15.2740  15.2740  15.2740  15.2740  15.7890  15.7891
    16.4231  16.4234  16.4580  16.4582  16.6755  16.6757  17.0382  17.0382

          k = 0.1250 0.2500 0.0000 ( 42021 PWs)   bands (ev):

   -46.1069 -46.1062 -46.1060 -46.1060 -46.1053 -46.1052 -46.1051 -46.1043
   -22.4416 -22.4391 -22.4384 -22.4365 -22.3936 -22.3921 -22.3916 -22.3902
   -22.3854 -22.3830 -22.3824 -22.3806 -22.3799 -22.3770 -22.3769 -22.3746
   -22.3417 -22.3397 -22.3396 -22.3377 -22.3356 -22.3341 -22.3337 -22.3323
   -14.4366 -14.3522 -14.3323 -14.3305 -14.2768 -14.2745 -14.2608 -14.2121
    -6.7073  -6.6932  -6.6287  -6.5411  -6.3505  -6.2243  -6.0913  -5.8880
    -5.8745  -5.8673  -5.8443  -5.8264  -5.8009  -5.7660  -5.7604  -5.7513
    -5.7269  -5.7171  -5.7108  -5.7089  -5.6931  -5.5989  -5.5896  -5.5637
    -0.2701  -0.1942  -0.1413   0.2108   0.2821   0.3064   0.3145   0.3784
     0.3915   0.3946   0.4024   0.4482   0.4671   0.4871   0.4990   0.5198
     0.5594   0.5606   0.5865   0.6765   0.6879   0.6997   0.7014   0.7173
     6.0416   6.1332   6.1972   6.2296   6.3085   6.4333   6.4553   6.5330
     6.5605   6.5971   6.6285   6.6482   6.7384   6.7702   6.7722   7.4359
     7.5435   7.6156   7.6323   7.6341   7.6476   7.6517   7.6521   7.6624
     7.7098   7.7101   7.7306   7.7517   7.7577   7.7881   7.7881   7.9058
     7.9496   8.0015   8.0107   8.1196   8.1850   8.1863   8.2628   8.3305
     8.6858   8.6994   8.6997   8.7535   8.7669   8.8184   8.8634   8.9234
     8.9771   9.1759   9.1800   9.1860   9.3287   9.3333   9.3360   9.3440
     9.3541   9.4468   9.5233   9.5272   9.5349   9.5452   9.5732   9.6075
     9.9488   9.9945  10.0831  10.0838  10.1611  10.1845  10.2179  10.2229
    12.5464  12.6325  12.6712  12.7102  12.7143  12.7928  13.7343  13.7647
    13.7785  13.7886  13.9104  13.9448  13.9612  13.9789  14.0028  14.0061
    14.0247  14.0658  14.2489  14.2630  14.3695  14.4643  14.4878  14.5443
    14.6457  14.6654  14.8175  14.8667  14.9628  15.1303  15.4010  15.7225
    15.7602  15.8498  16.1862  16.4803  16.7097  17.0560  17.1946  17.3370

          k = 0.1250 0.2500 0.1236 ( 41990 PWs)   bands (ev):

   -46.1069 -46.1061 -46.1061 -46.1059 -46.1053 -46.1052 -46.1051 -46.1044
   -22.4398 -22.4373 -22.4366 -22.4348 -22.3954 -22.3939 -22.3934 -22.3919
   -22.3853 -22.3829 -22.3825 -22.3806 -22.3798 -22.3771 -22.3768 -22.3747
   -22.3417 -22.3397 -22.3395 -22.3378 -22.3355 -22.3340 -22.3338 -22.3323
   -14.4327 -14.3494 -14.3364 -14.3279 -14.2797 -14.2722 -14.2635 -14.2145
    -6.6901  -6.6747  -6.6188  -6.5355  -6.3319  -6.2429  -6.1271  -5.8916
    -5.8680  -5.8608  -5.8430  -5.8241  -5.8044  -5.7995  -5.7626  -5.7460
    -5.7234  -5.7208  -5.7109  -5.7074  -5.6798  -5.6043  -5.5967  -5.5699
    -0.2502  -0.2043  -0.0813   0.2249   0.2787   0.2888   0.3099   0.3569
     0.3763   0.3883   0.4099   0.4443   0.4537   0.4802   0.4957   0.5254
     0.5683   0.5698   0.5738   0.6754   0.6766   0.6829   0.7003   0.7205
     6.0759   6.1694   6.2304   6.2400   6.3667   6.4268   6.4889   6.5578
     6.6068   6.6192   6.6259   6.6745   6.7392   6.7740   6.7928   7.4480
     7.5172   7.6140   7.6289   7.6360   7.6368   7.6383   7.6482   7.6638
     7.6931   7.7095   7.7506   7.7523   7.7685   7.7770   7.8085   7.9055
     7.9362   7.9621   7.9977   8.0376   8.0902   8.1354   8.2596   8.3475
     8.5969   8.7125   8.7140   8.7985   8.8165   8.8331   8.8916   8.9184
     8.9658   9.1605   9.2104   9.2122   9.2916   9.3192   9.3250   9.3514
     9.3878   9.4695   9.4750   9.4983   9.4984   9.5426   9.5605   9.5737
     9.9246   9.9548  10.0416  10.0687  10.1383  10.1388  10.2224  10.2277
    12.5709  12.6739  12.7094  12.7288  12.7550  12.8465  13.7371  13.7709
    13.7855  13.8048  13.9150  13.9283  13.9505  13.9560  13.9770  13.9799
    13.9956  14.0225  14.2305  14.2569  14.3419  14.4478  14.4632  14.5167
    14.7266  14.7365  14.8670  14.9118  14.9988  15.2515  15.3967  15.7581
    15.7871  15.9198  16.2249  16.5061  16.6555  17.0833  17.2292  17.3752

          k = 0.1250 0.2500 0.2473 ( 41951 PWs)   bands (ev):

   -46.1068 -46.1062 -46.1061 -46.1058 -46.1054 -46.1052 -46.1051 -46.1045
   -22.4346 -22.4322 -22.4316 -22.4298 -22.4007 -22.3990 -22.3985 -22.3970
   -22.3849 -22.3828 -22.3826 -22.3809 -22.3795 -22.3774 -22.3766 -22.3750
   -22.3414 -22.3400 -22.3393 -22.3380 -22.3353 -22.3340 -22.3338 -22.3325
   -14.4216 -14.3479 -14.3413 -14.3204 -14.2880 -14.2712 -14.2655 -14.2214
    -6.6406  -6.6212  -6.5920  -6.5235  -6.2971  -6.2783  -6.2130  -5.8972
    -5.8854  -5.8648  -5.8401  -5.8364  -5.8182  -5.7953  -5.7736  -5.7573
    -5.7311  -5.7070  -5.6978  -5.6946  -5.6691  -5.6195  -5.6161  -5.5876
    -0.2000  -0.1712   0.0367   0.2146   0.2576   0.2672   0.2836   0.3204
     0.3686   0.3952   0.3971   0.4314   0.4330   0.4439   0.5262   0.5270
     0.5514   0.5528   0.6023   0.6053   0.6770   0.6796   0.6956   0.7192
     6.1488   6.2322   6.2483   6.3419   6.4096   6.5332   6.5933   6.5939
     6.6429   6.7124   6.7271   6.7517   6.7650   6.8021   6.8738   7.3984
     7.4895   7.5054   7.5447   7.5854   7.6098   7.6163   7.6475   7.6517
     7.6621   7.6807   7.6959   7.7962   7.8020   7.8516   7.8633   7.8665
     7.8674   7.9056   7.9115   7.9699   8.0225   8.1827   8.2538   8.3313
     8.3944   8.5680   8.6784   8.7455   8.7716   8.8692   8.8743   9.0768
     9.1443   9.1649   9.1899   9.2414   9.2920   9.3187   9.3251   9.3817
     9.3837   9.4101   9.4225   9.4661   9.4765   9.4909   9.5376   9.5879
     9.8458   9.8932   9.9270  10.0216  10.0306  10.0668  10.2217  10.2311
    12.5996  12.6955  12.8266  12.8861  12.8880  12.9944  13.7445  13.7694
    13.7848  13.7939  13.8131  13.8485  13.8780  13.8816  13.9269  13.9713
    13.9934  14.0339  14.1442  14.2687  14.2798  14.3673  14.4246  14.4491
    14.8284  14.8673  14.9199  15.1463  15.1893  15.3803  15.5788  15.7448
    15.9698  16.1258  16.3525  16.4958  16.5949  17.0676  17.2345  17.3274

          k = 0.1250 0.2500 0.3709 ( 41948 PWs)   bands (ev):

   -46.1066 -46.1063 -46.1059 -46.1057 -46.1056 -46.1053 -46.1049 -46.1046
   -22.4268 -22.4246 -22.4240 -22.4223 -22.4085 -22.4066 -22.4061 -22.4045
   -22.3845 -22.3833 -22.3822 -22.3813 -22.3790 -22.3779 -22.3762 -22.3754
   -22.3411 -22.3403 -22.3390 -22.3383 -22.3350 -22.3343 -22.3335 -22.3328
   -14.4050 -14.3651 -14.3292 -14.3092 -14.3004 -14.2826 -14.2555 -14.2316
    -6.5650  -6.5577  -6.5382  -6.5175  -6.3788  -6.3214  -6.1959  -5.9866
    -5.8924  -5.8546  -5.8391  -5.8193  -5.8178  -5.8119  -5.7886  -5.7713
    -5.7093  -5.6900  -5.6832  -5.6720  -5.6715  -5.6426  -5.6414  -5.6137
    -0.1262  -0.0828   0.1028   0.1520   0.1831   0.2724   0.3391   0.3393
     0.3398   0.3747   0.4035   0.4152   0.4156   0.4620   0.4813   0.4856
     0.4944   0.5159   0.6114   0.6400   0.6780   0.6787   0.6880   0.7012
     6.2044   6.2331   6.3146   6.3857   6.4408   6.5570   6.7413   6.7443
     6.7714   6.7841   6.7869   6.9310   6.9514   6.9986   7.0415   7.1855
     7.2655   7.3773   7.3867   7.4533   7.5324   7.5631   7.6053   7.6142
     7.6175   7.6582   7.6914   7.7650   7.7689   7.8303   7.8879   7.9120
     7.9210   7.9330   7.9642   8.0129   8.0270   8.0458   8.1977   8.2638
     8.3888   8.4601   8.5336   8.6393   8.7756   8.8102   8.9389   9.1206
     9.1412   9.1630   9.1752   9.2610   9.2655   9.2966   9.3005   9.3319
     9.4135   9.4214   9.4645   9.5170   9.5439   9.5733   9.6087   9.6588
     9.7575   9.7654   9.8231   9.8772   9.9315   9.9395  10.2221  10.2284
    12.6243  12.6746  13.0603  13.0892  13.1155  13.2065  13.5718  13.5973
    13.6184  13.6833  13.7548  13.7818  13.8429  13.9430  13.9784  13.9860
    14.0141  14.0318  14.1171  14.1738  14.2480  14.3146  14.3315  14.4005
    14.8559  14.8667  15.1214  15.3416  15.4080  15.5339  15.7017  16.0253
    16.2401  16.2439  16.4521  16.5877  16.7749  16.8673  16.9211  17.3298

          k = 0.1250 0.2500-0.4946 ( 41984 PWs)   bands (ev):

   -46.1065 -46.1065 -46.1057 -46.1057 -46.1055 -46.1055 -46.1048 -46.1048
   -22.4177 -22.4177 -22.4157 -22.4157 -22.4151 -22.4151 -22.4134 -22.4134
   -22.3839 -22.3839 -22.3818 -22.3818 -22.3785 -22.3785 -22.3758 -22.3758
   -22.3407 -22.3407 -22.3387 -22.3387 -22.3347 -22.3346 -22.3332 -22.3332
   -14.3851 -14.3851 -14.3149 -14.3148 -14.2960 -14.2959 -14.2436 -14.2435
    -6.5291  -6.5290  -6.4733  -6.4732  -6.4345  -6.4343  -6.0946  -6.0945
    -5.8657  -5.8657  -5.8439  -5.8438  -5.8102  -5.8101  -5.7804  -5.7803
    -5.6869  -5.6868  -5.6689  -5.6687  -5.6645  -5.6643  -5.6434  -5.6433
    -0.0203  -0.0203   0.0309   0.0310   0.2968   0.2969   0.3394   0.3394
     0.3670   0.3671   0.3933   0.3933   0.4170   0.4171   0.4430   0.4430
     0.4932   0.4932   0.6640   0.6640   0.6664   0.6664   0.6814   0.6814
     6.2277   6.2278   6.3562   6.3563   6.5088   6.5089   6.7444   6.7444
     6.9696   6.9697   7.0037   7.0038   7.0815   7.0816   7.1335   7.1335
     7.2137   7.2138   7.2861   7.2862   7.3630   7.3632   7.6043   7.6044
     7.6600   7.6601   7.6705   7.6706   7.8505   7.8506   7.8623   7.8623
     7.9336   7.9336   7.9891   7.9891   8.0907   8.0908   8.2068   8.2069
     8.3842   8.3843   8.5376   8.5377   8.7835   8.7836   9.0368   9.0368
     9.1272   9.1272   9.2108   9.2108   9.2529   9.2529   9.3321   9.3322
     9.3825   9.3825   9.5868   9.5868   9.6674   9.6675   9.7042   9.7042
     9.7424   9.7425   9.7522   9.7522   9.7907   9.7907  10.2244  10.2246
    12.6498  12.6499  13.3210  13.3211  13.3402  13.3403  13.3722  13.3722
    13.4475  13.4476  13.7670  13.7671  13.9242  13.9242  13.9609  13.9609
    14.0832  14.0833  14.1147  14.1147  14.2205  14.2206  14.3565  14.3566
    14.8640  14.8640  15.2626  15.2627  15.5993  15.5993  15.9074  15.9075
    16.4891  16.4893  16.5746  16.5748  16.8693  16.8694  16.9104  16.9105

          k = 0.1250 0.3750 0.0000 ( 41967 PWs)   bands (ev):

   -46.1068 -46.1063 -46.1059 -46.1058 -46.1055 -46.1054 -46.1049 -46.1045
   -22.4410 -22.4396 -22.4380 -22.4369 -22.3932 -22.3924 -22.3913 -22.3905
   -22.3848 -22.3835 -22.3820 -22.3810 -22.3712 -22.3685 -22.3684 -22.3662
   -22.3505 -22.3483 -22.3482 -22.3462 -22.3352 -22.3344 -22.3334 -22.3326
   -14.4175 -14.3718 -14.3198 -14.3178 -14.2897 -14.2875 -14.2497 -14.2234
    -6.6572  -6.6175  -6.5639  -6.5442  -6.4321  -6.3278  -6.0046  -5.8733
    -5.8510  -5.8496  -5.8312  -5.8065  -5.8013  -5.7794  -5.7771  -5.7647
    -5.7515  -5.7401  -5.7257  -5.6905  -5.6800  -5.6581  -5.6261  -5.5992
    -0.1710  -0.0855   0.0076   0.0919   0.1703   0.3306   0.3447   0.3837
     0.4005   0.4050   0.4215   0.4391   0.4602   0.4679   0.4704   0.4888
     0.5280   0.5869   0.6123   0.6237   0.6417   0.6531   0.6597   0.6669
     6.0940   6.1306   6.2428   6.2901   6.3068   6.4005   6.5862   6.5977
     6.6181   6.7573   6.8604   6.8879   6.9416   7.0132   7.0225   7.1487
     7.3232   7.4347   7.4602   7.5157   7.5329   7.6108   7.6409   7.6458
     7.6471   7.6642   7.7407   7.7971   7.8187   7.8245   7.8800   7.8822
     7.9339   7.9412   7.9625   8.0215   8.0533   8.1363   8.3396   8.3608
     8.6049   8.6840   8.7088   8.7267   8.8303   8.8500   8.9079   8.9171
     8.9655   9.0938   9.0954   9.1489   9.2102   9.2832   9.2863   9.3764
     9.4029   9.4270   9.4784   9.4971   9.6319   9.6587   9.6860   9.6878
     9.8095   9.8925   9.9345   9.9534  10.0244  10.0985  10.1704  10.1960
    12.5963  12.6492  12.8858  12.9335  12.9821  12.9928  13.4907  13.5123
    13.5329  13.5579  13.9357  13.9547  13.9693  13.9950  14.0188  14.0193
    14.0989  14.1414  14.1431  14.1619  14.3461  14.3737  14.4094  14.5039
    14.6543  14.6636  14.9851  15.0896  15.1279  15.3345  15.3514  15.9779
    16.0642  16.1740  16.2030  16.7689  16.8573  16.9362  16.9570  17.0817

          k = 0.1250 0.3750 0.1236 ( 41953 PWs)   bands (ev):

   -46.1067 -46.1063 -46.1059 -46.1058 -46.1055 -46.1054 -46.1049 -46.1045
   -22.4392 -22.4379 -22.4362 -22.4352 -22.3951 -22.3942 -22.3931 -22.3923
   -22.3847 -22.3834 -22.3821 -22.3811 -22.3711 -22.3686 -22.3683 -22.3663
   -22.3505 -22.3484 -22.3481 -22.3463 -22.3352 -22.3344 -22.3334 -22.3327
   -14.4139 -14.3688 -14.3236 -14.3152 -14.2929 -14.2851 -14.2524 -14.2259
    -6.6421  -6.5990  -6.5550  -6.5373  -6.4135  -6.3340  -6.0449  -5.8767
    -5.8624  -5.8509  -5.8409  -5.8319  -5.8037  -5.7772  -5.7661  -5.7603
    -5.7422  -5.7407  -5.7215  -5.6869  -5.6786  -5.6636  -5.6289  -5.6031
    -0.1541  -0.1000   0.0659   0.1081   0.1583   0.3162   0.3296   0.3961
     0.4012   0.4046   0.4101   0.4156   0.4214   0.4574   0.4721   0.4809
     0.5534   0.5565   0.5743   0.6516   0.6635   0.6644   0.6655   0.6726
     6.1310   6.1674   6.2923   6.3056   6.3460   6.3954   6.6110   6.6237
     6.6483   6.7832   6.8701   6.8750   6.9450   7.0190   7.0320   7.1705
     7.2971   7.4200   7.4653   7.4888   7.5512   7.6012   7.6509   7.6544
     7.6681   7.6800   7.7067   7.7755   7.8341   7.8387   7.8765   7.8866
     7.8927   7.9346   7.9438   8.0412   8.0619   8.0662   8.2057   8.3601
     8.5365   8.6411   8.6614   8.7007   8.8318   8.8950   8.9406   8.9726
     8.9742   9.1294   9.1443   9.1677   9.1709   9.2634   9.2960   9.3904
     9.3996   9.4048   9.4660   9.5338   9.5876   9.6458   9.6492   9.6922
     9.7894   9.8576   9.8935   9.9485  10.0206  10.0953  10.1446  10.1718
    12.6530  12.7073  12.8944  12.9628  12.9778  13.0399  13.4949  13.5221
    13.5545  13.5652  13.9448  13.9451  13.9704  13.9707  13.9709  13.9757
    14.0848  14.1073  14.1232  14.1492  14.3281  14.3473  14.3816  14.4760
    14.7345  14.7413  15.0891  15.0931  15.2479  15.3476  15.3672  16.0150
    16.1187  16.2044  16.2434  16.7800  16.8810  16.8941  16.9827  17.1490

          k = 0.1250 0.3750 0.2473 ( 41954 PWs)   bands (ev):

   -46.1066 -46.1062 -46.1060 -46.1057 -46.1056 -46.1053 -46.1050 -46.1046
   -22.4341 -22.4328 -22.4312 -22.4302 -22.4003 -22.3994 -22.3981 -22.3973
   -22.3844 -22.3832 -22.3824 -22.3813 -22.3708 -22.3689 -22.3681 -22.3665
   -22.3502 -22.3486 -22.3479 -22.3465 -22.3350 -22.3342 -22.3336 -22.3329
   -14.4035 -14.3600 -14.3344 -14.3080 -14.3019 -14.2782 -14.2598 -14.2329
    -6.5991  -6.5453  -6.5323  -6.5198  -6.3597  -6.3563  -6.1346  -5.9548
    -5.8848  -5.8585  -5.8517  -5.8051  -5.8015  -5.7963  -5.7758  -5.7481
    -5.7456  -5.7173  -5.7147  -5.6777  -5.6776  -5.6746  -5.6368  -5.6139
    -0.1195  -0.0751   0.1398   0.1602   0.1811   0.2355   0.3289   0.3295
     0.3336   0.3726   0.3903   0.4166   0.4203   0.4761   0.4797   0.4864
     0.4923   0.5263   0.6092   0.6333   0.6745   0.6763   0.6870   0.7002
     6.2098   6.2462   6.3032   6.3820   6.4228   6.5046   6.7057   6.7227
     6.7378   6.8381   6.8520   6.9055   6.9596   7.0131   7.0978   7.2228
     7.2333   7.3715   7.4014   7.4745   7.5650   7.5778   7.6065   7.6301
     7.6533   7.7142   7.7455   7.7473   7.7604   7.8705   7.8734   7.8892
     7.8986   7.9184   7.9220   7.9639   7.9863   8.0929   8.1067   8.3308
     8.3723   8.4063   8.5645   8.5810   8.8213   8.8710   8.8859   9.1281
     9.1310   9.1372   9.1972   9.2130   9.2302   9.2544   9.3270   9.3587
     9.4163   9.4336   9.4408   9.5001   9.6016   9.6080   9.6276   9.6747
     9.7237   9.7889   9.8098   9.9291   9.9835  10.0650  10.0872  10.1173
    12.7953  12.8674  12.9304  12.9653  13.0546  13.1700  13.5053  13.5436
    13.5575  13.6546  13.8046  13.8335  13.8339  13.9694  13.9694  13.9972
    14.0182  14.0188  14.0824  14.1714  14.2352  14.3079  14.3166  14.4018
    14.9003  14.9227  15.0864  15.3337  15.3736  15.5001  15.5719  16.1402
    16.1965  16.2735  16.4480  16.7188  16.8204  16.9977  16.9999  17.3055

          k = 0.1250 0.3750 0.3709 ( 41947 PWs)   bands (ev):

   -46.1065 -46.1061 -46.1061 -46.1057 -46.1055 -46.1052 -46.1051 -46.1048
   -22.4263 -22.4252 -22.4236 -22.4227 -22.4081 -22.4071 -22.4058 -22.4049
   -22.3840 -22.3828 -22.3827 -22.3818 -22.3704 -22.3693 -22.3677 -22.3669
   -22.3498 -22.3490 -22.3476 -22.3468 -22.3347 -22.3339 -22.3339 -22.3332
   -14.3878 -14.3504 -14.3468 -14.3154 -14.2970 -14.2710 -14.2679 -14.2434
    -6.5359  -6.5077  -6.5016  -6.4619  -6.4007  -6.2767  -6.2444  -6.0623
    -5.8889  -5.8674  -5.8561  -5.8440  -5.7878  -5.7876  -5.7708  -5.7537
    -5.7314  -5.7097  -5.7097  -5.6933  -5.6684  -5.6645  -5.6484  -5.6300
    -0.0691   0.0072   0.1247   0.1497   0.2268   0.2311   0.2501   0.3155
     0.3342   0.3596   0.3751   0.3806   0.4111   0.4322   0.4799   0.4813
     0.4856   0.5597   0.5639   0.6589   0.6677   0.6904   0.7001   0.7082
     6.2680   6.2999   6.3081   6.3640   6.5787   6.7379   6.7808   6.8730
     6.8886   6.8903   6.9161   7.0038   7.0167   7.0432   7.1152   7.2338
     7.2377   7.2923   7.3297   7.3417   7.4493   7.5428   7.5513   7.5673
     7.5981   7.6577   7.6961   7.7454   7.8247   7.8612   7.8696   7.8733
     7.8916   7.9068   7.9263   7.9420   7.9920   8.1446   8.1675   8.1810
     8.1844   8.2473   8.4039   8.4345   8.7845   8.7998   8.8636   9.0038
     9.1491   9.2333   9.2634   9.2948   9.2964   9.3539   9.3722   9.4051
     9.4238   9.4662   9.4745   9.5031   9.6112   9.6341   9.6391   9.6463
     9.6822   9.6844   9.7811   9.8683   9.8826   9.9266  10.0787  10.0837
    12.8886  12.9461  13.0912  13.0952  13.2088  13.3576  13.5136  13.5202
    13.5953  13.6287  13.6334  13.6421  13.7852  13.7870  13.8789  13.9997
    14.0433  14.0583  14.0921  14.0963  14.2053  14.2115  14.2726  14.3080
    15.0104  15.0783  15.1107  15.3012  15.7178  15.7777  16.0141  16.1451
    16.3760  16.4602  16.5089  16.7725  16.8404  16.9149  17.0311  17.1524

          k = 0.1250 0.3750-0.4946 ( 41980 PWs)   bands (ev):

   -46.1063 -46.1063 -46.1059 -46.1059 -46.1053 -46.1053 -46.1050 -46.1049
   -22.4172 -22.4172 -22.4161 -22.4161 -22.4147 -22.4147 -22.4138 -22.4138
   -22.3834 -22.3834 -22.3823 -22.3822 -22.3698 -22.3698 -22.3673 -22.3673
   -22.3494 -22.3494 -22.3472 -22.3472 -22.3343 -22.3343 -22.3335 -22.3335
   -14.3692 -14.3692 -14.3312 -14.3311 -14.2841 -14.2840 -14.2557 -14.2557
    -6.4954  -6.4953  -6.4648  -6.4647  -6.3579  -6.3578  -6.1737  -6.1736
    -5.8767  -5.8766  -5.8639  -5.8638  -5.7829  -5.7828  -5.7629  -5.7628
    -5.7162  -5.7161  -5.7041  -5.7039  -5.6598  -5.6597  -5.6481  -5.6480
     0.0154   0.0154   0.1137   0.1137   0.1867   0.1867   0.3196   0.3197
     0.3508   0.3509   0.3621   0.3621   0.4483   0.4484   0.4547   0.4547
     0.4817   0.4818   0.6286   0.6286   0.6939   0.6939   0.7003   0.7003
     6.2921   6.2922   6.3420   6.3420   6.6994   6.6995   6.9352   6.9353
     7.0007   7.0007   7.0011   7.0012   7.0996   7.0997   7.1151   7.1151
     7.2383   7.2385   7.3420   7.3422   7.4434   7.4436   7.4517   7.4518
     7.5307   7.5309   7.7733   7.7734   7.7971   7.7971   7.8772   7.8773
     7.9208   7.9209   8.0009   8.0009   8.0076   8.0077   8.1232   8.1233
     8.2660   8.2660   8.2953   8.2953   8.7612   8.7612   8.9015   8.9015
     9.2175   9.2175   9.2966   9.2967   9.3290   9.3290   9.3771   9.3771
     9.4932   9.4932   9.5434   9.5434   9.6098   9.6099   9.6924   9.6924
     9.7288   9.7288   9.7440   9.7440   9.7980   9.7980  10.0753  10.0754
    12.9216  12.9217  13.3443  13.3444  13.3462  13.3463  13.4115  13.4115
    13.5435  13.5435  13.5732  13.5733  13.7395  13.7396  13.9390  13.9391
    14.0298  14.0299  14.1176  14.1176  14.1854  14.1854  14.2476  14.2476
    15.0583  15.0583  15.2347  15.2348  15.9970  15.9970  16.1293  16.1294
    16.4736  16.4737  16.6981  16.6982  16.7997  16.8001  17.1854  17.1876

          k = 0.1250-0.5000 0.0000 ( 41916 PWs)   bands (ev):

   -46.1065 -46.1065 -46.1057 -46.1057 -46.1056 -46.1056 -46.1047 -46.1047
   -22.4403 -22.4403 -22.4375 -22.4375 -22.3928 -22.3928 -22.3909 -22.3909
   -22.3842 -22.3842 -22.3815 -22.3815 -22.3609 -22.3609 -22.3584 -22.3584
   -22.3583 -22.3583 -22.3562 -22.3562 -22.3348 -22.3348 -22.3330 -22.3330
   -14.3948 -14.3948 -14.3048 -14.3048 -14.3027 -14.3027 -14.2366 -14.2366
    -6.6050  -6.6050  -6.5261  -6.5261  -6.4397  -6.4397  -5.9002  -5.9002
    -5.8603  -5.8603  -5.8192  -5.8192  -5.7886  -5.7886  -5.7844  -5.7844
    -5.7328  -5.7327  -5.7268  -5.7268  -5.6586  -5.6586  -5.6404  -5.6404
    -0.0432  -0.0432   0.0413   0.0413   0.1899   0.1899   0.3643   0.3643
     0.3885   0.3885   0.4326   0.4326   0.4544   0.4544   0.5387   0.5387
     0.5538   0.5538   0.5928   0.5928   0.6297   0.6297   0.6382   0.6382
     6.1206   6.1206   6.2693   6.2693   6.3605   6.3605   6.5944   6.5944
     6.8587   6.8587   7.0160   7.0160   7.1459   7.1459   7.1989   7.1990
     7.2127   7.2127   7.2921   7.2921   7.3675   7.3675   7.6435   7.6436
     7.6543   7.6543   7.8416   7.8416   7.8493   7.8493   7.8889   7.8889
     7.9324   7.9324   7.9410   7.9410   8.0190   8.0190   8.4620   8.4621
     8.5341   8.5341   8.7041   8.7041   8.9823   8.9823   8.9839   8.9839
     8.9944   8.9944   9.0497   9.0497   9.0766   9.0766   9.3189   9.3189
     9.3445   9.3445   9.6420   9.6420   9.7584   9.7584   9.7744   9.7744
     9.7846   9.7846   9.8449   9.8449   9.9101   9.9101  10.1824  10.1824
    12.6236  12.6236  13.1942  13.1942  13.2198  13.2198  13.2555  13.2555
    13.2773  13.2773  13.9472  13.9472  14.0106  14.0106  14.0402  14.0402
    14.0715  14.0715  14.2182  14.2182  14.2518  14.2518  14.4566  14.4566
    14.6602  14.6602  15.0866  15.0866  15.2537  15.2537  15.6878  15.6879
    16.4650  16.4651  16.5952  16.5952  16.6417  16.6417  17.1300  17.1300

          k = 0.1250-0.5000 0.1236 ( 41928 PWs)   bands (ev):

   -46.1065 -46.1065 -46.1057 -46.1057 -46.1056 -46.1056 -46.1047 -46.1047
   -22.4385 -22.4385 -22.4357 -22.4357 -22.3947 -22.3947 -22.3927 -22.3927
   -22.3841 -22.3841 -22.3816 -22.3816 -22.3608 -22.3608 -22.3585 -22.3585
   -22.3582 -22.3582 -22.3563 -22.3563 -22.3348 -22.3348 -22.3330 -22.3330
   -14.3915 -14.3914 -14.3083 -14.3083 -14.3002 -14.3002 -14.2392 -14.2391
    -6.5927  -6.5927  -6.5075  -6.5075  -6.4377  -6.4377  -5.9495  -5.9494
    -5.8620  -5.8620  -5.8033  -5.8033  -5.7932  -5.7932  -5.7809  -5.7809
    -5.7301  -5.7301  -5.7299  -5.7298  -5.6581  -5.6581  -5.6415  -5.6415
    -0.0271  -0.0271   0.0260   0.0260   0.2383   0.2383   0.3563   0.3564
     0.3611   0.3611   0.4282   0.4282   0.4394   0.4394   0.4940   0.4940
     0.5377   0.5377   0.6158   0.6158   0.6516   0.6516   0.6551   0.6552
     6.1580   6.1580   6.3226   6.3226   6.3572   6.3572   6.6196   6.6196
     6.8858   6.8858   7.0180   7.0180   7.1351   7.1351   7.1801   7.1801
     7.2184   7.2184   7.3096   7.3096   7.3673   7.3673   7.6478   7.6478
     7.6764   7.6764   7.8019   7.8019   7.8597   7.8597   7.8668   7.8668
     7.9374   7.9374   7.9529   7.9529   7.9871   7.9871   8.3713   8.3713
     8.5044   8.5044   8.6565   8.6565   8.9299   8.9299   9.0337   9.0337
     9.0494   9.0494   9.0852   9.0852   9.0955   9.0955   9.3030   9.3030
     9.3589   9.3589   9.6276   9.6276   9.7328   9.7328   9.7493   9.7494
     9.7668   9.7668   9.8496   9.8496   9.9036   9.9036  10.1548  10.1548
    12.6818  12.6818  13.2004  13.2004  13.2365  13.2365  13.2735  13.2735
    13.2949  13.2949  13.9603  13.9603  13.9615  13.9615  14.0270  14.0270
    14.0473  14.0473  14.2001  14.2001  14.2221  14.2221  14.4287  14.4287
    14.7395  14.7395  15.2030  15.2031  15.2514  15.2514  15.7225  15.7226
    16.5081  16.5081  16.6509  16.6510  16.6651  16.6652  17.1321  17.1321

          k = 0.1250-0.5000 0.2473 ( 41916 PWs)   bands (ev):

   -46.1064 -46.1064 -46.1058 -46.1058 -46.1055 -46.1055 -46.1048 -46.1048
   -22.4334 -22.4334 -22.4307 -22.4307 -22.3998 -22.3998 -22.3977 -22.3977
   -22.3838 -22.3838 -22.3819 -22.3819 -22.3605 -22.3605 -22.3587 -22.3587
   -22.3580 -22.3580 -22.3565 -22.3565 -22.3346 -22.3346 -22.3332 -22.3332
   -14.3819 -14.3819 -14.3182 -14.3182 -14.2932 -14.2932 -14.2464 -14.2464
    -6.5590  -6.5590  -6.4537  -6.4536  -6.4359  -6.4359  -6.0431  -6.0431
    -5.8675  -5.8675  -5.8345  -5.8345  -5.7713  -5.7713  -5.7645  -5.7645
    -5.7359  -5.7359  -5.7288  -5.7288  -5.6573  -5.6573  -5.6448  -5.6448
    -0.0003  -0.0003   0.0406   0.0407   0.2741   0.2741   0.3381   0.3381
     0.3533   0.3533   0.3928   0.3928   0.4132   0.4132   0.4435   0.4435
     0.5104   0.5104   0.6569   0.6569   0.6593   0.6593   0.6833   0.6833
     6.2374   6.2374   6.3488   6.3488   6.4704   6.4704   6.7182   6.7182
     6.9637   6.9637   7.0224   7.0224   7.1130   7.1130   7.1235   7.1235
     7.2354   7.2355   7.3613   7.3614   7.3679   7.3680   7.6333   7.6334
     7.6564   7.6564   7.7342   7.7342   7.8407   7.8407   7.8840   7.8840
     7.9301   7.9301   7.9551   7.9551   7.9929   7.9929   8.1805   8.1805
     8.4394   8.4394   8.4769   8.4769   8.8535   8.8535   8.9698   8.9698
     9.1647   9.1647   9.1973   9.1973   9.2134   9.2134   9.3030   9.3030
     9.3873   9.3873   9.5794   9.5794   9.6384   9.6384   9.7123   9.7123
     9.7848   9.7848   9.8436   9.8436   9.8875   9.8875  10.0722  10.0722
    12.8413  12.8413  13.2157  13.2157  13.2622  13.2622  13.2942  13.2942
    13.4041  13.4041  13.8221  13.8221  13.9044  13.9044  13.9985  13.9985
    14.0680  14.0680  14.0943  14.0943  14.1945  14.1945  14.3544  14.3544
    14.9191  14.9191  15.2427  15.2427  15.5144  15.5144  15.8463  15.8464
    16.6329  16.6329  16.6528  16.6528  16.8696  16.8696  17.0102  17.0102

          k = 0.1250-0.5000 0.3709 ( 41952 PWs)   bands (ev):

   -46.1063 -46.1063 -46.1059 -46.1059 -46.1053 -46.1053 -46.1050 -46.1050
   -22.4257 -22.4257 -22.4232 -22.4232 -22.4076 -22.4076 -22.4053 -22.4053
   -22.3833 -22.3833 -22.3823 -22.3823 -22.3601 -22.3601 -22.3592 -22.3592
   -22.3577 -22.3577 -22.3569 -22.3569 -22.3343 -22.3343 -22.3336 -22.3336
   -14.3674 -14.3674 -14.3330 -14.3330 -14.2825 -14.2825 -14.2572 -14.2572
    -6.5135  -6.5135  -6.4441  -6.4441  -6.3703  -6.3703  -6.1531  -6.1531
    -5.8754  -5.8754  -5.8635  -5.8635  -5.7591  -5.7591  -5.7503  -5.7502
    -5.7390  -5.7390  -5.7320  -5.7320  -5.6564  -5.6564  -5.6494  -5.6494
     0.0271   0.0271   0.1166   0.1166   0.1748   0.1748   0.3175   0.3175
     0.3463   0.3463   0.3629   0.3629   0.4497   0.4497   0.4540   0.4540
     0.4868   0.4868   0.6252   0.6252   0.6901   0.6901   0.7030   0.7030
     6.2967   6.2967   6.3382   6.3382   6.6753   6.6753   6.9098   6.9098
     7.0259   7.0259   7.0265   7.0265   7.0845   7.0845   7.1084   7.1084
     7.2583   7.2583   7.3468   7.3468   7.4516   7.4516   7.4810   7.4810
     7.5302   7.5303   7.7847   7.7847   7.8048   7.8048   7.8944   7.8944
     7.8950   7.8950   7.9929   7.9929   8.0056   8.0056   8.0731   8.0731
     8.2522   8.2522   8.3292   8.3292   8.7976   8.7976   8.8581   8.8581
     9.2437   9.2437   9.2867   9.2867   9.3111   9.3111   9.4071   9.4072
     9.4738   9.4738   9.4928   9.4928   9.5191   9.5191   9.7422   9.7422
     9.7954   9.7954   9.8178   9.8178   9.8711   9.8711   9.9452   9.9452
    13.0590  13.0590  13.2432  13.2432  13.2465  13.2465  13.4009  13.4009
    13.5626  13.5627  13.6146  13.6146  13.7337  13.7337  13.9329  13.9329
    14.0584  14.0584  14.1019  14.1019  14.1618  14.1618  14.2567  14.2567
    15.0815  15.0815  15.2213  15.2213  15.9276  15.9276  16.0904  16.0904
    16.5736  16.5736  16.7472  16.7473  16.8268  16.8269  17.1636  17.1636

          k = 0.1250-0.5000-0.4946 ( 41972 PWs)   bands (ev):

   -46.1061 -46.1061 -46.1061 -46.1061 -46.1051 -46.1051 -46.1051 -46.1051
   -22.4167 -22.4167 -22.4167 -22.4167 -22.4143 -22.4143 -22.4143 -22.4143
   -22.3828 -22.3828 -22.3828 -22.3828 -22.3596 -22.3596 -22.3596 -22.3596
   -22.3573 -22.3573 -22.3573 -22.3573 -22.3339 -22.3339 -22.3339 -22.3339
   -14.3503 -14.3503 -14.3503 -14.3502 -14.2700 -14.2700 -14.2699 -14.2699
    -6.4709  -6.4709  -6.4708  -6.4708  -6.2664  -6.2664  -6.2663  -6.2663
    -5.8774  -5.8774  -5.8773  -5.8773  -5.7500  -5.7500  -5.7499  -5.7499
    -5.7369  -5.7369  -5.7368  -5.7368  -5.6539  -5.6539  -5.6538  -5.6538
     0.0869   0.0869   0.0869   0.0869   0.2144   0.2144   0.2144   0.2144
     0.3476   0.3476   0.3477   0.3477   0.4683   0.4683   0.4684   0.4684
     0.5512   0.5512   0.5512   0.5512   0.7062   0.7062   0.7062   0.7062
     6.3241   6.3241   6.3242   6.3242   6.8771   6.8771   6.8772   6.8772
     7.0209   7.0209   7.0209   7.0209   7.2304   7.2305   7.2305   7.2305
     7.2474   7.2474   7.2474   7.2475   7.3575   7.3575   7.3575   7.3576
     7.6451   7.6451   7.6452   7.6452   7.8759   7.8759   7.8759   7.8759
     7.8894   7.8894   7.8895   7.8895   8.0973   8.0973   8.0973   8.0973
     8.1947   8.1947   8.1948   8.1948   8.7916   8.7916   8.7917   8.7917
     9.3085   9.3085   9.3085   9.3085   9.4010   9.4011   9.4011   9.4011
     9.4235   9.4235   9.4236   9.4236   9.6938   9.6938   9.6938   9.6938
     9.7816   9.7816   9.7816   9.7816   9.8706   9.8706   9.8708   9.8708
    13.2069  13.2069  13.2070  13.2070  13.3790  13.3790  13.3791  13.3791
    13.5540  13.5540  13.5541  13.5541  13.7471  13.7471  13.7472  13.7472
    14.1197  14.1197  14.1197  14.1197  14.1621  14.1621  14.1622  14.1622
    15.1754  15.1754  15.1754  15.1754  16.3230  16.3230  16.3231  16.3231
    16.4193  16.4193  16.4194  16.4194  17.2251  17.2279  17.2285  17.2287

          k = 0.2500 0.2500 0.0000 ( 41984 PWs)   bands (ev):

   -46.1068 -46.1061 -46.1061 -46.1059 -46.1053 -46.1052 -46.1052 -46.1045
   -22.4412 -22.4388 -22.4388 -22.4368 -22.3934 -22.3918 -22.3918 -22.3904
   -22.3796 -22.3796 -22.3775 -22.3771 -22.3767 -22.3767 -22.3750 -22.3748
   -22.3417 -22.3413 -22.3399 -22.3398 -22.3395 -22.3393 -22.3380 -22.3380
   -14.4244 -14.3432 -14.3432 -14.3241 -14.2838 -14.2694 -14.2693 -14.2198
    -6.6626  -6.6626  -6.5738  -6.5410  -6.3862  -6.1681  -6.1681  -5.8752
    -5.8552  -5.8552  -5.8304  -5.8304  -5.8009  -5.7825  -5.7629  -5.7535
    -5.7496  -5.7277  -5.7139  -5.7102  -5.7102  -5.6120  -5.6120  -5.6063
    -0.2396  -0.1223  -0.0295   0.2148   0.2148   0.3105   0.3292   0.3292
     0.3648   0.3815   0.4124   0.4477   0.4585   0.4585   0.5218   0.5373
     0.5373   0.5847   0.5847   0.6185   0.6629   0.6781   0.6814   0.6814
     6.1084   6.1983   6.1983   6.2986   6.3283   6.5693   6.5693   6.5991
     6.5991   6.6814   6.7022   6.8009   6.8009   6.8057   6.8114   7.3150
     7.5371   7.5686   7.5686   7.6117   7.6405   7.6482   7.6482   7.6594
     7.6887   7.7090   7.7090   7.7880   7.7880   7.8044   7.8669   7.8670
     7.9034   7.9137   7.9594   7.9897   8.0216   8.2428   8.2428   8.4261
     8.4261   8.6075   8.6908   8.6908   8.6994   8.7625   9.0100   9.0100
     9.1100   9.1129   9.1330   9.2061   9.2162   9.2726   9.3314   9.4162
     9.4162   9.4426   9.4426   9.4746   9.5150   9.5150   9.6054   9.6054
     9.9380   9.9416  10.0391  10.0770  10.0840  10.0840  10.1492  10.1713
    12.6308  12.7651  12.7742  12.7784  12.7784  12.8780  13.7241  13.7508
    13.7508  13.7775  13.7775  13.8392  13.8578  13.8578  13.9814  14.0142
    14.0574  14.0574  14.1537  14.2896  14.2896  14.3711  14.4560  14.4662
    14.8023  14.8292  14.8292  15.1137  15.1375  15.1411  15.7431  15.7431
    15.9472  16.0371  16.3520  16.3520  16.8053  17.2393  17.2699  17.6061

          k = 0.2500 0.2500 0.1236 ( 41972 PWs)   bands (ev):

   -46.1068 -46.1060 -46.1060 -46.1060 -46.1053 -46.1052 -46.1052 -46.1045
   -22.4394 -22.4370 -22.4370 -22.4351 -22.3952 -22.3936 -22.3936 -22.3922
   -22.3795 -22.3795 -22.3774 -22.3770 -22.3768 -22.3768 -22.3751 -22.3749
   -22.3416 -22.3412 -22.3398 -22.3398 -22.3396 -22.3394 -22.3380 -22.3380
   -14.4207 -14.3405 -14.3404 -14.3280 -14.2814 -14.2722 -14.2722 -14.2223
    -6.6452  -6.6452  -6.5654  -6.5335  -6.3678  -6.1879  -6.1879  -5.8797
    -5.8545  -5.8545  -5.8379  -5.8287  -5.8287  -5.7990  -5.7515  -5.7482
    -5.7420  -5.7298  -5.7122  -5.7060  -5.7060  -5.6176  -5.6176  -5.6122
    -0.2195  -0.1363   0.0285   0.2252   0.2252   0.2886   0.3218   0.3219
     0.3655   0.3810   0.3945   0.3999   0.4386   0.4386   0.5214   0.5214
     0.5540   0.5701   0.6016   0.6017   0.6724   0.6955   0.6955   0.6992
     6.1492   6.2414   6.2414   6.3286   6.3550   6.5903   6.5903   6.5904
     6.5904   6.7025   6.7363   6.8056   6.8110   6.8240   6.8240   7.3241
     7.5262   7.5314   7.5314   7.6204   7.6233   7.6533   7.6533   7.6872
     7.6897   7.6897   7.6978   7.8056   7.8056   7.8112   7.8675   7.8675
     7.9019   7.9058   7.9418   7.9463   8.0354   8.1410   8.1410   8.4346
     8.4346   8.5810   8.6063   8.6845   8.7718   8.7718   9.0356   9.0356
     9.0432   9.1265   9.1516   9.2426   9.2493   9.3006   9.3585   9.3840
     9.3840   9.4034   9.4034   9.4900   9.5444   9.5444   9.5658   9.5658
     9.8976   9.9179  10.0034  10.0435  10.0671  10.0671  10.1534  10.1691
    12.6733  12.7941  12.8048  12.8319  12.8319  12.8729  13.7523  13.7570
    13.7570  13.7846  13.7846  13.8527  13.8527  13.8584  13.9306  13.9651
    14.0112  14.0112  14.1619  14.2574  14.2574  14.3604  14.4246  14.4361
    14.9120  14.9233  14.9233  15.1152  15.1363  15.2617  15.7404  15.7404
    16.0050  16.1032  16.3764  16.3764  16.7497  17.2331  17.3111  17.6054

          k = 0.2500 0.2500 0.2473 ( 41946 PWs)   bands (ev):

   -46.1067 -46.1061 -46.1059 -46.1059 -46.1053 -46.1053 -46.1052 -46.1046
   -22.4342 -22.4319 -22.4319 -22.4301 -22.4004 -22.3988 -22.3988 -22.3972
   -22.3792 -22.3792 -22.3771 -22.3771 -22.3771 -22.3768 -22.3754 -22.3752
   -22.3414 -22.3410 -22.3399 -22.3396 -22.3396 -22.3396 -22.3382 -22.3382
   -14.4100 -14.3391 -14.3326 -14.3326 -14.2803 -14.2803 -14.2745 -14.2293
    -6.5952  -6.5952  -6.5432  -6.5156  -6.3146  -6.2449  -6.2449  -5.9233
    -5.8885  -5.8489  -5.8489  -5.8250  -5.8250  -5.7935  -5.7802  -5.7572
    -5.7329  -5.7075  -5.7069  -5.6970  -5.6970  -5.6330  -5.6329  -5.6290
    -0.1618  -0.1265   0.1463   0.2267   0.2525   0.2525   0.2869   0.3129
     0.3129   0.3676   0.3739   0.3795   0.3920   0.3921   0.4845   0.4846
     0.5031   0.6146   0.6353   0.6407   0.6407   0.7174   0.7174   0.7313
     6.2392   6.3303   6.3415   6.3415   6.5152   6.5664   6.5664   6.6671
     6.6671   6.7906   6.8055   6.8097   6.8335   6.9016   6.9016   7.3632
     7.4062   7.4062   7.4798   7.4965   7.6531   7.6531   7.6582   7.6626
     7.6626   7.7037   7.7933   7.7933   7.8118   7.8289   7.8396   7.8590
     7.8590   7.8811   7.8968   7.9088   8.0628   8.0628   8.0756   8.3542
     8.4551   8.4551   8.5009   8.5264   8.7300   8.7300   8.9632   9.1453
     9.1721   9.1985   9.1985   9.2282   9.3012   9.3012   9.3088   9.3860
     9.3860   9.4241   9.4363   9.5025   9.5025   9.5345   9.5526   9.5526
     9.8098   9.8616   9.8998   9.9581  10.0128  10.0128  10.1558  10.1638
    12.7403  12.8583  12.8999  12.9222  12.9797  12.9797  13.7724  13.7724
    13.7877  13.8106  13.8106  13.8251  13.8269  13.8269  13.8299  13.8918
    13.8918  13.9140  14.1716  14.1716  14.1853  14.3203  14.3410  14.3637
    15.1187  15.1335  15.1565  15.1565  15.2011  15.5883  15.7271  15.7271
    16.1701  16.2984  16.4617  16.4617  16.5856  17.1570  17.3601  17.4078

          k = 0.2500 0.2500 0.3709 ( 41952 PWs)   bands (ev):

   -46.1065 -46.1062 -46.1058 -46.1058 -46.1055 -46.1055 -46.1051 -46.1047
   -22.4265 -22.4244 -22.4244 -22.4226 -22.4082 -22.4064 -22.4064 -22.4048
   -22.3787 -22.3787 -22.3776 -22.3776 -22.3767 -22.3764 -22.3758 -22.3755
   -22.3410 -22.3407 -22.3402 -22.3399 -22.3393 -22.3393 -22.3385 -22.3385
   -14.3939 -14.3556 -14.3207 -14.3207 -14.2925 -14.2924 -14.2643 -14.2398
    -6.5187  -6.5187  -6.5168  -6.4997  -6.3292  -6.3292  -6.2329  -6.0250
    -5.8894  -5.8373  -5.8373  -5.8287  -5.8228  -5.8228  -5.7852  -5.7656
    -5.7098  -5.7017  -5.6976  -5.6864  -5.6864  -5.6536  -5.6533  -5.6533
    -0.0747  -0.0714   0.1354   0.1521   0.2801   0.2801   0.2870   0.3304
     0.3304   0.3424   0.3424   0.3707   0.3734   0.3771   0.4350   0.4351
     0.4423   0.5516   0.6740   0.6824   0.6824   0.7255   0.7255   0.7383
     6.3070   6.3330   6.4315   6.4315   6.5323   6.5323   6.7526   6.8057
     6.8082   6.8174   6.8174   6.9755   6.9832   7.0583   7.0583   7.2137
     7.2137   7.2888   7.3879   7.4449   7.5338   7.5338   7.6319   7.6709
     7.6709   7.7052   7.7077   7.7077   7.7132   7.8378   7.8510   7.8870
     7.8991   7.9360   7.9360   7.9870   8.0441   8.0441   8.0701   8.1411
     8.3663   8.3665   8.4791   8.4791   8.6048   8.6048   8.9188   9.0150
     9.2345   9.2500   9.2500   9.2830   9.2830   9.3249   9.3695   9.3991
     9.3992   9.5177   9.5177   9.5426   9.5542   9.5790   9.5790   9.6038
     9.7282   9.7412   9.7806   9.8364   9.9127   9.9127  10.1549  10.1581
    12.7778  12.8360  13.1080  13.1114  13.1916  13.1916  13.5784  13.6149
    13.6655  13.6655  13.7919  13.7919  13.8370  13.8370  13.8645  13.8645
    13.9432  14.0004  14.0589  14.0589  14.2134  14.2207  14.2283  14.3094
    15.1227  15.1301  15.4130  15.4130  15.5835  15.6875  15.6875  16.0366
    16.3218  16.4212  16.6106  16.6398  16.6398  16.9116  17.0561  17.2450

          k = 0.2500 0.2500-0.4946 ( 41938 PWs)   bands (ev):

   -46.1064 -46.1064 -46.1056 -46.1056 -46.1056 -46.1056 -46.1049 -46.1049
   -22.4174 -22.4174 -22.4154 -22.4154 -22.4154 -22.4154 -22.4137 -22.4137
   -22.3782 -22.3782 -22.3781 -22.3781 -22.3763 -22.3762 -22.3760 -22.3759
   -22.3406 -22.3406 -22.3403 -22.3403 -22.3389 -22.3389 -22.3389 -22.3389
   -14.3749 -14.3748 -14.3067 -14.3066 -14.3066 -14.3066 -14.2521 -14.2520
    -6.4991  -6.4990  -6.4257  -6.4257  -6.4256  -6.4256  -6.1324  -6.1323
    -5.8697  -5.8696  -5.8267  -5.8267  -5.8266  -5.8266  -5.7755  -5.7754
    -5.6972  -5.6971  -5.6821  -5.6819  -5.6725  -5.6724  -5.6723  -5.6723
     0.0257   0.0257   0.0294   0.0295   0.3044   0.3045   0.3045   0.3045
     0.3740   0.3740   0.3793   0.3794   0.3794   0.3794   0.3970   0.3970
     0.4292   0.4292   0.7132   0.7132   0.7132   0.7132   0.7180   0.7180
     6.3307   6.3308   6.4897   6.4897   6.4898   6.4898   6.8066   6.8067
     7.0083   7.0083   7.0084   7.0084   7.0262   7.0264   7.1052   7.1052
     7.2964   7.2964   7.2965   7.2965   7.4137   7.4138   7.5655   7.5656
     7.6818   7.6818   7.6819   7.6819   7.7782   7.7783   7.8715   7.8716
     7.9333   7.9333   8.0063   8.0063   8.0063   8.0063   8.1843   8.1844
     8.2361   8.2362   8.5178   8.5178   8.5178   8.5178   8.9305   8.9306
     9.2524   9.2524   9.2524   9.2524   9.2936   9.2937   9.4554   9.4554
     9.4555   9.4555   9.5526   9.5526   9.6443   9.6443   9.6897   9.6898
     9.6948   9.6948   9.7614   9.7615   9.7615   9.7615  10.1548  10.1550
    12.8085  12.8085  13.3385  13.3386  13.3648  13.3649  13.4321  13.4321
    13.4322  13.4322  13.8137  13.8137  13.8138  13.8138  13.9496  13.9496
    13.9496  13.9496  14.0771  14.0771  14.1091  14.1091  14.2636  14.2637
    15.1266  15.1266  15.5939  15.5939  15.5939  15.5939  15.9763  15.9764
    16.5094  16.5096  16.7284  16.7286  16.9209  16.9209  17.0140  17.0141

          k = 0.2500 0.3750 0.0000 ( 41943 PWs)   bands (ev):

   -46.1066 -46.1062 -46.1059 -46.1058 -46.1055 -46.1054 -46.1050 -46.1046
   -22.4406 -22.4393 -22.4383 -22.4373 -22.3930 -22.3922 -22.3915 -22.3907
   -22.3791 -22.3778 -22.3763 -22.3753 -22.3709 -22.3687 -22.3682 -22.3665
   -22.3503 -22.3485 -22.3480 -22.3465 -22.3411 -22.3402 -22.3391 -22.3383
   -14.4061 -14.3621 -14.3297 -14.3117 -14.2976 -14.2820 -14.2581 -14.2313
    -6.6209  -6.5961  -6.5520  -6.4891  -6.4448  -6.2720  -6.0821  -5.8687
    -5.8571  -5.8372  -5.8362  -5.8256  -5.8097  -5.7939  -5.7865  -5.7648
    -5.7566  -5.7343  -5.7106  -5.7041  -5.6850  -5.6779  -5.6439  -5.6271
    -0.1614  -0.0213   0.0880   0.1200   0.2222   0.2314   0.3173   0.3260
     0.3692   0.4015   0.4071   0.4228   0.4396   0.4479   0.5068   0.5124
     0.5650   0.5778   0.5808   0.6118   0.6353   0.6438   0.6468   0.6618
     6.1607   6.1957   6.2465   6.2859   6.4305   6.5575   6.6691   6.6870
     6.7137   6.8475   6.8944   6.9126   6.9872   7.0109   7.0283   7.0968
     7.3559   7.3731   7.4280   7.5143   7.5637   7.5888   7.6080   7.6288
     7.6449   7.7038   7.7132   7.7984   7.8176   7.8292   7.8444   7.8904
     7.9151   7.9505   7.9738   7.9816   8.0498   8.1381   8.1812   8.3338
     8.4311   8.5558   8.6098   8.6197   8.6574   8.7253   8.8834   9.0131
     9.0403   9.0661   9.1411   9.1787   9.1881   9.3018   9.3380   9.4080
     9.4412   9.4495   9.4832   9.5366   9.5795   9.6195   9.6917   9.7170
     9.8263   9.8754   9.9165   9.9218   9.9473  10.0741  10.0874  10.1114
    12.6940  12.7563  12.9474  12.9788  12.9970  13.1138  13.5072  13.5130
    13.5397  13.6406  13.7690  13.7973  13.8215  13.9655  14.0011  14.0292
    14.0391  14.0439  14.1283  14.1882  14.2414  14.3290  14.3480  14.4221
    14.8386  14.8394  14.9959  15.1363  15.3803  15.4820  15.6920  16.1361
    16.1937  16.2853  16.3355  16.6343  16.9843  17.0011  17.0357  17.3317

          k = 0.2500 0.3750 0.1236 ( 41942 PWs)   bands (ev):

   -46.1066 -46.1062 -46.1059 -46.1058 -46.1055 -46.1054 -46.1051 -46.1047
   -22.4388 -22.4376 -22.4366 -22.4355 -22.3948 -22.3940 -22.3933 -22.3925
   -22.3789 -22.3777 -22.3764 -22.3754 -22.3708 -22.3686 -22.3683 -22.3666
   -22.3502 -22.3484 -22.3481 -22.3466 -22.3410 -22.3402 -22.3392 -22.3384
   -14.4025 -14.3591 -14.3271 -14.3153 -14.2951 -14.2851 -14.2608 -14.2338
    -6.6053  -6.5785  -6.5418  -6.4835  -6.4266  -6.2793  -6.1046  -5.9084
    -5.8615  -5.8359  -5.8337  -5.8336  -5.8074  -5.7853  -5.7745  -5.7705
    -5.7604  -5.7356  -5.7087  -5.7039  -5.6838  -5.6823  -5.6475  -5.6317
    -0.1436  -0.0374   0.1020   0.1738   0.2064   0.2383   0.3052   0.3190
     0.3678   0.3854   0.3864   0.4138   0.4144   0.4477   0.4757   0.4817
     0.5123   0.5288   0.6121   0.6344   0.6702   0.6816   0.6840   0.6884
     6.2059   6.2398   6.2951   6.3399   6.4275   6.5495   6.6802   6.7064
     6.7261   6.8339   6.9045   6.9293   6.9946   7.0061   7.0475   7.1114
     7.3397   7.3629   7.3962   7.5323   7.5586   7.5938   7.5953   7.6378
     7.6617   7.7104   7.7306   7.7660   7.8035   7.8377   7.8553   7.8903
     7.9065   7.9102   7.9585   7.9931   8.0660   8.1065   8.1423   8.2280
     8.4147   8.5481   8.5505   8.5892   8.6214   8.7635   8.8472   8.9900
     9.0930   9.1108   9.1494   9.2125   9.2376   9.2967   9.3268   9.4168
     9.4182   9.4814   9.5085   9.5194   9.5213   9.6562   9.6595   9.7049
     9.7937   9.8513   9.8700   9.9329   9.9396  10.0675  10.0692  10.0958
    12.7457  12.8097  12.9723  13.0106  13.0254  13.1086  13.5175  13.5450
    13.5478  13.6356  13.7805  13.8156  13.8285  13.9512  13.9582  13.9917
    13.9965  14.0374  14.0849  14.1501  14.2313  14.2971  14.3130  14.3909
    14.9343  14.9405  15.1041  15.2559  15.3818  15.4907  15.6898  16.1576
    16.1935  16.3332  16.3978  16.6437  16.9274  17.0403  17.0488  17.3141

          k = 0.2500 0.3750 0.2473 ( 41937 PWs)   bands (ev):

   -46.1065 -46.1061 -46.1059 -46.1058 -46.1055 -46.1054 -46.1051 -46.1048
   -22.4337 -22.4325 -22.4315 -22.4305 -22.4000 -22.3991 -22.3984 -22.3976
   -22.3787 -22.3774 -22.3767 -22.3757 -22.3705 -22.3686 -22.3684 -22.3668
   -22.3499 -22.3484 -22.3482 -22.3468 -22.3408 -22.3399 -22.3394 -22.3386
   -14.3925 -14.3506 -14.3258 -14.3194 -14.2940 -14.2880 -14.2687 -14.2411
    -6.5612  -6.5277  -6.5152  -6.4702  -6.3742  -6.3047  -6.1668  -5.9892
    -5.8722  -5.8481  -5.8362  -5.8236  -5.8047  -5.8022  -5.7809  -5.7507
    -5.7487  -5.7413  -5.7067  -5.7028  -5.6928  -5.6819  -5.6570  -5.6448
    -0.0939  -0.0392   0.1412   0.1853   0.2452   0.2574   0.2855   0.3238
     0.3282   0.3308   0.3580   0.3617   0.3786   0.3868   0.4257   0.4357
     0.4619   0.5548   0.6731   0.6740   0.6813   0.7219   0.7297   0.7317
     6.3083   6.3407   6.4193   6.4213   6.4907   6.5284   6.7368   6.7741
     6.7862   6.7951   6.9249   6.9830   6.9980   7.0258   7.1099   7.1628
     7.2524   7.2993   7.3719   7.4759   7.5565   7.5733   7.6069   7.7022
     7.7073   7.7117   7.7235   7.7314   7.7353   7.8244   7.8666   7.8912
     7.8934   7.8997   7.9254   7.9984   8.0031   8.0277   8.1300   8.1524
     8.3419   8.3754   8.4180   8.5296   8.5317   8.7068   8.7771   8.8995
     9.2136   9.2470   9.2551   9.2653   9.2804   9.3259   9.3683   9.4075
     9.4473   9.4528   9.4902   9.5251   9.5687   9.6115   9.6746   9.6773
     9.7252   9.7849   9.8001   9.9023   9.9123  10.0049  10.0567  10.0617
    12.8800  12.9569  13.0232  13.0833  13.0936  13.1542  13.5417  13.5805
    13.6196  13.6336  13.8119  13.8132  13.8510  13.8577  13.8643  13.8688
    13.9229  13.9776  14.0469  14.0609  14.1918  14.2117  14.2274  14.3073
    15.1674  15.1804  15.3847  15.3858  15.5447  15.5795  15.6795  16.1841
    16.2363  16.4714  16.5824  16.6791  16.7595  17.0488  17.1492  17.2946

          k = 0.2500 0.3750 0.3709 ( 41954 PWs)   bands (ev):

   -46.1064 -46.1060 -46.1060 -46.1056 -46.1056 -46.1053 -46.1052 -46.1049
   -22.4260 -22.4249 -22.4240 -22.4230 -22.4078 -22.4068 -22.4060 -22.4052
   -22.3782 -22.3771 -22.3770 -22.3761 -22.3701 -22.3690 -22.3680 -22.3672
   -22.3496 -22.3487 -22.3479 -22.3471 -22.3405 -22.3397 -22.3396 -22.3389
   -14.3774 -14.3413 -14.3377 -14.3079 -14.3071 -14.2805 -14.2773 -14.2520
    -6.4959  -6.4836  -6.4590  -6.4499  -6.3534  -6.2935  -6.2555  -6.0886
    -5.8802  -5.8542  -5.8446  -5.8405  -5.8102  -5.7978  -5.7727  -5.7507
    -5.7356  -5.7349  -5.7071  -5.7031  -5.6986  -5.6807  -5.6688  -5.6642
    -0.0268   0.0085   0.1536   0.1787   0.2076   0.2078   0.2632   0.2831
     0.3301   0.3451   0.3453   0.3457   0.3584   0.3692   0.3881   0.4086
     0.4138   0.6270   0.6325   0.7256   0.7260   0.7261   0.7538   0.7587
     6.3858   6.4168   6.4234   6.5001   6.5561   6.7054   6.7363   6.8694
     6.9118   6.9119   6.9388   7.0216   7.0862   7.0989   7.1377   7.1413
     7.2308   7.2638   7.2987   7.3698   7.5145   7.5875   7.6107   7.6131
     7.6292   7.6300   7.6447   7.7462   7.7623   7.8670   7.8753   7.8907
     7.8913   7.9087   7.9117   7.9489   7.9644   8.0889   8.1040   8.1104
     8.1731   8.1987   8.3051   8.3636   8.5050   8.5817   8.7203   8.7764
     9.2590   9.3323   9.3373   9.3455   9.3456   9.3817   9.3905   9.4781
     9.5079   9.5116   9.5339   9.5342   9.6369   9.6504   9.6547   9.6599
     9.6618   9.6636   9.7441   9.8136   9.8551   9.8926  10.0380  10.0423
    12.9944  13.0700  13.1506  13.1674  13.2339  13.3402  13.5684  13.5782
    13.6096  13.6537  13.6605  13.6856  13.7628  13.7649  13.8550  13.9003
    13.9075  13.9262  13.9525  14.0685  14.0967  14.0988  14.1627  14.2037
    15.3418  15.3856  15.4142  15.6490  15.7307  15.7748  16.0236  16.1383
    16.4124  16.4899  16.6857  16.7672  16.8779  16.8807  17.0215  17.2320

          k = 0.2500 0.3750-0.4946 ( 41952 PWs)   bands (ev):

   -46.1062 -46.1062 -46.1058 -46.1058 -46.1055 -46.1055 -46.1051 -46.1051
   -22.4169 -22.4169 -22.4159 -22.4159 -22.4150 -22.4150 -22.4141 -22.4141
   -22.3777 -22.3777 -22.3766 -22.3766 -22.3695 -22.3695 -22.3676 -22.3676
   -22.3492 -22.3491 -22.3475 -22.3475 -22.3401 -22.3401 -22.3393 -22.3393
   -14.3594 -14.3594 -14.3225 -14.3224 -14.2943 -14.2942 -14.2647 -14.2647
    -6.4620  -6.4618  -6.4216  -6.4215  -6.3549  -6.3548  -6.1944  -6.1943
    -5.8729  -5.8728  -5.8490  -5.8490  -5.7999  -5.7999  -5.7620  -5.7619
    -5.7295  -5.7294  -5.7076  -5.7075  -5.6850  -5.6848  -5.6775  -5.6773
     0.0542   0.0542   0.0996   0.0997   0.2085   0.2086   0.2801   0.2802
     0.3103   0.3103   0.3365   0.3365   0.3584   0.3585   0.3776   0.3776
     0.5346   0.5347   0.6941   0.6941   0.7522   0.7522   0.7567   0.7567
     6.4113   6.4115   6.4681   6.4682   6.6593   6.6594   6.9359   6.9359
     6.9442   6.9442   7.0127   7.0127   7.1022   7.1022   7.1205   7.1206
     7.3129   7.3129   7.4146   7.4146   7.4192   7.4193   7.4449   7.4450
     7.6165   7.6166   7.6961   7.6962   7.7914   7.7914   7.8871   7.8871
     7.9351   7.9352   7.9585   7.9586   8.0391   8.0391   8.0476   8.0476
     8.1850   8.1851   8.2352   8.2352   8.5059   8.5060   8.7100   8.7101
     9.3019   9.3019   9.3550   9.3550   9.3855   9.3856   9.5075   9.5075
     9.5082   9.5083   9.5860   9.5861   9.6426   9.6427   9.6802   9.6802
     9.6946   9.6947   9.7295   9.7295   9.7610   9.7610  10.0336  10.0337
    13.0389  13.0390  13.3766  13.3767  13.4023  13.4024  13.4375  13.4376
    13.5539  13.5540  13.6004  13.6005  13.7671  13.7671  13.8917  13.8918
    13.9143  13.9144  13.9875  13.9875  14.0588  14.0589  14.1413  14.1414
    15.3786  15.3787  15.5738  15.5738  16.0029  16.0030  16.1421  16.1422
    16.4912  16.4914  16.6985  16.6986  16.9548  16.9549  16.9550  17.2965

          k = 0.2500-0.5000 0.0000 ( 41940 PWs)   bands (ev):

   -46.1064 -46.1064 -46.1057 -46.1057 -46.1056 -46.1056 -46.1048 -46.1048
   -22.4400 -22.4400 -22.4378 -22.4378 -22.3926 -22.3926 -22.3911 -22.3911
   -22.3784 -22.3784 -22.3758 -22.3758 -22.3606 -22.3606 -22.3586 -22.3586
   -22.3581 -22.3581 -22.3565 -22.3565 -22.3407 -22.3407 -22.3387 -22.3387
   -14.3842 -14.3842 -14.3137 -14.3137 -14.2969 -14.2969 -14.2447 -14.2447
    -6.5801  -6.5801  -6.5190  -6.5190  -6.3842  -6.3842  -5.9776  -5.9775
    -5.8441  -5.8441  -5.8158  -5.8158  -5.7908  -5.7908  -5.7860  -5.7859
    -5.7428  -5.7428  -5.7198  -5.7198  -5.6777  -5.6777  -5.6555  -5.6555
    -0.0459  -0.0459   0.0990   0.0990   0.2655   0.2655   0.2860   0.2860
     0.3598   0.3598   0.3903   0.3903   0.4726   0.4726   0.4897   0.4897
     0.5710   0.5710   0.6171   0.6171   0.6264   0.6264   0.6310   0.6310
     6.1861   6.1861   6.2707   6.2707   6.5045   6.5045   6.7049   6.7049
     6.8718   6.8718   7.1079   7.1079   7.1164   7.1164   7.1397   7.1398
     7.2749   7.2749   7.2937   7.2937   7.3521   7.3521   7.6226   7.6226
     7.7083   7.7084   7.7176   7.7177   7.8649   7.8649   7.8860   7.8860
     7.9234   7.9234   8.0061   8.0061   8.0559   8.0559   8.2478   8.2478
     8.4625   8.4626   8.6035   8.6035   8.7042   8.7042   8.8238   8.8238
     9.1199   9.1199   9.1331   9.1331   9.2422   9.2422   9.3379   9.3379
     9.3928   9.3928   9.6799   9.6799   9.7455   9.7455   9.7478   9.7478
     9.7595   9.7595   9.7875   9.7875   9.9212   9.9212  10.0955  10.0955
    12.7287  12.7287  13.2209  13.2209  13.2408  13.2408  13.2666  13.2666
    13.3810  13.3810  13.7822  13.7822  13.9099  13.9099  14.0254  14.0254
    14.0967  14.0967  14.0992  14.0992  14.2306  14.2306  14.3754  14.3754
    14.8440  14.8440  15.0953  15.0953  15.5790  15.5790  15.8380  15.8380
    16.6434  16.6435  16.6542  16.6542  16.7702  16.7702  16.9863  16.9863

          k = 0.2500-0.5000 0.1236 ( 41926 PWs)   bands (ev):

   -46.1064 -46.1064 -46.1057 -46.1057 -46.1056 -46.1056 -46.1049 -46.1049
   -22.4382 -22.4382 -22.4360 -22.4360 -22.3944 -22.3944 -22.3929 -22.3929
   -22.3783 -22.3783 -22.3759 -22.3759 -22.3605 -22.3605 -22.3585 -22.3585
   -22.3582 -22.3582 -22.3566 -22.3566 -22.3406 -22.3406 -22.3388 -22.3388
   -14.3810 -14.3809 -14.3112 -14.3111 -14.3003 -14.3003 -14.2474 -14.2474
    -6.5670  -6.5670  -6.5011  -6.5011  -6.3835  -6.3835  -6.0054  -6.0053
    -5.8460  -5.8460  -5.8072  -5.8072  -5.8031  -5.8031  -5.7829  -5.7829
    -5.7448  -5.7448  -5.7198  -5.7198  -5.6792  -5.6792  -5.6574  -5.6574
    -0.0303  -0.0303   0.0816   0.0816   0.2696   0.2696   0.3321   0.3321
     0.3391   0.3391   0.3870   0.3870   0.4403   0.4403   0.4596   0.4596
     0.4883   0.4883   0.6594   0.6594   0.6622   0.6622   0.6734   0.6734
     6.2315   6.2315   6.3222   6.3222   6.4982   6.4982   6.7155   6.7155
     6.8901   6.8901   7.1024   7.1024   7.1046   7.1046   7.1180   7.1181
     7.2826   7.2826   7.3111   7.3111   7.3699   7.3699   7.6460   7.6461
     7.6921   7.6921   7.7155   7.7155   7.8453   7.8453   7.8675   7.8675
     7.9333   7.9333   8.0002   8.0002   8.0244   8.0245   8.2542   8.2542
     8.3733   8.3733   8.5685   8.5685   8.6820   8.6820   8.8238   8.8238
     9.1554   9.1554   9.1841   9.1841   9.2433   9.2433   9.3268   9.3268
     9.4208   9.4208   9.6567   9.6567   9.6921   9.6921   9.7500   9.7500
     9.7604   9.7604   9.7941   9.7941   9.9130   9.9130  10.0744  10.0744
    12.7816  12.7816  13.2376  13.2376  13.2764  13.2764  13.2795  13.2795
    13.3759  13.3759  13.7976  13.7976  13.9177  13.9177  13.9769  13.9769
    14.0531  14.0531  14.0901  14.0901  14.1910  14.1911  14.3438  14.3438
    14.9410  14.9411  15.2117  15.2117  15.5787  15.5787  15.8546  15.8546
    16.6585  16.6585  16.6872  16.6872  16.8227  16.8227  16.9873  16.9873

          k = 0.2500-0.5000 0.2473 ( 41944 PWs)   bands (ev):

   -46.1063 -46.1063 -46.1057 -46.1057 -46.1056 -46.1056 -46.1050 -46.1050
   -22.4331 -22.4331 -22.4310 -22.4310 -22.3996 -22.3996 -22.3980 -22.3980
   -22.3781 -22.3781 -22.3762 -22.3762 -22.3602 -22.3602 -22.3585 -22.3585
   -22.3583 -22.3583 -22.3568 -22.3568 -22.3404 -22.3404 -22.3390 -22.3390
   -14.3717 -14.3716 -14.3099 -14.3099 -14.3038 -14.3038 -14.2550 -14.2550
    -6.5310  -6.5310  -6.4494  -6.4494  -6.3852  -6.3852  -6.0758  -6.0758
    -5.8524  -5.8524  -5.8307  -5.8307  -5.7906  -5.7906  -5.7750  -5.7750
    -5.7475  -5.7475  -5.7227  -5.7227  -5.6827  -5.6827  -5.6636  -5.6636
     0.0123   0.0123   0.0689   0.0689   0.2792   0.2792   0.2809   0.2809
     0.3761   0.3761   0.3813   0.3813   0.3888   0.3888   0.4107   0.4107
     0.4295   0.4295   0.7059   0.7060   0.7140   0.7140   0.7143   0.7143
     6.3349   6.3349   6.4617   6.4617   6.4826   6.4826   6.7708   6.7708
     6.9520   6.9520   7.0537   7.0537   7.0781   7.0781   7.0988   7.0988
     7.3033   7.3033   7.3627   7.3627   7.4069   7.4069   7.5959   7.5959
     7.7075   7.7075   7.7114   7.7115   7.7733   7.7733   7.8784   7.8784
     7.9630   7.9630   7.9654   7.9654   7.9861   7.9861   8.1986   8.1986
     8.2537   8.2537   8.4163   8.4163   8.6269   8.6269   8.7459   8.7459
     9.2558   9.2558   9.2659   9.2659   9.2974   9.2974   9.3566   9.3566
     9.4735   9.4735   9.6105   9.6105   9.6182   9.6182   9.7148   9.7148
     9.7583   9.7583   9.8071   9.8071   9.8923   9.8923  10.0108  10.0108
    12.9270  12.9270  13.2741  13.2741  13.3216  13.3216  13.3607  13.3607
    13.3869  13.3869  13.8409  13.8409  13.8427  13.8427  13.9322  13.9323
    13.9403  13.9403  14.0505  14.0505  14.0954  14.0954  14.2590  14.2590
    15.1758  15.1758  15.5238  15.5238  15.5752  15.5752  15.9230  15.9230
    16.6550  16.6550  16.8088  16.8089  16.9860  16.9860  16.9919  16.9919

          k = 0.2500-0.5000 0.3709 ( 41940 PWs)   bands (ev):

   -46.1062 -46.1062 -46.1058 -46.1058 -46.1054 -46.1054 -46.1051 -46.1051
   -22.4254 -22.4254 -22.4235 -22.4235 -22.4073 -22.4073 -22.4056 -22.4056
   -22.3776 -22.3776 -22.3766 -22.3766 -22.3598 -22.3598 -22.3589 -22.3589
   -22.3580 -22.3580 -22.3572 -22.3571 -22.3401 -22.3401 -22.3393 -22.3393
   -14.3577 -14.3576 -14.3243 -14.3242 -14.2927 -14.2927 -14.2663 -14.2663
    -6.4814  -6.4814  -6.3992  -6.3992  -6.3701  -6.3701  -6.1701  -6.1701
    -5.8622  -5.8622  -5.8565  -5.8565  -5.7752  -5.7752  -5.7672  -5.7671
    -5.7458  -5.7458  -5.7299  -5.7299  -5.6853  -5.6853  -5.6732  -5.6732
     0.0609   0.0609   0.1056   0.1057   0.1954   0.1955   0.2810   0.2810
     0.2967   0.2967   0.3420   0.3420   0.3690   0.3690   0.3753   0.3753
     0.5367   0.5367   0.6903   0.6903   0.7539   0.7539   0.7544   0.7544
     6.4144   6.4144   6.4648   6.4648   6.6437   6.6437   6.9059   6.9059
     6.9506   6.9506   7.0480   7.0480   7.0725   7.0725   7.1327   7.1327
     7.3214   7.3214   7.4361   7.4361   7.4389   7.4389   7.4494   7.4494
     7.6210   7.6210   7.6882   7.6882   7.8032   7.8033   7.8944   7.8944
     7.9153   7.9153   7.9870   7.9870   8.0271   8.0271   8.0389   8.0389
     8.1998   8.1998   8.2034   8.2034   8.5697   8.5697   8.6192   8.6192
     9.3171   9.3171   9.3466   9.3466   9.3781   9.3781   9.5071   9.5071
     9.5151   9.5151   9.5342   9.5342   9.5665   9.5665   9.7079   9.7079
     9.7577   9.7577   9.7886   9.7886   9.8697   9.8697   9.9155   9.9155
    13.1289  13.1289  13.3138  13.3138  13.3351  13.3351  13.4273  13.4273
    13.5429  13.5429  13.6428  13.6428  13.7623  13.7623  13.9073  13.9073
    13.9139  13.9139  13.9767  13.9767  14.0419  14.0419  14.1464  14.1464
    15.4020  15.4020  15.5607  15.5607  15.9406  15.9406  16.1043  16.1043
    16.5851  16.5851  16.7454  16.7454  17.0078  17.0078  17.2226  17.2228

          k = 0.2500-0.5000-0.4946 ( 41940 PWs)   bands (ev):

   -46.1060 -46.1060 -46.1060 -46.1060 -46.1053 -46.1053 -46.1053 -46.1053
   -22.4164 -22.4164 -22.4164 -22.4164 -22.4146 -22.4146 -22.4145 -22.4145
   -22.3771 -22.3771 -22.3771 -22.3771 -22.3594 -22.3594 -22.3594 -22.3594
   -22.3576 -22.3576 -22.3575 -22.3575 -22.3397 -22.3397 -22.3397 -22.3397
   -14.3411 -14.3411 -14.3410 -14.3410 -14.2796 -14.2796 -14.2795 -14.2795
    -6.4328  -6.4328  -6.4327  -6.4327  -6.2730  -6.2730  -6.2728  -6.2728
    -5.8671  -5.8671  -5.8670  -5.8670  -5.7663  -5.7663  -5.7662  -5.7662
    -5.7389  -5.7389  -5.7388  -5.7388  -5.6823  -5.6823  -5.6822  -5.6822
     0.1167   0.1168   0.1168   0.1168   0.1870   0.1870   0.1870   0.1870
     0.3153   0.3153   0.3153   0.3153   0.3630   0.3631   0.3631   0.3631
     0.6297   0.6297   0.6297   0.6297   0.7686   0.7686   0.7687   0.7687
     6.4469   6.4469   6.4470   6.4470   6.8136   6.8136   6.8136   6.8136
     7.0087   7.0087   7.0087   7.0087   7.2484   7.2484   7.2485   7.2485
     7.2640   7.2640   7.2641   7.2641   7.4842   7.4842   7.4842   7.4842
     7.5688   7.5688   7.5688   7.5688   7.8982   7.8982   7.8983   7.8983
     7.9079   7.9079   7.9079   7.9079   8.0506   8.0506   8.0506   8.0506
     8.1180   8.1180   8.1180   8.1181   8.5525   8.5525   8.5526   8.5526
     9.3735   9.3735   9.3735   9.3736   9.4402   9.4403   9.4403   9.4403
     9.5374   9.5374   9.5374   9.5374   9.6845   9.6845   9.6845   9.6845
     9.7372   9.7372   9.7372   9.7372   9.8631   9.8631   9.8632   9.8632
    13.2876  13.2876  13.2876  13.2876  13.4257  13.4257  13.4258  13.4258
    13.5819  13.5819  13.5820  13.5820  13.7246  13.7247  13.7247  13.7247
    13.9912  13.9912  13.9912  13.9913  14.0391  14.0391  14.0391  14.0391
    15.5175  15.5175  15.5176  15.5176  16.3415  16.3415  16.3416  16.3416
    16.4134  16.4135  16.4136  16.4136  17.0642  17.0642  17.0642  17.0642

          k = 0.3750 0.3750 0.0000 ( 41926 PWs)   bands (ev):

   -46.1065 -46.1061 -46.1061 -46.1057 -46.1056 -46.1052 -46.1052 -46.1048
   -22.4401 -22.4389 -22.4389 -22.4377 -22.3927 -22.3919 -22.3919 -22.3911
   -22.3704 -22.3704 -22.3695 -22.3689 -22.3678 -22.3678 -22.3670 -22.3667
   -22.3502 -22.3495 -22.3489 -22.3489 -22.3479 -22.3475 -22.3468 -22.3468
   -14.3888 -14.3475 -14.3475 -14.3126 -14.2995 -14.2705 -14.2705 -14.2430
    -6.5697  -6.5697  -6.5440  -6.4723  -6.4040  -6.1864  -6.1864  -5.9704
    -5.8311  -5.8178  -5.8178  -5.8131  -5.8131  -5.8010  -5.7908  -5.7736
    -5.7651  -5.7300  -5.7180  -5.7042  -5.7042  -5.6882  -5.6882  -5.6405
    -0.1076   0.0724   0.1065   0.1066   0.2276   0.2579   0.3007   0.3007
     0.3236   0.3532   0.3758   0.3758   0.4673   0.4948   0.5222   0.5222
     0.5349   0.5349   0.5616   0.6200   0.6218   0.6265   0.6538   0.6538
     6.2114   6.2453   6.2453   6.2797   6.5796   6.7830   6.7830   6.7860
     6.7860   6.8732   7.0026   7.0464   7.0615   7.0615   7.0615   7.1464
     7.2575   7.2674   7.4446   7.4446   7.5007   7.5066   7.5504   7.5504
     7.6752   7.7413   7.7413   7.7577   7.8057   7.8057   7.8719   7.8719
     7.8943   7.9247   7.9487   7.9985   8.0213   8.2190   8.2579   8.2579
     8.2699   8.2699   8.5047   8.5762   8.5777   8.5777   8.6175   8.7620
     9.1476   9.1476   9.2263   9.2369   9.2917   9.3935   9.4770   9.4796
     9.4994   9.4994   9.5101   9.5101   9.5483   9.5483   9.7393   9.7800
     9.7845   9.7845   9.8684   9.8690   9.9431   9.9431  10.0016  10.0199
    12.8408  12.9558  12.9559  13.0362  13.1580  13.3101  13.4333  13.5262
    13.5262  13.6102  13.6102  13.6210  13.7693  13.7693  13.8784  14.0327
    14.0715  14.0930  14.1049  14.1049  14.2261  14.2261  14.3004  14.3230
    14.9495  15.0014  15.0014  15.1310  15.7187  15.7695  16.1377  16.1377
    16.4105  16.4105  16.5705  16.6461  16.9372  17.0767  17.0867  17.1961

          k = 0.3750 0.3750 0.1236 ( 41941 PWs)   bands (ev):

   -46.1064 -46.1060 -46.1060 -46.1056 -46.1056 -46.1052 -46.1052 -46.1048
   -22.4383 -22.4371 -22.4371 -22.4360 -22.3945 -22.3937 -22.3937 -22.3929
   -22.3703 -22.3703 -22.3695 -22.3688 -22.3679 -22.3679 -22.3671 -22.3668
   -22.3501 -22.3494 -22.3488 -22.3488 -22.3479 -22.3476 -22.3469 -22.3469
   -14.3855 -14.3446 -14.3446 -14.3100 -14.3030 -14.2735 -14.2735 -14.2457
    -6.5536  -6.5536  -6.5319  -6.4547  -6.4011  -6.1958  -6.1958  -5.9925
    -5.8367  -5.8232  -5.8232  -5.8122  -5.8122  -5.7961  -5.7881  -5.7853
    -5.7606  -5.7318  -5.7208  -5.7070  -5.7070  -5.6893  -5.6893  -5.6454
    -0.0915   0.0537   0.1175   0.1175   0.2327   0.2785   0.2786   0.3068
     0.3078   0.3487   0.3641   0.3641   0.4301   0.4539   0.4685   0.4788
     0.4788   0.5582   0.5582   0.6603   0.6679   0.6817   0.6985   0.6985
     6.2614   6.2942   6.2942   6.3316   6.5708   6.7716   6.7716   6.7871
     6.7871   6.8651   7.0122   7.0464   7.0603   7.0819   7.0819   7.1497
     7.2345   7.2877   7.4194   7.4194   7.5116   7.5423   7.5690   7.5690
     7.6697   7.6834   7.6834   7.7643   7.8603   7.8603   7.8677   7.8774
     7.8774   7.8948   7.9569   7.9884   7.9993   8.1868   8.1868   8.2271
     8.2585   8.2585   8.4468   8.5230   8.5756   8.5756   8.5926   8.7339
     9.1995   9.1995   9.2247   9.2765   9.3272   9.4058   9.4563   9.4563
     9.4798   9.4798   9.4902   9.5008   9.5944   9.5944   9.7053   9.7703
     9.7703   9.7762   9.8489   9.8506   9.9323   9.9323   9.9956  10.0124
    12.8882  13.0017  13.0017  13.0624  13.1670  13.3041  13.4676  13.5416
    13.5416  13.6181  13.6181  13.6398  13.7624  13.7624  13.8869  13.9843
    14.0257  14.0599  14.0599  14.0835  14.1887  14.1887  14.2637  14.2876
    15.0630  15.1110  15.1110  15.2501  15.7218  15.7679  16.1379  16.1379
    16.4168  16.4168  16.6264  16.6827  16.9476  17.0278  17.0745  17.2377

          k = 0.3750 0.3750 0.2473 ( 41935 PWs)   bands (ev):

   -46.1063 -46.1059 -46.1059 -46.1057 -46.1055 -46.1053 -46.1053 -46.1049
   -22.4332 -22.4320 -22.4320 -22.4310 -22.3997 -22.3988 -22.3988 -22.3979
   -22.3700 -22.3700 -22.3692 -22.3686 -22.3682 -22.3682 -22.3674 -22.3670
   -22.3499 -22.3492 -22.3486 -22.3486 -22.3482 -22.3478 -22.3471 -22.3471
   -14.3760 -14.3364 -14.3364 -14.3128 -14.3025 -14.2820 -14.2819 -14.2534
    -6.5076  -6.5076  -6.4992  -6.4042  -6.3959  -6.2274  -6.2274  -6.0523
    -5.8505  -5.8322  -5.8322  -5.8146  -5.8115  -5.8115  -5.7848  -5.7803
    -5.7476  -5.7372  -5.7288  -5.7129  -5.7129  -5.6937  -5.6937  -5.6595
    -0.0456   0.0384   0.1488   0.1488   0.2443   0.2443   0.2469   0.2591
     0.3300   0.3300   0.3357   0.3392   0.3732   0.3913   0.3935   0.3936
     0.4127   0.6317   0.6317   0.7168   0.7253   0.7312   0.7512   0.7513
     6.3821   6.4153   6.4153   6.4723   6.5505   6.7316   6.7316   6.8242
     6.8242   6.8770   7.0466   7.0571   7.0571   7.1378   7.1378   7.1402
     7.1647   7.3449   7.3449   7.3585   7.5274   7.6188   7.6188   7.6246
     7.6246   7.6529   7.6551   7.7384   7.7613   7.8918   7.8919   7.8971
     7.8971   7.8973   7.9461   7.9641   7.9821   8.0641   8.0641   8.2172
     8.2268   8.2268   8.3226   8.3379   8.4848   8.4848   8.5327   8.6324
     9.2542   9.3340   9.3340   9.3753   9.4179   9.4179   9.4205   9.4380
     9.4443   9.4443   9.5271   9.5494   9.6412   9.6412   9.6520   9.7357
     9.7357   9.7623   9.7857   9.8011   9.8957   9.8957   9.9785   9.9929
    13.0154  13.1286  13.1286  13.1427  13.1967  13.2865  13.5622  13.5869
    13.5869  13.6426  13.6426  13.6952  13.7409  13.7409  13.8508  13.8962
    13.9115  13.9362  13.9362  14.0549  14.0871  14.0871  14.1658  14.1910
    15.3656  15.3969  15.3969  15.5724  15.7297  15.7636  16.1331  16.1331
    16.4424  16.4424  16.7911  16.7931  16.8526  16.9738  17.0674  17.2106

          k = 0.3750 0.3750 0.3709 ( 41964 PWs)   bands (ev):

   -46.1062 -46.1059 -46.1058 -46.1058 -46.1055 -46.1055 -46.1054 -46.1051
   -22.4256 -22.4244 -22.4244 -22.4234 -22.4074 -22.4064 -22.4064 -22.4055
   -22.3696 -22.3696 -22.3688 -22.3686 -22.3686 -22.3682 -22.3678 -22.3674
   -22.3495 -22.3489 -22.3486 -22.3483 -22.3482 -22.3481 -22.3475 -22.3475
   -14.3616 -14.3275 -14.3241 -14.3240 -14.2946 -14.2946 -14.2914 -14.2647
    -6.4563  -6.4390  -6.4390  -6.3983  -6.3271  -6.2841  -6.2841  -6.1375
    -5.8640  -5.8468  -5.8334  -5.8334  -5.8154  -5.8154  -5.7712  -5.7687
    -5.7461  -5.7408  -5.7279  -5.7157  -5.7157  -5.7019  -5.7019  -5.6802
     0.0234   0.0582   0.1883   0.1954   0.1954   0.2166   0.2301   0.2301
     0.2679   0.2815   0.2815   0.3159   0.3199   0.3200   0.3343   0.3443
     0.5290   0.6985   0.7043   0.7044   0.7723   0.7723   0.7740   0.7770
     6.4821   6.5312   6.5342   6.5342   6.6585   6.6754   6.6754   6.9434
     6.9434   6.9842   7.0023   7.0476   7.0532   7.1691   7.1817   7.2317
     7.2317   7.2387   7.2387   7.4430   7.5431   7.5431   7.5547   7.5637
     7.6252   7.6838   7.6838   7.7032   7.8170   7.8412   7.8412   7.8994
     7.9037   7.9354   7.9354   7.9376   7.9920   7.9920   8.0267   8.0759
     8.1533   8.1913   8.1914   8.1964   8.3215   8.3215   8.4687   8.4926
     9.3706   9.4026   9.4026   9.4071   9.4071   9.4549   9.4741   9.5403
     9.5421   9.5421   9.5824   9.5966   9.6314   9.6622   9.6622   9.6762
     9.7011   9.7011   9.7266   9.7305   9.8244   9.8244   9.9590   9.9697
    13.1561  13.2584  13.2781  13.2840  13.3116  13.3116  13.6477  13.6477
    13.6628  13.6900  13.6900  13.6977  13.6977  13.6993  13.7046  13.7746
    13.7746  13.7843  13.9487  13.9487  13.9491  13.9944  14.0353  14.0691
    15.7394  15.7457  15.7458  15.7571  15.7719  16.0160  16.1044  16.1044
    16.5173  16.5173  16.5685  16.9096  17.0030  17.0030  17.0052  17.0541

          k = 0.3750 0.3750-0.4946 ( 41944 PWs)   bands (ev):

   -46.1060 -46.1060 -46.1056 -46.1056 -46.1056 -46.1056 -46.1052 -46.1052
   -22.4165 -22.4165 -22.4155 -22.4155 -22.4154 -22.4154 -22.4145 -22.4145
   -22.3691 -22.3691 -22.3691 -22.3691 -22.3683 -22.3683 -22.3678 -22.3678
   -22.3490 -22.3490 -22.3485 -22.3485 -22.3479 -22.3479 -22.3478 -22.3478
   -14.3447 -14.3446 -14.3094 -14.3094 -14.3093 -14.3093 -14.2781 -14.2781
    -6.4186  -6.4184  -6.3595  -6.3595  -6.3594  -6.3594  -6.2339  -6.2338
    -5.8653  -5.8652  -5.8252  -5.8252  -5.8251  -5.8251  -5.7578  -5.7577
    -5.7549  -5.7547  -5.7111  -5.7111  -5.7110  -5.7109  -5.7043  -5.7042
     0.1055   0.1056   0.1190   0.1191   0.2393   0.2394   0.2394   0.2394
     0.2580   0.2580   0.2580   0.2580   0.2921   0.2922   0.3240   0.3241
     0.6310   0.6311   0.7553   0.7553   0.7553   0.7553   0.7926   0.7926
     6.5164   6.5165   6.6124   6.6124   6.6124   6.6124   6.8404   6.8404
     7.0498   7.0498   7.1070   7.1070   7.1070   7.1070   7.1370   7.1370
     7.3554   7.3555   7.3849   7.3849   7.3849   7.3849   7.5605   7.5605
     7.5898   7.5899   7.7544   7.7544   7.7544   7.7544   7.9167   7.9167
     7.9177   7.9178   7.9727   7.9727   7.9728   7.9728   8.0021   8.0022
     8.0963   8.0964   8.2052   8.2052   8.2053   8.2053   8.4372   8.4373
     9.4095   9.4095   9.4095   9.4095   9.4871   9.4872   9.5283   9.5283
     9.6230   9.6230   9.6514   9.6515   9.6528   9.6529   9.6584   9.6584
     9.6585   9.6585   9.7197   9.7197   9.7198   9.7198   9.9546   9.9548
    13.2200  13.2201  13.4596  13.4597  13.4830  13.4831  13.5197  13.5197
    13.5198  13.5198  13.6963  13.6963  13.6963  13.6963  13.8081  13.8081
    13.8082  13.8082  13.8572  13.8573  13.9013  13.9014  13.9969  13.9969
    15.7489  15.7489  16.0010  16.0010  16.0010  16.0010  16.1948  16.1949
    16.4892  16.4894  16.7089  16.7089  16.7090  16.7090  17.0333  17.0333

          k = 0.3750-0.5000 0.0000 ( 41904 PWs)   bands (ev):

   -46.1063 -46.1063 -46.1059 -46.1059 -46.1054 -46.1054 -46.1050 -46.1050
   -22.4395 -22.4395 -22.4383 -22.4383 -22.3923 -22.3923 -22.3915 -22.3915
   -22.3698 -22.3698 -22.3673 -22.3673 -22.3602 -22.3602 -22.3591 -22.3591
   -22.3578 -22.3578 -22.3569 -22.3569 -22.3494 -22.3494 -22.3473 -22.3473
   -14.3683 -14.3682 -14.3301 -14.3301 -14.2851 -14.2850 -14.2568 -14.2568
    -6.5496  -6.5496  -6.5161  -6.5161  -6.2988  -6.2988  -6.0814  -6.0814
    -5.8163  -5.8163  -5.8091  -5.8091  -5.7953  -5.7953  -5.7849  -5.7849
    -5.7621  -5.7621  -5.7274  -5.7274  -5.7007  -5.7006  -5.6629  -5.6629
    -0.0138  -0.0138   0.1540   0.1540   0.1851   0.1851   0.3407   0.3407
     0.3560   0.3560   0.3962   0.3962   0.3986   0.3986   0.5006   0.5007
     0.5653   0.5653   0.5863   0.5863   0.6287   0.6287   0.6465   0.6465
     6.2359   6.2359   6.2692   6.2692   6.7011   6.7011   6.8666   6.8666
     6.8918   6.8918   7.0403   7.0404   7.1193   7.1194   7.2328   7.2328
     7.2981   7.2982   7.3299   7.3299   7.4384   7.4385   7.5174   7.5175
     7.5449   7.5449   7.7873   7.7873   7.8725   7.8726   7.8886   7.8886
     7.9166   7.9166   7.9859   7.9859   8.0990   8.0990   8.1280   8.1280
     8.3701   8.3701   8.4186   8.4186   8.5316   8.5316   8.6156   8.6156
     9.2133   9.2133   9.2291   9.2292   9.3781   9.3781   9.4266   9.4266
     9.4990   9.4990   9.6148   9.6148   9.6338   9.6338   9.7278   9.7278
     9.7360   9.7360   9.8399   9.8399   9.9230   9.9230   9.9509   9.9509
    12.9200  12.9200  13.2100  13.2100  13.2549  13.2549  13.3748  13.3748
    13.5400  13.5400  13.5522  13.5522  13.7281  13.7281  13.9274  13.9274
    14.0734  14.0734  14.1319  14.1319  14.1973  14.1973  14.2707  14.2707
    14.9916  14.9916  15.0936  15.0936  15.9880  15.9881  16.1091  16.1091
    16.5874  16.5874  16.7506  16.7506  16.8722  16.8723  17.0956  17.0957

          k = 0.3750-0.5000 0.1236 ( 41940 PWs)   bands (ev):

   -46.1062 -46.1062 -46.1058 -46.1058 -46.1054 -46.1054 -46.1050 -46.1050
   -22.4377 -22.4377 -22.4365 -22.4365 -22.3941 -22.3941 -22.3933 -22.3933
   -22.3697 -22.3697 -22.3674 -22.3674 -22.3601 -22.3601 -22.3590 -22.3590
   -22.3578 -22.3578 -22.3569 -22.3569 -22.3493 -22.3493 -22.3473 -22.3473
   -14.3652 -14.3651 -14.3274 -14.3274 -14.2883 -14.2883 -14.2597 -14.2596
    -6.5354  -6.5354  -6.4992  -6.4992  -6.3005  -6.3005  -6.0951  -6.0951
    -5.8184  -5.8184  -5.8108  -5.8108  -5.8048  -5.8048  -5.7827  -5.7827
    -5.7625  -5.7625  -5.7291  -5.7291  -5.7032  -5.7032  -5.6665  -5.6665
    -0.0002  -0.0002   0.1619   0.1620   0.1635   0.1636   0.3263   0.3264
     0.3486   0.3486   0.3654   0.3654   0.4432   0.4432   0.4519   0.4519
     0.4782   0.4782   0.6248   0.6248   0.6906   0.6906   0.6940   0.6940
     6.2860   6.2860   6.3195   6.3195   6.6874   6.6874   6.8576   6.8576
     6.8983   6.8983   7.0156   7.0156   7.1316   7.1316   7.2237   7.2237
     7.3175   7.3175   7.3586   7.3586   7.4255   7.4255   7.5334   7.5334
     7.5419   7.5419   7.7972   7.7972   7.8010   7.8011   7.8906   7.8906
     7.9228   7.9228   8.0334   8.0334   8.0798   8.0798   8.0984   8.0984
     8.3108   8.3108   8.3968   8.3968   8.4961   8.4961   8.5949   8.5949
     9.2638   9.2638   9.2668   9.2668   9.3611   9.3611   9.4190   9.4190
     9.5303   9.5303   9.5847   9.5847   9.6216   9.6216   9.7365   9.7365
     9.7365   9.7365   9.8237   9.8237   9.9124   9.9124   9.9401   9.9401
    12.9656  12.9656  13.2485  13.2485  13.2757  13.2757  13.3834  13.3834
    13.5333  13.5334  13.5706  13.5706  13.7366  13.7366  13.9189  13.9189
    14.0269  14.0269  14.0894  14.0894  14.1563  14.1563  14.2341  14.2341
    15.1036  15.1036  15.2105  15.2105  15.9905  15.9905  16.1109  16.1109
    16.5916  16.5917  16.7499  16.7499  16.9205  16.9205  17.1222  17.1222

          k = 0.3750-0.5000 0.2473 ( 41954 PWs)   bands (ev):

   -46.1061 -46.1061 -46.1057 -46.1057 -46.1055 -46.1055 -46.1051 -46.1051
   -22.4326 -22.4326 -22.4315 -22.4315 -22.3992 -22.3992 -22.3984 -22.3984
   -22.3695 -22.3695 -22.3677 -22.3677 -22.3598 -22.3598 -22.3587 -22.3587
   -22.3581 -22.3581 -22.3572 -22.3572 -22.3491 -22.3491 -22.3476 -22.3476
   -14.3563 -14.3563 -14.3195 -14.3195 -14.2975 -14.2974 -14.2677 -14.2677
    -6.4957  -6.4957  -6.4510  -6.4510  -6.3094  -6.3093  -6.1374  -6.1374
    -5.8267  -5.8267  -5.8265  -5.8265  -5.8115  -5.8115  -5.7791  -5.7790
    -5.7602  -5.7602  -5.7315  -5.7315  -5.7111  -5.7111  -5.6771  -5.6771
     0.0384   0.0384   0.1370   0.1370   0.1845   0.1845   0.2851   0.2852
     0.3163   0.3163   0.3274   0.3274   0.3641   0.3641   0.3757   0.3757
     0.5359   0.5359   0.6954   0.6954   0.7458   0.7458   0.7529   0.7529
     6.4084   6.4084   6.4507   6.4507   6.6521   6.6521   6.8686   6.8686
     6.9392   6.9392   6.9454   6.9454   7.1554   7.1554   7.1989   7.1989
     7.3603   7.3603   7.4057   7.4057   7.4366   7.4366   7.4947   7.4947
     7.6189   7.6189   7.6851   7.6851   7.8090   7.8090   7.8984   7.8984
     7.9430   7.9431   8.0304   8.0304   8.0326   8.0326   8.0689   8.0689
     8.1884   8.1884   8.3404   8.3404   8.3528   8.3528   8.4904   8.4904
     9.3366   9.3366   9.3751   9.3751   9.3983   9.3983   9.4264   9.4264
     9.5476   9.5476   9.5839   9.5839   9.5987   9.5987   9.7332   9.7332
     9.7425   9.7425   9.7813   9.7813   9.8847   9.8847   9.9070   9.9070
    13.0913  13.0913  13.3383  13.3383  13.3550  13.3550  13.4099  13.4099
    13.5138  13.5138  13.6252  13.6252  13.7612  13.7612  13.8932  13.8932
    13.8988  13.8988  13.9710  13.9710  14.0448  14.0448  14.1343  14.1343
    15.3984  15.3984  15.5248  15.5248  15.9953  15.9953  16.1210  16.1210
    16.5975  16.5975  16.7484  16.7484  17.0303  17.0303  17.2364  17.2369

          k = 0.3750-0.5000 0.3709 ( 41976 PWs)   bands (ev):

   -46.1060 -46.1060 -46.1057 -46.1057 -46.1056 -46.1056 -46.1053 -46.1053
   -22.4250 -22.4250 -22.4239 -22.4239 -22.4069 -22.4069 -22.4060 -22.4060
   -22.3691 -22.3691 -22.3681 -22.3681 -22.3594 -22.3594 -22.3585 -22.3585
   -22.3584 -22.3584 -22.3575 -22.3575 -22.3487 -22.3487 -22.3479 -22.3479
   -14.3429 -14.3429 -14.3111 -14.3111 -14.3078 -14.3078 -14.2797 -14.2797
    -6.4394  -6.4394  -6.3782  -6.3782  -6.3345  -6.3345  -6.2067  -6.2066
    -5.8456  -5.8456  -5.8399  -5.8399  -5.8054  -5.8054  -5.7821  -5.7821
    -5.7515  -5.7514  -5.7262  -5.7262  -5.7234  -5.7234  -5.6931  -5.6931
     0.0952   0.0952   0.1398   0.1398   0.2181   0.2181   0.2234   0.2234
     0.2639   0.2639   0.2849   0.2849   0.2960   0.2960   0.3146   0.3146
     0.6333   0.6333   0.7517   0.7517   0.7571   0.7571   0.7903   0.7903
     6.5173   6.5173   6.6045   6.6045   6.6096   6.6096   6.8455   6.8455
     6.9712   6.9712   7.0594   7.0594   7.1645   7.1645   7.1903   7.1903
     7.3713   7.3713   7.4108   7.4108   7.4137   7.4137   7.5432   7.5432
     7.5691   7.5692   7.7444   7.7444   7.7707   7.7707   7.9133   7.9133
     7.9616   7.9616   7.9796   7.9796   7.9822   7.9822   8.0497   8.0497
     8.0757   8.0757   8.1355   8.1355   8.2734   8.2734   8.3226   8.3226
     9.4117   9.4117   9.4547   9.4547   9.4626   9.4626   9.5273   9.5273
     9.5656   9.5656   9.5749   9.5749   9.6272   9.6272   9.7147   9.7148
     9.7221   9.7221   9.7284   9.7284   9.8518   9.8518   9.8590   9.8590
    13.2683  13.2683  13.4244  13.4244  13.4760  13.4760  13.4813  13.4813
    13.5091  13.5091  13.7137  13.7137  13.7176  13.7176  13.8004  13.8004
    13.8029  13.8029  13.8380  13.8380  13.9019  13.9019  13.9979  13.9979
    15.7589  15.7589  15.9489  15.9490  15.9940  15.9940  16.1722  16.1722
    16.5717  16.5717  16.7467  16.7468  16.7509  16.7509  16.9743  16.9743

          k = 0.3750-0.5000-0.4946 ( 41956 PWs)   bands (ev):

   -46.1058 -46.1058 -46.1058 -46.1058 -46.1054 -46.1054 -46.1054 -46.1054
   -22.4160 -22.4160 -22.4160 -22.4160 -22.4150 -22.4150 -22.4150 -22.4150
   -22.3686 -22.3686 -22.3686 -22.3686 -22.3590 -22.3590 -22.3589 -22.3589
   -22.3580 -22.3580 -22.3580 -22.3580 -22.3483 -22.3483 -22.3483 -22.3483
   -14.3271 -14.3271 -14.3270 -14.3270 -14.2938 -14.2938 -14.2938 -14.2937
    -6.3806  -6.3806  -6.3805  -6.3805  -6.2921  -6.2920  -6.2919  -6.2919
    -5.8497  -5.8497  -5.8496  -5.8496  -5.7935  -5.7935  -5.7934  -5.7934
    -5.7380  -5.7380  -5.7379  -5.7379  -5.7113  -5.7113  -5.7112  -5.7112
     0.1574   0.1574   0.1575   0.1575   0.1854   0.1854   0.1854   0.1855
     0.2577   0.2577   0.2577   0.2577   0.2830   0.2830   0.2831   0.2831
     0.7110   0.7110   0.7110   0.7110   0.7916   0.7916   0.7917   0.7917
     6.5703   6.5703   6.5703   6.5704   6.7330   6.7331   6.7331   6.7331
     7.1064   7.1064   7.1064   7.1064   7.2524   7.2525   7.2525   7.2525
     7.2751   7.2751   7.2752   7.2752   7.4741   7.4741   7.4742   7.4742
     7.6649   7.6649   7.6649   7.6649   7.8984   7.8984   7.8985   7.8985
     7.9197   7.9197   7.9198   7.9198   7.9996   7.9996   7.9997   7.9997
     8.0407   8.0407   8.0407   8.0408   8.2386   8.2386   8.2386   8.2386
     9.4791   9.4791   9.4791   9.4791   9.5021   9.5021   9.5022   9.5022
     9.6355   9.6355   9.6355   9.6355   9.6503   9.6503   9.6503   9.6503
     9.6933   9.6933   9.6934   9.6934   9.8345   9.8345   9.8347   9.8347
    13.4239  13.4239  13.4239  13.4239  13.5271  13.5271  13.5271  13.5271
    13.6231  13.6231  13.6232  13.6232  13.6860  13.6860  13.6861  13.6861
    13.8156  13.8156  13.8157  13.8157  13.8678  13.8678  13.8678  13.8678
    15.9587  15.9587  15.9587  15.9587  16.3641  16.3641  16.3642  16.3642
    16.4026  16.4027  16.4028  16.4028  16.7855  16.7855  16.7855  16.7855

          k =-0.5000-0.5000 0.0000 ( 41836 PWs)   bands (ev):

   -46.1061 -46.1061 -46.1061 -46.1061 -46.1052 -46.1052 -46.1052 -46.1052
   -22.4389 -22.4389 -22.4389 -22.4389 -22.3919 -22.3919 -22.3919 -22.3919
   -22.3600 -22.3600 -22.3600 -22.3600 -22.3592 -22.3592 -22.3592 -22.3592
   -22.3575 -22.3575 -22.3575 -22.3575 -22.3571 -22.3571 -22.3571 -22.3571
   -14.3493 -14.3493 -14.3492 -14.3492 -14.2710 -14.2710 -14.2710 -14.2710
    -6.5257  -6.5257  -6.5257  -6.5257  -6.1936  -6.1936  -6.1936  -6.1936
    -5.8017  -5.8017  -5.8017  -5.8017  -5.7783  -5.7783  -5.7783  -5.7782
    -5.7756  -5.7756  -5.7756  -5.7756  -5.6798  -5.6797  -5.6797  -5.6797
     0.0555   0.0555   0.0555   0.0555   0.2890   0.2890   0.2891   0.2891
     0.3387   0.3387   0.3387   0.3387   0.5047   0.5047   0.5047   0.5048
     0.5339   0.5339   0.5340   0.5340   0.6464   0.6464   0.6464   0.6464
     6.2601   6.2601   6.2601   6.2601   6.8936   6.8936   6.8936   6.8936
     6.9106   6.9107   6.9107   6.9107   7.3029   7.3029   7.3029   7.3029
     7.3161   7.3162   7.3162   7.3162   7.3693   7.3693   7.3693   7.3693
     7.6955   7.6955   7.6955   7.6956   7.8489   7.8489   7.8489   7.8489
     7.9065   7.9065   7.9065   7.9066   8.2211   8.2211   8.2211   8.2211
     8.2416   8.2417   8.2417   8.2417   8.5209   8.5209   8.5209   8.5209
     9.2559   9.2559   9.2559   9.2559   9.4837   9.4837   9.4837   9.4837
     9.5177   9.5177   9.5177   9.5177   9.6880   9.6880   9.6880   9.6880
     9.7764   9.7764   9.7764   9.7764   9.8984   9.8984   9.8984   9.8985
    13.1219  13.1219  13.1219  13.1219  13.3412  13.3412  13.3412  13.3412
    13.5368  13.5368  13.5368  13.5368  13.7313  13.7313  13.7313  13.7313
    14.1455  14.1455  14.1455  14.1455  14.1806  14.1806  14.1806  14.1806
    15.0664  15.0665  15.0665  15.0665  16.3601  16.3601  16.3601  16.3601
    16.4415  16.4415  16.4415  16.4415  17.1346  17.1347  17.3278  17.3279

          k =-0.5000-0.5000 0.1236 ( 41948 PWs)   bands (ev):

   -46.1060 -46.1060 -46.1060 -46.1060 -46.1052 -46.1052 -46.1052 -46.1052
   -22.4371 -22.4371 -22.4371 -22.4371 -22.3937 -22.3937 -22.3937 -22.3937
   -22.3599 -22.3599 -22.3599 -22.3599 -22.3591 -22.3591 -22.3591 -22.3591
   -22.3576 -22.3576 -22.3576 -22.3576 -22.3572 -22.3572 -22.3572 -22.3572
   -14.3464 -14.3463 -14.3463 -14.3463 -14.2741 -14.2740 -14.2740 -14.2740
    -6.5102  -6.5102  -6.5102  -6.5102  -6.1995  -6.1995  -6.1995  -6.1995
    -5.8083  -5.8083  -5.8083  -5.8083  -5.7802  -5.7802  -5.7802  -5.7802
    -5.7746  -5.7746  -5.7746  -5.7746  -5.6836  -5.6836  -5.6836  -5.6836
     0.0664   0.0664   0.0664   0.0664   0.2624   0.2625   0.2625   0.2625
     0.3280   0.3280   0.3280   0.3280   0.4654   0.4654   0.4654   0.4654
     0.5472   0.5472   0.5472   0.5472   0.7019   0.7019   0.7019   0.7019
     6.3105   6.3105   6.3105   6.3105   6.8710   6.8710   6.8710   6.8710
     6.9041   6.9041   6.9041   6.9041   7.3043   7.3043   7.3043   7.3043
     7.3627   7.3627   7.3627   7.3627   7.3662   7.3663   7.3663   7.3663
     7.6390   7.6390   7.6390   7.6390   7.8870   7.8870   7.8870   7.8870
     7.9100   7.9100   7.9100   7.9100   8.1969   8.1969   8.1969   8.1969
     8.2088   8.2088   8.2088   8.2088   8.4840   8.4840   8.4841   8.4841
     9.3011   9.3011   9.3011   9.3011   9.4585   9.4585   9.4585   9.4586
     9.5264   9.5264   9.5264   9.5264   9.6874   9.6874   9.6874   9.6874
     9.7782   9.7782   9.7782   9.7782   9.8851   9.8851   9.8851   9.8851
    13.1628  13.1628  13.1628  13.1629  13.3613  13.3613  13.3613  13.3613
    13.5456  13.5456  13.5456  13.5456  13.7235  13.7235  13.7235  13.7235
    14.1024  14.1024  14.1024  14.1024  14.1397  14.1397  14.1397  14.1397
    15.1831  15.1832  15.1832  15.1832  16.3651  16.3652  16.3652  16.3652
    16.4396  16.4396  16.4396  16.4396  17.2677  17.2680  17.2681  17.2682

          k =-0.5000-0.5000 0.2473 ( 41952 PWs)   bands (ev):

   -46.1059 -46.1059 -46.1059 -46.1059 -46.1053 -46.1053 -46.1053 -46.1053
   -22.4321 -22.4321 -22.4321 -22.4321 -22.3988 -22.3988 -22.3988 -22.3988
   -22.3596 -22.3596 -22.3596 -22.3596 -22.3589 -22.3589 -22.3589 -22.3589
   -22.3579 -22.3579 -22.3579 -22.3579 -22.3574 -22.3574 -22.3574 -22.3574
   -14.3380 -14.3380 -14.3380 -14.3380 -14.2827 -14.2826 -14.2826 -14.2826
    -6.4661  -6.4661  -6.4661  -6.4661  -6.2211  -6.2210  -6.2210  -6.2210
    -5.8219  -5.8219  -5.8219  -5.8219  -5.7928  -5.7928  -5.7928  -5.7928
    -5.7643  -5.7642  -5.7642  -5.7642  -5.6946  -5.6946  -5.6946  -5.6946
     0.0972   0.0972   0.0973   0.0973   0.2233   0.2233   0.2233   0.2233
     0.2975   0.2975   0.2975   0.2975   0.3654   0.3654   0.3655   0.3655
     0.6313   0.6313   0.6313   0.6313   0.7637   0.7637   0.7637   0.7637
     6.4375   6.4375   6.4375   6.4375   6.8104   6.8104   6.8104   6.8104
     6.9216   6.9216   6.9216   6.9216   7.3090   7.3091   7.3091   7.3091
     7.3575   7.3575   7.3575   7.3575   7.4804   7.4804   7.4804   7.4804
     7.5472   7.5472   7.5472   7.5472   7.9219   7.9219   7.9219   7.9220
     7.9221   7.9221   7.9221   7.9221   8.1335   8.1335   8.1335   8.1335
     8.1337   8.1337   8.1337   8.1337   8.3440   8.3440   8.3440   8.3440
     9.4068   9.4068   9.4068   9.4068   9.4425   9.4425   9.4425   9.4425
     9.5505   9.5505   9.5505   9.5505   9.6778   9.6778   9.6778   9.6778
     9.7792   9.7792   9.7792   9.7793   9.8491   9.8491   9.8491   9.8491
    13.2759  13.2759  13.2759  13.2759  13.4223  13.4223  13.4223  13.4223
    13.5711  13.5711  13.5711  13.5712  13.7005  13.7005  13.7005  13.7005
    13.9860  13.9860  13.9860  13.9860  14.0255  14.0255  14.0255  14.0255
    15.4973  15.4973  15.4973  15.4974  16.3782  16.3782  16.3782  16.3782
    16.4340  16.4340  16.4340  16.4340  17.0860  17.0860  17.0861  17.0861

          k =-0.5000-0.5000 0.3709 ( 41904 PWs)   bands (ev):

   -46.1058 -46.1058 -46.1058 -46.1058 -46.1055 -46.1055 -46.1055 -46.1055
   -22.4245 -22.4245 -22.4245 -22.4245 -22.4065 -22.4065 -22.4065 -22.4065
   -22.3592 -22.3592 -22.3592 -22.3592 -22.3586 -22.3586 -22.3586 -22.3586
   -22.3583 -22.3583 -22.3583 -22.3583 -22.3578 -22.3578 -22.3578 -22.3578
   -14.3255 -14.3254 -14.3254 -14.3254 -14.2955 -14.2955 -14.2954 -14.2954
    -6.4015  -6.4015  -6.4015  -6.4015  -6.2648  -6.2648  -6.2648  -6.2648
    -5.8296  -5.8296  -5.8296  -5.8296  -5.8096  -5.8096  -5.8096  -5.8096
    -5.7486  -5.7486  -5.7486  -5.7486  -5.7109  -5.7109  -5.7109  -5.7109
     0.1433   0.1433   0.1434   0.1434   0.2076   0.2076   0.2076   0.2076
     0.2517   0.2517   0.2518   0.2518   0.2811   0.2811   0.2811   0.2811
     0.7132   0.7132   0.7132   0.7132   0.7887   0.7887   0.7887   0.7887
     6.5676   6.5676   6.5676   6.5676   6.7327   6.7327   6.7327   6.7327
     7.0352   7.0352   7.0352   7.0352   7.3178   7.3178   7.3178   7.3178
     7.3446   7.3446   7.3446   7.3446   7.4273   7.4273   7.4273   7.4273
     7.6429   7.6429   7.6429   7.6430   7.9399   7.9399   7.9399   7.9399
     7.9470   7.9471   7.9471   7.9471   8.0534   8.0534   8.0534   8.0534
     8.0538   8.0538   8.0538   8.0538   8.1036   8.1036   8.1036   8.1036
     9.4937   9.4937   9.4937   9.4937   9.5170   9.5170   9.5170   9.5170
     9.5798   9.5798   9.5798   9.5798   9.6432   9.6432   9.6432   9.6432
     9.7730   9.7730   9.7730   9.7730   9.8033   9.8034   9.8034   9.8034
    13.4366  13.4366  13.4366  13.4366  13.5248  13.5248  13.5248  13.5248
    13.6131  13.6131  13.6131  13.6131  13.6621  13.6621  13.6621  13.6622
    13.8280  13.8280  13.8280  13.8280  13.8609  13.8609  13.8609  13.8609
    15.9258  15.9258  15.9258  15.9258  16.3947  16.3947  16.3947  16.3948
    16.4243  16.4243  16.4243  16.4244  16.7823  16.7823  16.7823  16.7823

          k =-0.5000-0.5000-0.4946 ( 41912 PWs)   bands (ev):

   -46.1056 -46.1056 -46.1056 -46.1056 -46.1056 -46.1056 -46.1056 -46.1056
   -22.4155 -22.4155 -22.4155 -22.4155 -22.4155 -22.4155 -22.4155 -22.4155
   -22.3588 -22.3588 -22.3588 -22.3588 -22.3588 -22.3588 -22.3588 -22.3588
   -22.3582 -22.3582 -22.3582 -22.3582 -22.3581 -22.3581 -22.3581 -22.3581
   -14.3106 -14.3106 -14.3105 -14.3105 -14.3105 -14.3104 -14.3104 -14.3104
    -6.3292  -6.3292  -6.3292  -6.3292  -6.3291  -6.3291  -6.3291  -6.3291
    -5.8245  -5.8245  -5.8245  -5.8245  -5.8244  -5.8244  -5.8244  -5.8244
    -5.7299  -5.7299  -5.7299  -5.7299  -5.7298  -5.7298  -5.7298  -5.7298
     0.1976   0.1976   0.1976   0.1976   0.1977   0.1977   0.1977   0.1977
     0.2264   0.2264   0.2265   0.2265   0.2265   0.2265   0.2265   0.2265
     0.7702   0.7702   0.7702   0.7702   0.7702   0.7702   0.7702   0.7702
     6.6555   6.6555   6.6555   6.6556   6.6556   6.6556   6.6556   6.6556
     7.2410   7.2410   7.2410   7.2410   7.2411   7.2411   7.2411   7.2411
     7.3303   7.3303   7.3303   7.3303   7.3303   7.3304   7.3304   7.3304
     7.8473   7.8473   7.8473   7.8473   7.8473   7.8473   7.8473   7.8474
     7.9844   7.9844   7.9844   7.9844   7.9844   7.9844   7.9844   7.9845
     7.9899   7.9899   7.9899   7.9899   7.9900   7.9900   7.9900   7.9900
     9.5763   9.5764   9.5764   9.5764   9.5764   9.5764   9.5764   9.5764
     9.5816   9.5816   9.5816   9.5816   9.5816   9.5816   9.5816   9.5816
     9.7722   9.7722   9.7722   9.7722   9.7723   9.7723   9.7723   9.7723
    13.5914  13.5914  13.5914  13.5914  13.5914  13.5915  13.5915  13.5915
    13.6649  13.6649  13.6649  13.6649  13.6649  13.6649  13.6649  13.6649
    13.6947  13.6947  13.6947  13.6947  13.6947  13.6947  13.6947  13.6948
    16.3788  16.3788  16.3788  16.3788  16.3789  16.3790  16.3790  16.3790
    16.4109  16.4109  16.4109  16.4109  16.4109  16.4109  16.4109  16.4109

     highest occupied, lowest unoccupied level (ev):    10.4077   12.2289

!    total energy              =   -5964.63493791 Ry
     total all-electron energy =   -147449.088510 Ry
     estimated scf accuracy    <          1.5E-11 Ry

     The total energy is the sum of the following terms:
     one-electron contribution =    -550.51945451 Ry
     hartree contribution      =     483.91522558 Ry
     xc contribution           =    -491.51354846 Ry
     ewald contribution        =   -1653.96634398 Ry
     one-center paw contrib.   =   -3752.55081654 Ry

     convergence has been achieved in   6 iterations

     Forces acting on atoms (cartesian axes, Ry/au):

     atom    1 type  1   force =     0.00000000    0.00000000   -0.00097859
     atom    2 type  1   force =     0.00000000    0.00000000   -0.00094793
     atom    3 type  1   force =     0.00000000    0.00000000   -0.00096805
     atom    4 type  1   force =     0.00000000    0.00000000   -0.00095344
     atom    5 type  1   force =     0.00000000    0.00000000   -0.00096805
     atom    6 type  1   force =     0.00000000    0.00000000   -0.00095344
     atom    7 type  1   force =     0.00000000    0.00000000   -0.00098306
     atom    8 type  1   force =     0.00000000    0.00000000   -0.00094535
     atom    9 type  2   force =    -0.00000006   -0.00000006    0.00025927
     atom   10 type  2   force =    -0.00000067   -0.00000067    0.00026931
     atom   11 type  2   force =    -0.00000006    0.00000006    0.00025927
     atom   12 type  2   force =    -0.00000067    0.00000067    0.00026931
     atom   13 type  2   force =     0.00000006   -0.00000006    0.00025927
     atom   14 type  2   force =     0.00000067   -0.00000067    0.00026931
     atom   15 type  2   force =     0.00000006    0.00000006    0.00025927
     atom   16 type  2   force =     0.00000067    0.00000067    0.00026931
     atom   17 type  3   force =    -0.00000155   -0.00000155   -0.00015772
     atom   18 type  3   force =    -0.00000248   -0.00000248   -0.00014867
     atom   19 type  3   force =    -0.00000155    0.00000155   -0.00015772
     atom   20 type  3   force =    -0.00000248    0.00000248   -0.00014867
     atom   21 type  3   force =     0.00000155   -0.00000155   -0.00015772
     atom   22 type  3   force =     0.00000248   -0.00000248   -0.00014867
     atom   23 type  3   force =     0.00000155    0.00000155   -0.00015772
     atom   24 type  3   force =     0.00000248    0.00000248   -0.00014867
     atom   25 type  3   force =    -0.00000208    0.00000000    0.00042005
     atom   26 type  3   force =    -0.00000580    0.00000000    0.00042432
     atom   27 type  3   force =     0.00000053   -0.00000000    0.00042443
     atom   28 type  3   force =     0.00000286   -0.00000000    0.00043348
     atom   29 type  3   force =     0.00000208    0.00000000    0.00042005
     atom   30 type  3   force =     0.00000580    0.00000000    0.00042432
     atom   31 type  3   force =    -0.00000053    0.00000000    0.00042443
     atom   32 type  3   force =    -0.00000286    0.00000000    0.00043348
     atom   33 type  3   force =     0.00000000   -0.00000208    0.00042005
     atom   34 type  3   force =     0.00000000   -0.00000580    0.00042432
     atom   35 type  3   force =     0.00000000    0.00000208    0.00042005
     atom   36 type  3   force =     0.00000000    0.00000580    0.00042432
     atom   37 type  3   force =    -0.00000000    0.00000053    0.00042443
     atom   38 type  3   force =     0.00000000    0.00000286    0.00043348
     atom   39 type  3   force =     0.00000000   -0.00000053    0.00042443
     atom   40 type  3   force =     0.00000000   -0.00000286    0.00043348

     Total force =     0.003325     Total SCF correction =     0.000006


     Computing stress (Cartesian axis) and pressure

          total   stress  (Ry/bohr**3)                   (kbar)     P=       42.22
   0.00025746   0.00000000   0.00000000           37.87        0.00        0.00
   0.00000000   0.00025746   0.00000000            0.00       37.87        0.00
   0.00000000   0.00000000   0.00034607            0.00        0.00       50.91


     Writing all to output data dir ./tmp/80_ecut_8_kmesh_PBE.save/ :
     XML data file, charge density, pseudopotentials, collected wavefunctions

     init_run     :      2.10s CPU      5.80s WALL (       1 calls)
     electrons    :     48.34s CPU     49.95s WALL (       1 calls)
     forces       :      1.41s CPU      1.46s WALL (       1 calls)
     stress       :      3.95s CPU      4.05s WALL (       1 calls)

     Called by init_run:
     wfcinit      :      1.03s CPU      4.63s WALL (       1 calls)
     potinit      :      0.39s CPU      0.45s WALL (       1 calls)
     hinit0       :      0.14s CPU      0.16s WALL (       1 calls)

     Called by electrons:
     c_bands      :     42.16s CPU     43.46s WALL (       7 calls)
     sum_band     :      5.20s CPU      5.39s WALL (       7 calls)
     v_of_rho     :      0.26s CPU      0.30s WALL (       7 calls)
     newd         :      0.19s CPU      0.20s WALL (       7 calls)
     PAW_pot      :      0.32s CPU      0.32s WALL (       7 calls)
     mix_rho      :      0.01s CPU      0.01s WALL (       7 calls)

     Called by c_bands:
     init_us_2    :      1.21s CPU      1.24s WALL (     160 calls)
     cegterg      :     39.12s CPU     40.37s WALL (      70 calls)

     Called by *egterg:
     cdiaghg      :      4.96s CPU      5.16s WALL (     295 calls)
     h_psi        :     20.38s CPU     20.97s WALL (     315 calls)
     s_psi        :      3.20s CPU      3.24s WALL (     315 calls)
     g_psi        :      0.06s CPU      0.06s WALL (     245 calls)

     Called by h_psi:
     h_psi:calbec :      4.09s CPU      4.23s WALL (     315 calls)
     vloc_psi     :     12.85s CPU     13.10s WALL (     315 calls)
                                        0.00s GPU  (     315 calls)
     add_vuspsi   :      3.27s CPU      3.31s WALL (     315 calls)

     General routines
     calbec       :      9.47s CPU      9.80s WALL (     555 calls)
     fft          :      0.28s CPU      0.35s WALL (     115 calls)
     ffts         :      0.30s CPU      0.31s WALL (      14 calls)
     fftw         :     14.60s CPU     14.88s WALL (   77154 calls)
     interpolate  :      0.31s CPU      0.32s WALL (       7 calls)

     Parallel routines

     PWSCF        :     57.63s CPU     65.06s WALL


   This run was terminated on:   0:16:58  21May2026            

=------------------------------------------------------------------------------=
   JOB DONE.
=------------------------------------------------------------------------------=
