
     Program PWSCF v.7.5 starts on 21May2026 at  0:12:14 

     This program is part of the open-source Quantum ESPRESSO suite
     for quantum simulation of materials; please cite
         "P. Giannozzi et al., J. Phys.:Condens. Matter 21 395502 (2009);
         "P. Giannozzi et al., J. Phys.:Condens. Matter 29 465901 (2017);
         "P. Giannozzi et al., J. Chem. Phys. 152 154105 (2020);
          URL http://www.quantum-espresso.org", 
     in publications or presentations arising from this work. More details at
     http://www.quantum-espresso.org/quote

     Parallel version (MPI & OpenMP), running on     192 processor cores
     Number of MPI processes:               192
     Threads/MPI process:                     1

     MPI processes distributed on     1 nodes
     735816 MiB available memory on the printing compute node when the environment starts

     Waiting for input...
     Reading input from standard input

     Current dimensions of program PWSCF are:
     Max number of different atomic species (ntypx) = 10
     Max number of k-points (npk) =  40000
     Max angular momentum in pseudopotentials (lmaxx) =  4
     file Ba.pbe-spn-kjpaw_psl.1.0.0.UPF: wavefunction(s)  5S 6S renormalized
     file Ti.pbe-spn-kjpaw_psl.1.0.0.UPF: wavefunction(s)  3S 3P 3D renormalized
     file O.pbe-n-kjpaw_psl.1.0.0.UPF: wavefunction(s)  2S 2P renormalized

     IMPORTANT: XC functional enforced from input :
     Exchange-correlation= PBE
                           (   1   4   3   4   0   0   0)
     Any further DFT definition will be discarded
     Please, verify this is what you really want

     Found identity + ( -0.5000 -0.5000  0.0000) symmetry
     This is a supercell, fractional translations are disabled

     K-points division:     npool     =       8
     R & G space division:  proc/nbgrp/npool/nimage =      24
     Subspace diagonalization in iterative solution of the eigenvalue problem:
     one sub-group per band group will be used
     ELPA distributed-memory algorithm (size of sub-group:  2*  2 procs)


     Parallelization info
     --------------------
     sticks:   dense  smooth     PW     G-vecs:    dense   smooth      PW
     Min         181      90     25                 9081     3214     484
     Max         182      91     27                 9084     3217     487
     Sum        4349    2177    613               217983    77173   11641

     Using Slab Decomposition



     bravais-lattice index     =            6
     lattice parameter (alat)  =      15.0876  a.u.
     unit-cell volume          =    3472.3239 (a.u.)^3
     number of atoms/cell      =           40
     number of atomic types    =            3
     number of electrons       =       320.00
     number of Kohn-Sham states=          200
     kinetic-energy cutoff     =      30.0000  Ry
     charge density cutoff     =     240.0000  Ry
     scf convergence threshold =      1.0E-10
     mixing beta               =       0.3000
     number of iterations used =           16  plain     mixing
     Exchange-correlation= PBE
                           (   1   4   3   4   0   0   0)

     celldm(1)=  15.087600  celldm(2)=   0.000000  celldm(3)=   1.011020
     celldm(4)=   0.000000  celldm(5)=   0.000000  celldm(6)=   0.000000

     crystal axes: (cart. coord. in units of alat)
               a(1) = (   1.000000   0.000000   0.000000 )  
               a(2) = (   0.000000   1.000000   0.000000 )  
               a(3) = (   0.000000   0.000000   1.011020 )  

     reciprocal axes: (cart. coord. in units 2 pi/alat)
               b(1) = (  1.000000  0.000000  0.000000 )  
               b(2) = (  0.000000  1.000000  0.000000 )  
               b(3) = (  0.000000  0.000000  0.989100 )  


     PseudoPot. # 1 for Ba read from file:
     /home/kylay/scratch/BTO/pseuds/Ba.pbe-spn-kjpaw_psl.1.0.0.UPF
     MD5 check sum: 7cfe25f1fe7574a4710541d5a11d6531
     Pseudo is Projector augmented-wave + core cor, Zval = 10.0
     Generated using &quot;atomic&quot; code by A. Dal Corso  v.6.2.2
     Shape of augmentation charge: PSQ
     Using radial grid of 1251 points,  7 beta functions with: 
                l(1) =   0
                l(2) =   0
                l(3) =   0
                l(4) =   1
                l(5) =   1
                l(6) =   2
                l(7) =   2
     Q(r) pseudized with 0 coefficients 


     PseudoPot. # 2 for Ti read from file:
     /home/kylay/scratch/BTO/pseuds/Ti.pbe-spn-kjpaw_psl.1.0.0.UPF
     MD5 check sum: 01f69b0d8ba4438b2e03ac6ea4af1c0b
     Pseudo is Projector augmented-wave + core cor, Zval = 12.0
     Generated using &quot;atomic&quot; code by A. Dal Corso  v.6.2.2
     Shape of augmentation charge: PSQ
     Using radial grid of 1177 points,  6 beta functions with: 
                l(1) =   0
                l(2) =   0
                l(3) =   1
                l(4) =   1
                l(5) =   2
                l(6) =   2
     Q(r) pseudized with 0 coefficients 


     PseudoPot. # 3 for O  read from file:
     /home/kylay/scratch/BTO/pseuds/O.pbe-n-kjpaw_psl.1.0.0.UPF
     MD5 check sum: e99d9cef9b487d1ca56f5b95ecd0fd7a
     Pseudo is Projector augmented-wave + core cor, Zval =  6.0
     Generated using &quot;atomic&quot; code by A. Dal Corso  v.6.3
     Shape of augmentation charge: PSQ
     Using radial grid of 1095 points,  4 beta functions with: 
                l(1) =   0
                l(2) =   0
                l(3) =   1
                l(4) =   1
     Q(r) pseudized with 0 coefficients 


     atomic species   valence    mass     pseudopotential
     Ba               10.00   137.32700     Ba( 1.00)
     Ti               12.00    47.86700     Ti( 1.00)
     O                 6.00    15.99900     O ( 1.00)

      8 Sym. Ops. (no inversion) found



   Cartesian axes

     site n.     atom                  positions (alat units)
         1        Ba     tau(   1) = (   0.0000000   0.0000000  -0.0010787  )
         2        Ba     tau(   2) = (   0.0000000   0.0000000   0.5044220  )
         3        Ba     tau(   3) = (   0.0000000   0.5000000  -0.0010832  )
         4        Ba     tau(   4) = (   0.0000000   0.5000000   0.5044235  )
         5        Ba     tau(   5) = (   0.5000000   0.0000000  -0.0010832  )
         6        Ba     tau(   6) = (   0.5000000   0.0000000   0.5044235  )
         7        Ba     tau(   7) = (   0.5000000   0.5000000  -0.0010766  )
         8        Ba     tau(   8) = (   0.5000000   0.5000000   0.5044202  )
         9        Ti     tau(   9) = (   0.2500002   0.2500002   0.2436990  )
        10        Ti     tau(  10) = (   0.2500007   0.2500007   0.7492042  )
        11        Ti     tau(  11) = (   0.2500002   0.7499998   0.2436990  )
        12        Ti     tau(  12) = (   0.2500007   0.7499993   0.7492042  )
        13        Ti     tau(  13) = (   0.7499998   0.2500002   0.2436990  )
        14        Ti     tau(  14) = (   0.7499993   0.2500007   0.7492042  )
        15        Ti     tau(  15) = (   0.7499998   0.7499998   0.2436990  )
        16        Ti     tau(  16) = (   0.7499993   0.7499993   0.7492042  )
        17        O      tau(  17) = (   0.2500011   0.2500011   0.0113903  )
        18        O      tau(  18) = (   0.2500007   0.2500007   0.5168954  )
        19        O      tau(  19) = (   0.2500011   0.7499989   0.0113903  )
        20        O      tau(  20) = (   0.2500007   0.7499993   0.5168954  )
        21        O      tau(  21) = (   0.7499989   0.2500011   0.0113903  )
        22        O      tau(  22) = (   0.7499993   0.2500007   0.5168954  )
        23        O      tau(  23) = (   0.7499989   0.7499989   0.0113903  )
        24        O      tau(  24) = (   0.7499993   0.7499993   0.5168954  )
        25        O      tau(  25) = (   0.2500005   0.0000000   0.2592128  )
        26        O      tau(  26) = (   0.2500020   0.0000000   0.7647195  )
        27        O      tau(  27) = (   0.2499999   0.5000000   0.2592107  )
        28        O      tau(  28) = (   0.2499998   0.5000000   0.7647148  )
        29        O      tau(  29) = (   0.7499995   0.0000000   0.2592128  )
        30        O      tau(  30) = (   0.7499980   0.0000000   0.7647195  )
        31        O      tau(  31) = (   0.7500001   0.5000000   0.2592107  )
        32        O      tau(  32) = (   0.7500002   0.5000000   0.7647148  )
        33        O      tau(  33) = (   0.0000000   0.2500005   0.2592128  )
        34        O      tau(  34) = (   0.0000000   0.2500020   0.7647195  )
        35        O      tau(  35) = (   0.0000000   0.7499995   0.2592128  )
        36        O      tau(  36) = (   0.0000000   0.7499980   0.7647195  )
        37        O      tau(  37) = (   0.5000000   0.2499999   0.2592107  )
        38        O      tau(  38) = (   0.5000000   0.2499998   0.7647148  )
        39        O      tau(  39) = (   0.5000000   0.7500001   0.2592107  )
        40        O      tau(  40) = (   0.5000000   0.7500002   0.7647148  )

     number of k points=    18
                       cart. coord. in units 2pi/alat
        k(    1) = (   0.0000000   0.0000000   0.0000000), wk =   0.0312500
        k(    2) = (   0.0000000   0.0000000   0.2472750), wk =   0.0625000
        k(    3) = (   0.0000000   0.0000000  -0.4945501), wk =   0.0312500
        k(    4) = (   0.0000000   0.2500000   0.0000000), wk =   0.1250000
        k(    5) = (   0.0000000   0.2500000   0.2472750), wk =   0.2500000
        k(    6) = (   0.0000000   0.2500000  -0.4945501), wk =   0.1250000
        k(    7) = (   0.0000000  -0.5000000   0.0000000), wk =   0.0625000
        k(    8) = (   0.0000000  -0.5000000   0.2472750), wk =   0.1250000
        k(    9) = (   0.0000000  -0.5000000  -0.4945501), wk =   0.0625000
        k(   10) = (   0.2500000   0.2500000   0.0000000), wk =   0.1250000
        k(   11) = (   0.2500000   0.2500000   0.2472750), wk =   0.2500000
        k(   12) = (   0.2500000   0.2500000  -0.4945501), wk =   0.1250000
        k(   13) = (   0.2500000  -0.5000000   0.0000000), wk =   0.1250000
        k(   14) = (   0.2500000  -0.5000000   0.2472750), wk =   0.2500000
        k(   15) = (   0.2500000  -0.5000000  -0.4945501), wk =   0.1250000
        k(   16) = (  -0.5000000  -0.5000000   0.0000000), wk =   0.0312500
        k(   17) = (  -0.5000000  -0.5000000   0.2472750), wk =   0.0625000
        k(   18) = (  -0.5000000  -0.5000000  -0.4945501), wk =   0.0312500

     Dense  grid:   217983 G-vectors     FFT dimensions: (  75,  75,  75)

     Smooth grid:    77173 G-vectors     FFT dimensions: (  54,  54,  54)

     Estimated max dynamical RAM per process >      31.57 MB

     Estimated total dynamical RAM >       5.19 GB

     Check: negative core charge=   -0.000018

     The initial density is read from file :
     ./tmp/30_ecut_4_kmesh_PBE.save/charge-density

     Starting wfcs from file
     Checking if some PAW data can be deallocated... 

     total cpu time spent up to now is        2.6 secs

     per-process dynamical memory:    98.8 Mb

     Self-consistent Calculation

     iteration #  1     ecut=    30.00 Ry     beta= 0.30
     Davidson diagonalization with overlap
     ethr =  1.00E-05,  avg # of iterations =  1.0

     Threshold (ethr) on eigenvalues was too large:
     Diagonalizing with lowered threshold

     Davidson diagonalization with overlap
     ethr =  1.38E-12,  avg # of iterations =  4.2

     total cpu time spent up to now is        4.3 secs

     total energy              =   -5961.38281845 Ry
     estimated scf accuracy    <          7.2E-09 Ry

     iteration #  2     ecut=    30.00 Ry     beta= 0.30
     Davidson diagonalization with overlap
     ethr =  2.26E-12,  avg # of iterations =  3.2

     total cpu time spent up to now is        5.1 secs

     total energy              =   -5961.38281845 Ry
     estimated scf accuracy    <          2.1E-09 Ry

     iteration #  3     ecut=    30.00 Ry     beta= 0.30
     Davidson diagonalization with overlap
     ethr =  6.67E-13,  avg # of iterations =  1.6

     total cpu time spent up to now is        5.8 secs

     total energy              =   -5961.38281845 Ry
     estimated scf accuracy    <          1.3E-09 Ry

     iteration #  4     ecut=    30.00 Ry     beta= 0.30
     Davidson diagonalization with overlap
     ethr =  3.94E-13,  avg # of iterations =  1.0

     total cpu time spent up to now is        6.4 secs

     total energy              =   -5961.38281845 Ry
     estimated scf accuracy    <          4.0E-10 Ry

     iteration #  5     ecut=    30.00 Ry     beta= 0.30
     Davidson diagonalization with overlap
     ethr =  1.25E-13,  avg # of iterations =  2.0

     total cpu time spent up to now is        7.1 secs

     End of self-consistent calculation

          k = 0.0000 0.0000 0.0000 (  9707 PWs)   bands (ev):

   -46.5212 -46.5205 -46.5201 -46.5201 -46.5184 -46.5184 -46.5172 -46.5168
   -22.8092 -22.8081 -22.8081 -22.8026 -22.7673 -22.7661 -22.7661 -22.7627
   -22.7615 -22.7615 -22.7585 -22.7585 -22.7566 -22.7566 -22.7556 -22.7556
   -22.7124 -22.7124 -22.7123 -22.7122 -22.7112 -22.7112 -22.7075 -22.7075
   -14.3481 -14.2323 -14.2227 -14.2227 -14.1508 -14.1508 -14.1428 -14.0817
    -7.0002  -7.0002  -6.9553  -6.7715  -6.4987  -6.3995  -6.3995  -6.1612
    -6.1492  -6.1492  -6.1057  -6.1057  -6.0759  -6.0467  -6.0033  -6.0033
    -5.9997  -5.9997  -5.9930  -5.9256  -5.8482  -5.8482  -5.7853  -5.7853
    -0.2620  -0.2620  -0.2019   0.3785   0.3785   0.3954   0.3954   0.4490
     0.4490   0.4635   0.4749   0.4749   0.6320   0.6320   0.6360   0.6361
     0.6541   0.6541   0.8388   0.8388   0.8471   0.8525   0.8525   0.8821
     5.9290   6.0671   6.0671   6.0807   6.3284   6.3284   6.3429   6.3429
     6.3970   6.3971   6.5141   6.5330   6.5885   6.5885   6.6004   7.5788
     7.5788   7.5900   7.5900   7.6146   7.6146   7.6435   7.6435   7.6975
     7.6975   7.7807   7.7807   7.9954   7.9954   8.0012   8.1398   8.1432
     8.1432   8.1723   8.1723   8.4451   8.4451   8.5000   8.5340   8.5340
     8.5715   8.6073   8.6073   8.6636   8.7064   8.7064   8.7852   8.7852
     9.0908   9.0908   9.2810   9.3641   9.3641   9.4985   9.4985   9.5312
     9.5312   9.5473   9.5473   9.5893   9.5893   9.7335   9.7335   9.9776
    10.0886  10.0886  10.3109  10.3110  10.3452  10.3452  10.4575  10.4836
    12.4387  12.5728  12.7797  12.7797  12.8825  12.8825  14.1973  14.1973
    14.2913  14.2913  14.2920  14.2920  14.3033  14.3033  14.3087  14.3087
    14.3235  14.3235  14.6257  14.6258  14.6665  14.7480  14.7888  14.7888
    14.7955  14.9061  15.0232  15.0284  15.0284  15.4088  15.4537  15.5504
    15.5890  15.5890  16.7806  16.7806  16.8035  16.9819  17.1388  17.6083

          k = 0.0000 0.0000 0.2473 (  9623 PWs)   bands (ev):

   -46.5199 -46.5190 -46.5185 -46.5185 -46.5184 -46.5184 -46.5171 -46.5158
   -22.8014 -22.8014 -22.7999 -22.7947 -22.7718 -22.7702 -22.7702 -22.7702
   -22.7586 -22.7586 -22.7574 -22.7574 -22.7547 -22.7547 -22.7546 -22.7546
   -22.7092 -22.7092 -22.7091 -22.7091 -22.7089 -22.7089 -22.7079 -22.7079
   -14.3315 -14.2496 -14.2123 -14.2123 -14.1615 -14.1615 -14.1339 -14.0907
    -6.9290  -6.9290  -6.9098  -6.7703  -6.5226  -6.5226  -6.4294  -6.1595
    -6.1105  -6.1105  -6.0974  -6.0974  -6.0716  -6.0715  -6.0501  -5.9835
    -5.9785  -5.9785  -5.9709  -5.9709  -5.8713  -5.8713  -5.8164  -5.8164
    -0.1716  -0.1716  -0.0722   0.2793   0.2793   0.4548   0.4548   0.4714
     0.4714   0.4977   0.4977   0.5265   0.6031   0.6032   0.6085   0.6085
     0.6625   0.6818   0.6818   0.7688   0.7688   0.8216   0.8219   0.8219
     6.0139   6.0777   6.1768   6.1768   6.3590   6.3590   6.4868   6.4868
     6.5434   6.5498   6.6632   6.6691   6.7411   6.7411   6.8096   7.5843
     7.5843   7.6150   7.6150   7.6347   7.6347   7.6420   7.6420   7.7722
     7.7722   7.7753   7.7753   7.7940   7.8639   7.9037   7.9037   8.0119
     8.0119   8.0942   8.0942   8.2426   8.5059   8.5059   8.5226   8.5226
     8.6954   8.7056   8.7362   8.7362   8.7889   8.7889   8.9459   8.9459
     9.1195   9.2335   9.2335   9.3297   9.3297   9.3324   9.3324   9.4414
     9.4414   9.4439   9.4439   9.5803   9.5803   9.7550   9.7699   9.7699
    10.0983  10.0983  10.1735  10.1735  10.2064  10.2064  10.4788  10.5170
    12.4947  12.5926  13.0615  13.0615  13.1232  13.1232  14.1355  14.1355
    14.1388  14.1388  14.2386  14.2386  14.2514  14.2514  14.3554  14.3554
    14.4124  14.4124  14.5669  14.5669  14.7216  14.7594  14.8412  14.9687
    14.9687  14.9695  15.0920  15.0920  15.3059  15.5664  15.5664  15.6989
    15.8400  15.8747  16.6329  16.9901  17.0387  17.0387  17.1991  17.5304

          k = 0.0000 0.0000-0.4946 (  9674 PWs)   bands (ev):

   -46.5211 -46.5209 -46.5184 -46.5184 -46.5183 -46.5183 -46.5172 -46.5171
   -22.7911 -22.7909 -22.7854 -22.7854 -22.7852 -22.7852 -22.7838 -22.7836
   -22.7573 -22.7573 -22.7573 -22.7572 -22.7566 -22.7566 -22.7566 -22.7566
   -22.7109 -22.7109 -22.7109 -22.7109 -22.7086 -22.7086 -22.7086 -22.7086
   -14.2910 -14.2910 -14.1871 -14.1871 -14.1870 -14.1870 -14.1125 -14.1124
    -6.8175  -6.8175  -6.7441  -6.7441  -6.7440  -6.7440  -6.2547  -6.2546
    -6.1010  -6.1009  -6.0890  -6.0890  -6.0889  -6.0889  -6.0616  -6.0615
    -5.9264  -5.9264  -5.9263  -5.9263  -5.8932  -5.8932  -5.8931  -5.8931
     0.0480   0.0480   0.0481   0.0481   0.2690   0.2691   0.5315   0.5316
     0.5317   0.5317   0.5517   0.5517   0.5518   0.5518   0.6064   0.6064
     0.6065   0.6065   0.6734   0.6735   0.7502   0.7502   0.7503   0.7503
     6.0501   6.0501   6.2965   6.2965   6.2965   6.2965   6.5434   6.5434
     6.9757   6.9757   6.9758   6.9758   7.1737   7.1739   7.2191   7.2191
     7.2193   7.2193   7.2649   7.2650   7.4402   7.4404   7.6219   7.6219
     7.6220   7.6220   7.9255   7.9255   7.9256   7.9256   7.9348   7.9348
     7.9349   7.9349   8.1992   8.1992   8.1993   8.1993   8.6756   8.6756
     8.6758   8.6758   8.8463   8.8464   8.9750   8.9750   8.9750   8.9751
     9.0961   9.0961   9.0962   9.0962   9.1350   9.1351   9.2600   9.2600
     9.2601   9.2601   9.8083   9.8083   9.8084   9.8084   9.8784   9.8784
     9.8784   9.8784   9.9041   9.9041   9.9042   9.9042  10.4789  10.4790
    12.5183  12.5183  13.5612  13.5612  13.5613  13.5613  13.6229  13.6229
    13.6230  13.6230  14.2440  14.2440  14.2440  14.2440  14.4401  14.4401
    14.4402  14.4402  14.6470  14.6470  14.6471  14.6471  14.7296  14.7297
    14.8374  14.8374  15.4495  15.4495  15.4496  15.4496  15.9723  15.9726
    16.4065  16.4067  16.6037  16.6039  16.6939  16.6941  17.6613  17.6615

          k = 0.0000 0.2500 0.0000 (  9624 PWs)   bands (ev):

   -46.5202 -46.5196 -46.5189 -46.5184 -46.5183 -46.5175 -46.5173 -46.5156
   -22.8088 -22.8085 -22.8067 -22.8022 -22.7654 -22.7646 -22.7638 -22.7617
   -22.7591 -22.7562 -22.7561 -22.7530 -22.7528 -22.7506 -22.7492 -22.7462
   -22.7182 -22.7146 -22.7145 -22.7142 -22.7099 -22.7093 -22.7092 -22.7074
   -14.3302 -14.2415 -14.2206 -14.2112 -14.1629 -14.1547 -14.1408 -14.0919
    -6.9515  -6.9327  -6.8839  -6.7813  -6.5802  -6.4968  -6.3239  -6.1496
    -6.1269  -6.1171  -6.1106  -6.0868  -6.0654  -6.0327  -6.0176  -6.0105
    -5.9953  -5.9816  -5.9677  -5.9575  -5.9331  -5.8715  -5.8515  -5.8156
    -0.1697  -0.1416  -0.0926   0.2930   0.3465   0.4111   0.4237   0.4400
     0.4882   0.5005   0.5068   0.5293   0.5913   0.6003   0.6095   0.6269
     0.6566   0.6627   0.6718   0.7658   0.7867   0.8132   0.8156   0.8183
     6.0381   6.1039   6.1778   6.2278   6.3540   6.3831   6.4361   6.5670
     6.5885   6.6113   6.6143   6.6259   6.6856   6.7692   6.7798   7.5148
     7.5944   7.6709   7.6819   7.6830   7.6912   7.7064   7.7342   7.7484
     7.7494   7.7892   7.8003   7.8111   7.8262   7.8795   7.8843   8.0085
     8.0334   8.1032   8.1075   8.2689   8.2966   8.2990   8.3417   8.6479
     8.6827   8.6887   8.7464   8.7711   8.8409   8.8605   8.8838   8.9647
     9.0209   9.1846   9.2834   9.3588   9.3975   9.4035   9.4102   9.4482
     9.5007   9.5227   9.5292   9.5730   9.6051   9.6288   9.6889   9.7227
     9.9803  10.0593  10.1999  10.2085  10.3170  10.3382  10.3594  10.3890
    12.7822  12.8280  12.8716  12.9002  12.9471  13.0621  14.0010  14.0492
    14.0610  14.1038  14.2818  14.3214  14.3218  14.3315  14.3346  14.3365
    14.3432  14.3746  14.5726  14.6334  14.7051  14.8290  14.8712  14.8895
    14.9892  15.0157  15.0823  15.1381  15.2227  15.4674  15.5571  15.7120
    15.8496  16.1057  16.5771  17.0355  17.0512  17.0760  17.2999  17.5707

          k = 0.0000 0.2500 0.2473 (  9627 PWs)   bands (ev):

   -46.5209 -46.5191 -46.5188 -46.5183 -46.5178 -46.5177 -46.5176 -46.5159
   -22.8006 -22.8000 -22.7990 -22.7972 -22.7739 -22.7696 -22.7693 -22.7689
   -22.7579 -22.7576 -22.7570 -22.7532 -22.7526 -22.7501 -22.7501 -22.7469
   -22.7185 -22.7162 -22.7156 -22.7138 -22.7108 -22.7095 -22.7092 -22.7064
   -14.3145 -14.2370 -14.2302 -14.2010 -14.1746 -14.1513 -14.1456 -14.1012
    -6.8872  -6.8614  -6.8466  -6.7675  -6.5627  -6.5096  -6.4528  -6.1557
    -6.1276  -6.1197  -6.1060  -6.0844  -6.0779  -6.0615  -6.0416  -6.0087
    -5.9924  -5.9738  -5.9564  -5.9539  -5.9222  -5.8857  -5.8783  -5.8390
    -0.1225  -0.0859   0.0818   0.2960   0.3447   0.3471   0.3567   0.4268
     0.4642   0.4990   0.5228   0.5567   0.5605   0.5665   0.6112   0.6381
     0.6536   0.6908   0.6911   0.6926   0.7309   0.7623   0.7889   0.7930
     6.1412   6.1807   6.1936   6.3417   6.3595   6.5838   6.6200   6.6229
     6.6755   6.6858   6.7138   6.7485   6.7498   6.8510   6.9232   7.4982
     7.5359   7.5631   7.5864   7.6510   7.6529   7.6596   7.7075   7.7200
     7.7301   7.7359   7.7727   7.8568   7.8769   7.9132   7.9188   7.9500
     7.9629   8.0067   8.0102   8.0595   8.1195   8.3727   8.3812   8.4064
     8.5034   8.6273   8.8024   8.8043   8.8048   8.8530   8.9134   9.2167
     9.2287   9.2297   9.2448   9.2669   9.3375   9.4029   9.4351   9.4433
     9.4649   9.5169   9.5184   9.5302   9.5773   9.5807   9.5911   9.6388
     9.8815   9.9384  10.0429  10.1390  10.1704  10.1948  10.3416  10.3600
    12.7872  12.8806  13.0286  13.1119  13.1140  13.2422  14.0174  14.0413
    14.1063  14.1140  14.1305  14.1530  14.1937  14.1950  14.2887  14.3342
    14.3770  14.4137  14.4694  14.6174  14.6629  14.7504  14.8873  14.9439
    14.9761  15.0677  15.1058  15.4732  15.4805  15.5693  15.9067  15.9775
    16.1075  16.1335  16.7842  16.8586  17.1815  17.2230  17.3467  17.4308

          k = 0.0000 0.2500-0.4946 (  9650 PWs)   bands (ev):

   -46.5199 -46.5197 -46.5192 -46.5190 -46.5182 -46.5180 -46.5172 -46.5170
   -22.7884 -22.7882 -22.7866 -22.7864 -22.7855 -22.7852 -22.7837 -22.7834
   -22.7576 -22.7576 -22.7562 -22.7562 -22.7528 -22.7528 -22.7490 -22.7490
   -22.7172 -22.7172 -22.7145 -22.7145 -22.7084 -22.7084 -22.7084 -22.7083
   -14.2761 -14.2761 -14.2027 -14.2026 -14.1763 -14.1763 -14.1236 -14.1235
    -6.7804  -6.7804  -6.7276  -6.7275  -6.6760  -6.6759  -6.3302  -6.3301
    -6.1176  -6.1174  -6.1071  -6.1070  -6.0656  -6.0656  -6.0480  -6.0479
    -5.9509  -5.9508  -5.9330  -5.9329  -5.9201  -5.9200  -5.8968  -5.8967
     0.0555   0.0556   0.1243   0.1244   0.3909   0.3909   0.3940   0.3940
     0.4746   0.4747   0.4933   0.4933   0.5183   0.5183   0.5798   0.5799
     0.6769   0.6769   0.7199   0.7199   0.7204   0.7205   0.7410   0.7411
     6.1767   6.1767   6.2858   6.2858   6.4859   6.4859   6.6919   6.6920
     7.0172   7.0172   7.0459   7.0461   7.1307   7.1309   7.2070   7.2071
     7.2392   7.2394   7.3472   7.3473   7.3930   7.3933   7.6326   7.6327
     7.7283   7.7284   7.7310   7.7311   7.9500   7.9501   7.9573   7.9573
     8.0320   8.0320   8.0843   8.0843   8.1923   8.1924   8.2737   8.2738
     8.5504   8.5505   8.5838   8.5838   8.9608   8.9609   9.0443   9.0444
     9.1010   9.1010   9.2853   9.2854   9.3438   9.3438   9.3448   9.3448
     9.4116   9.4117   9.6823   9.6824   9.7550   9.7551   9.7983   9.7984
     9.8045   9.8045   9.8501   9.8502   9.8772   9.8773  10.3574  10.3575
    12.8362  12.8362  13.5945  13.5946  13.6141  13.6142  13.6174  13.6175
    13.7246  13.7247  14.0243  14.0244  14.2152  14.2152  14.3279  14.3279
    14.4535  14.4536  14.4713  14.4714  14.6163  14.6164  14.7754  14.7754
    15.0460  15.0460  15.4277  15.4279  15.9405  15.9407  16.2089  16.2092
    16.6313  16.6315  16.8010  16.8012  16.8931  16.8933  17.4055  17.4057

          k = 0.0000-0.5000 0.0000 (  9646 PWs)   bands (ev):

   -46.5203 -46.5203 -46.5183 -46.5183 -46.5175 -46.5175 -46.5173 -46.5173
   -22.8072 -22.8072 -22.8052 -22.8052 -22.7649 -22.7649 -22.7644 -22.7644
   -22.7575 -22.7575 -22.7570 -22.7570 -22.7371 -22.7371 -22.7334 -22.7334
   -22.7323 -22.7323 -22.7307 -22.7307 -22.7103 -22.7103 -22.7052 -22.7052
   -14.2863 -14.2863 -14.1920 -14.1919 -14.1831 -14.1831 -14.1165 -14.1165
    -6.8483  -6.8483  -6.7635  -6.7634  -6.7015  -6.7014  -6.1364  -6.1363
    -6.1258  -6.1258  -6.0711  -6.0711  -6.0456  -6.0455  -6.0386  -6.0386
    -6.0034  -6.0033  -5.9872  -5.9871  -5.9279  -5.9279  -5.8910  -5.8910
     0.0559   0.0560   0.1046   0.1046   0.2444   0.2444   0.4983   0.4983
     0.5012   0.5012   0.5477   0.5477   0.5622   0.5622   0.5968   0.5968
     0.6547   0.6547   0.6581   0.6581   0.7388   0.7388   0.7417   0.7417
     6.0919   6.0919   6.2887   6.2887   6.3505   6.3506   6.5934   6.5934
     6.9161   6.9161   7.0402   7.0403   7.1875   7.1876   7.1946   7.1948
     7.2234   7.2234   7.3328   7.3329   7.3476   7.3477   7.6623   7.6624
     7.7478   7.7479   7.9392   7.9392   7.9423   7.9423   7.9619   7.9619
     7.9729   7.9729   8.0554   8.0554   8.0784   8.0784   8.5484   8.5485
     8.7524   8.7525   8.8216   8.8216   8.9390   8.9390   9.0250   9.0251
     9.0638   9.0638   9.1782   9.1782   9.1874   9.1874   9.3528   9.3528
     9.3594   9.3594   9.6770   9.6770   9.8157   9.8157   9.8587   9.8588
     9.8671   9.8672   9.9454   9.9455   9.9900   9.9900  10.3294  10.3294
    12.8297  12.8297  13.4227  13.4227  13.4661  13.4661  13.5262  13.5263
    13.5308  13.5308  14.3327  14.3327  14.3658  14.3658  14.4281  14.4281
    14.4385  14.4385  14.5811  14.5812  14.5930  14.5931  14.8253  14.8253
    14.8692  14.8692  15.3805  15.3806  15.4711  15.4711  16.0101  16.0102
    16.4889  16.4890  16.6199  16.6199  16.9344  16.9345  17.7318  17.7319

          k = 0.0000-0.5000 0.2473 (  9624 PWs)   bands (ev):

   -46.5196 -46.5196 -46.5184 -46.5184 -46.5177 -46.5177 -46.5173 -46.5173
   -22.8009 -22.8009 -22.7979 -22.7979 -22.7719 -22.7718 -22.7686 -22.7686
   -22.7573 -22.7573 -22.7563 -22.7563 -22.7341 -22.7341 -22.7330 -22.7330
   -22.7327 -22.7327 -22.7318 -22.7318 -22.7088 -22.7088 -22.7072 -22.7072
   -14.2728 -14.2728 -14.2061 -14.2061 -14.1735 -14.1735 -14.1264 -14.1264
    -6.8051  -6.8051  -6.6962  -6.6961  -6.6917  -6.6916  -6.2848  -6.2847
    -6.1305  -6.1305  -6.0866  -6.0866  -6.0325  -6.0324  -6.0147  -6.0146
    -5.9975  -5.9974  -5.9971  -5.9970  -5.9212  -5.9212  -5.8953  -5.8953
     0.0829   0.0829   0.1298   0.1298   0.3692   0.3693   0.3906   0.3906
     0.4680   0.4680   0.4906   0.4907   0.5117   0.5117   0.5871   0.5872
     0.6966   0.6966   0.7100   0.7100   0.7118   0.7118   0.7345   0.7345
     6.1945   6.1945   6.2842   6.2842   6.5333   6.5333   6.7658   6.7658
     7.0085   7.0085   7.0709   7.0709   7.1645   7.1646   7.1933   7.1933
     7.2161   7.2163   7.3201   7.3203   7.4267   7.4268   7.6838   7.6838
     7.7259   7.7259   7.8084   7.8085   7.9407   7.9407   7.9850   7.9850
     8.0201   8.0201   8.0216   8.0216   8.0855   8.0855   8.2356   8.2357
     8.5612   8.5612   8.6006   8.6007   8.9840   8.9840   9.0708   9.0708
     9.2287   9.2287   9.2502   9.2502   9.3023   9.3023   9.3376   9.3376
     9.4085   9.4085   9.6059   9.6060   9.7251   9.7252   9.7720   9.7720
     9.8907   9.8907   9.9325   9.9326   9.9833   9.9833  10.2119  10.2119
    13.0583  13.0583  13.4757  13.4758  13.5027  13.5027  13.5665  13.5665
    13.7043  13.7044  14.1331  14.1331  14.1915  14.1915  14.3780  14.3780
    14.4299  14.4299  14.4657  14.4657  14.5706  14.5706  14.7711  14.7711
    15.1023  15.1023  15.4225  15.4225  15.8620  15.8620  16.2389  16.2390
    16.6853  16.6853  16.9109  16.9109  17.0041  17.0042  17.4776  17.4779

          k = 0.0000-0.5000-0.4946 (  9608 PWs)   bands (ev):

   -46.5189 -46.5189 -46.5188 -46.5188 -46.5174 -46.5174 -46.5173 -46.5173
   -22.7865 -22.7865 -22.7863 -22.7863 -22.7836 -22.7836 -22.7834 -22.7833
   -22.7564 -22.7564 -22.7564 -22.7564 -22.7334 -22.7334 -22.7333 -22.7333
   -22.7324 -22.7324 -22.7323 -22.7323 -22.7078 -22.7078 -22.7077 -22.7077
   -14.2398 -14.2397 -14.2397 -14.2397 -14.1501 -14.1501 -14.1500 -14.1500
    -6.7247  -6.7247  -6.7246  -6.7246  -6.5065  -6.5064  -6.5064  -6.5063
    -6.1337  -6.1336  -6.1336  -6.1335  -6.0091  -6.0090  -6.0090  -6.0089
    -6.0022  -6.0021  -6.0021  -6.0020  -5.9072  -5.9072  -5.9071  -5.9071
     0.1745   0.1745   0.1745   0.1745   0.3147   0.3147   0.3148   0.3148
     0.4485   0.4485   0.4485   0.4485   0.6083   0.6083   0.6083   0.6083
     0.6483   0.6483   0.6484   0.6484   0.7359   0.7359   0.7359   0.7359
     6.2635   6.2635   6.2635   6.2636   6.9382   6.9383   6.9383   6.9384
     7.1335   7.1336   7.1336   7.1336   7.1887   7.1888   7.1888   7.1889
     7.2858   7.2858   7.2859   7.2860   7.3529   7.3530   7.3531   7.3532
     7.7801   7.7801   7.7802   7.7802   7.9134   7.9134   7.9135   7.9135
     7.9830   7.9830   7.9831   7.9831   8.2033   8.2033   8.2033   8.2033
     8.3022   8.3022   8.3023   8.3023   8.9472   8.9472   8.9472   8.9473
     9.3941   9.3941   9.3941   9.3941   9.3959   9.3959   9.3959   9.3959
     9.4757   9.4758   9.4758   9.4758   9.8047   9.8047   9.8047   9.8047
     9.8744   9.8745   9.8745   9.8745   9.9577   9.9578   9.9579   9.9579
    13.4702  13.4702  13.4702  13.4702  13.6378  13.6378  13.6379  13.6379
    13.8424  13.8425  13.8425  13.8425  14.0763  14.0764  14.0764  14.0764
    14.4930  14.4930  14.4930  14.4930  14.5825  14.5825  14.5825  14.5825
    15.3557  15.3558  15.3558  15.3558  16.7156  16.7157  16.7158  16.7159
    16.8389  16.8390  16.8391  16.8392  17.1521  17.1521  17.1522  17.1523

          k = 0.2500 0.2500 0.0000 (  9623 PWs)   bands (ev):

   -46.5207 -46.5186 -46.5186 -46.5185 -46.5178 -46.5176 -46.5176 -46.5163
   -22.8079 -22.8070 -22.8070 -22.8028 -22.7649 -22.7632 -22.7632 -22.7627
   -22.7524 -22.7524 -22.7512 -22.7497 -22.7497 -22.7496 -22.7483 -22.7457
   -22.7194 -22.7183 -22.7152 -22.7150 -22.7146 -22.7146 -22.7135 -22.7135
   -14.3132 -14.2291 -14.2290 -14.2091 -14.1676 -14.1527 -14.1527 -14.1025
    -6.8924  -6.8924  -6.8119  -6.7785  -6.6255  -6.4224  -6.4224  -6.1338
    -6.1023  -6.1023  -6.0917  -6.0917  -6.0664  -6.0407  -6.0249  -6.0181
    -6.0119  -5.9814  -5.9763  -5.9745  -5.9745  -5.8797  -5.8797  -5.8782
    -0.1442  -0.0340   0.0608   0.3032   0.3032   0.3934   0.4092   0.4093
     0.4625   0.4846   0.5130   0.5313   0.5565   0.5566   0.6188   0.6407
     0.6408   0.6873   0.6874   0.7194   0.7406   0.7653   0.7653   0.7852
     6.1504   6.2453   6.2453   6.3103   6.3747   6.5819   6.5819   6.5970
     6.5970   6.7329   6.7556   6.7698   6.7861   6.8374   6.8374   7.3698
     7.6111   7.6159   7.6159   7.6372   7.6953   7.7055   7.7214   7.7214
     7.7648   7.7783   7.7783   7.8593   7.8746   7.8746   7.9423   7.9424
     7.9565   8.0162   8.0318   8.0525   8.1251   8.3370   8.3370   8.4686
     8.4686   8.6347   8.7589   8.7589   8.7734   8.8082   9.0831   9.0831
     9.1688   9.1740   9.2243   9.2419   9.3144   9.3349   9.4167   9.4981
     9.4981   9.5193   9.5205   9.5205   9.5887   9.5887   9.6685   9.6685
     9.9769  10.0222  10.1452  10.1693  10.1980  10.1980  10.2644  10.2941
    12.8408  13.0039  13.0175  13.0504  13.0504  13.1476  14.0404  14.0637
    14.0637  14.0995  14.0995  14.1342  14.1600  14.1600  14.3077  14.3430
    14.3860  14.3860  14.4850  14.6285  14.6285  14.7657  14.8059  14.8901
    15.1061  15.1660  15.1660  15.4075  15.4702  15.4745  16.0164  16.1010
    16.1010  16.1083  16.8505  16.8505  17.1734  17.3833  17.4657  17.4741

          k = 0.2500 0.2500 0.2473 (  9634 PWs)   bands (ev):

   -46.5202 -46.5191 -46.5191 -46.5185 -46.5178 -46.5178 -46.5175 -46.5167
   -22.7999 -22.7997 -22.7997 -22.7980 -22.7719 -22.7707 -22.7707 -22.7689
   -22.7525 -22.7525 -22.7502 -22.7502 -22.7495 -22.7493 -22.7490 -22.7475
   -22.7182 -22.7167 -22.7165 -22.7165 -22.7155 -22.7153 -22.7146 -22.7146
   -14.2983 -14.2247 -14.2181 -14.2181 -14.1641 -14.1641 -14.1582 -14.1122
    -6.8274  -6.8274  -6.7825  -6.7545  -6.5555  -6.4933  -6.4933  -6.1761
    -6.1451  -6.1005  -6.1005  -6.0865  -6.0865  -6.0593  -6.0325  -6.0250
    -5.9930  -5.9715  -5.9707  -5.9619  -5.9619  -5.8997  -5.8997  -5.8989
    -0.0691  -0.0347   0.2345   0.3113   0.3380   0.3380   0.3769   0.4026
     0.4026   0.4663   0.4715   0.4819   0.4936   0.4936   0.5739   0.5739
     0.5945   0.7115   0.7334   0.7385   0.7385   0.8093   0.8093   0.8210
     6.2524   6.3321   6.3645   6.3645   6.5453   6.5453   6.5984   6.7106
     6.7106   6.7621   6.7679   6.8420   6.8815   6.9485   6.9485   7.4169
     7.4412   7.4412   7.5553   7.5605   7.6951   7.6951   7.6954   7.7168
     7.7168   7.7713   7.8481   7.8481   7.8775   7.8935   7.9087   7.9372
     7.9457   7.9457   7.9892   7.9912   8.1602   8.1602   8.1848   8.4245
     8.4942   8.4942   8.5542   8.5819   8.7760   8.7760   9.0205   9.1907
     9.2752   9.2762   9.2762   9.3101   9.3514   9.3744   9.3744   9.4553
     9.4553   9.5006   9.5331   9.5557   9.5557   9.5782   9.6300   9.6300
     9.8655   9.9057   9.9907  10.0627  10.1260  10.1260  10.2572  10.2774
    12.9902  13.1194  13.1516  13.1724  13.2309  13.2309  14.0528  14.0528
    14.1128  14.1146  14.1146  14.1254  14.1254  14.1350  14.1556  14.1974
    14.1974  14.2300  14.4917  14.4917  14.5387  14.6769  14.7334  14.7442
    15.4312  15.4710  15.4821  15.4821  15.5182  15.9507  16.0836  16.0836
    16.2506  16.3746  16.9399  16.9399  16.9869  17.4103  17.5208  17.6127

          k = 0.2500 0.2500-0.4946 (  9628 PWs)   bands (ev):

   -46.5196 -46.5194 -46.5184 -46.5184 -46.5182 -46.5182 -46.5172 -46.5170
   -22.7876 -22.7873 -22.7849 -22.7849 -22.7847 -22.7847 -22.7836 -22.7834
   -22.7505 -22.7505 -22.7505 -22.7505 -22.7491 -22.7490 -22.7488 -22.7488
   -22.7177 -22.7177 -22.7157 -22.7157 -22.7157 -22.7157 -22.7151 -22.7151
   -14.2618 -14.2618 -14.1913 -14.1913 -14.1912 -14.1912 -14.1354 -14.1353
    -6.7396  -6.7395  -6.6642  -6.6642  -6.6641  -6.6641  -6.3782  -6.3780
    -6.1225  -6.1223  -6.0854  -6.0854  -6.0853  -6.0853  -6.0421  -6.0420
    -5.9620  -5.9619  -5.9469  -5.9468  -5.9377  -5.9377  -5.9376  -5.9376
     0.1177   0.1178   0.1195   0.1195   0.3980   0.3980   0.3981   0.3981
     0.4694   0.4695   0.4695   0.4695   0.4742   0.4743   0.4905   0.4906
     0.5197   0.5197   0.8076   0.8076   0.8076   0.8076   0.8118   0.8118
     6.3429   6.3429   6.4807   6.4807   6.4807   6.4807   6.7599   6.7599
     7.0570   7.0570   7.0570   7.0570   7.0727   7.0728   7.1558   7.1559
     7.3672   7.3672   7.3674   7.3674   7.4841   7.4843   7.6107   7.6108
     7.7307   7.7307   7.7308   7.7308   7.8326   7.8326   7.9682   7.9683
     8.0359   8.0360   8.1011   8.1011   8.1011   8.1011   8.2467   8.2468
     8.3136   8.3137   8.5695   8.5695   8.5695   8.5695   8.9814   8.9815
     9.3179   9.3179   9.3179   9.3179   9.3484   9.3485   9.5260   9.5260
     9.5261   9.5261   9.6448   9.6448   9.7142   9.7142   9.7323   9.7323
     9.7790   9.7791   9.8566   9.8566   9.8566   9.8566  10.2423  10.2424
    13.0801  13.0802  13.6043  13.6044  13.6567  13.6568  13.7079  13.7079
    13.7080  13.7080  14.1062  14.1062  14.1062  14.1062  14.2793  14.2793
    14.2793  14.2793  14.4127  14.4128  14.4429  14.4430  14.6337  14.6337
    15.4431  15.4431  15.9256  15.9256  15.9258  15.9258  16.3185  16.3188
    16.8397  16.8399  16.8953  16.8956  17.0936  17.0938  17.4502  17.4502

          k = 0.2500-0.5000 0.0000 (  9644 PWs)   bands (ev):

   -46.5196 -46.5196 -46.5185 -46.5185 -46.5182 -46.5182 -46.5172 -46.5172
   -22.8076 -22.8076 -22.8042 -22.8042 -22.7644 -22.7644 -22.7638 -22.7638
   -22.7512 -22.7512 -22.7490 -22.7490 -22.7352 -22.7352 -22.7330 -22.7330
   -22.7329 -22.7329 -22.7328 -22.7327 -22.7169 -22.7169 -22.7142 -22.7142
   -14.2716 -14.2716 -14.1986 -14.1986 -14.1811 -14.1811 -14.1278 -14.1277
    -6.8142  -6.8142  -6.7531  -6.7531  -6.6287  -6.6286  -6.2365  -6.2364
    -6.1050  -6.1050  -6.0667  -6.0666  -6.0476  -6.0475  -6.0414  -6.0414
    -6.0076  -6.0075  -5.9881  -5.9880  -5.9416  -5.9416  -5.9247  -5.9246
     0.0477   0.0477   0.1832   0.1832   0.3633   0.3634   0.3795   0.3795
     0.4483   0.4483   0.4856   0.4857   0.5683   0.5683   0.5747   0.5748
     0.6604   0.6604   0.7181   0.7181   0.7183   0.7183   0.7309   0.7309
     6.2402   6.2402   6.3413   6.3414   6.4888   6.4888   6.7090   6.7090
     6.9067   6.9067   7.1361   7.1362   7.1466   7.1466   7.1664   7.1664
     7.3054   7.3055   7.3216   7.3218   7.3454   7.3455   7.6703   7.6704
     7.7474   7.7474   7.7611   7.7612   7.9554   7.9555   7.9635   7.9635
     8.0232   8.0232   8.1002   8.1002   8.1259   8.1259   8.3344   8.3345
     8.5294   8.5295   8.6730   8.6730   8.7545   8.7545   8.8554   8.8554
     9.1968   9.1968   9.2000   9.2000   9.3169   9.3169   9.3988   9.3988
     9.4448   9.4449   9.7320   9.7320   9.8188   9.8188   9.8420   9.8421
     9.8446   9.8446   9.8487   9.8487  10.0063  10.0063  10.2106  10.2106
    12.9767  12.9767  13.4779  13.4779  13.5280  13.5280  13.5376  13.5376
    13.6523  13.6523  14.0881  14.0881  14.2191  14.2191  14.3630  14.3630
    14.4007  14.4008  14.4325  14.4325  14.5720  14.5720  14.7443  14.7444
    15.1724  15.1724  15.4149  15.4149  15.9402  15.9402  16.2477  16.2478
    16.7580  16.7580  16.8452  16.8452  17.0345  17.0347  17.5700  17.5700

          k = 0.2500-0.5000 0.2473 (  9644 PWs)   bands (ev):

   -46.5192 -46.5192 -46.5185 -46.5185 -46.5183 -46.5183 -46.5178 -46.5178
   -22.8007 -22.8007 -22.7999 -22.7999 -22.7705 -22.7705 -22.7696 -22.7696
   -22.7505 -22.7505 -22.7499 -22.7499 -22.7340 -22.7340 -22.7338 -22.7338
   -22.7335 -22.7335 -22.7325 -22.7325 -22.7162 -22.7162 -22.7159 -22.7159
   -14.2586 -14.2586 -14.1946 -14.1946 -14.1884 -14.1884 -14.1383 -14.1383
    -6.7668  -6.7668  -6.6854  -6.6853  -6.6293  -6.6292  -6.3267  -6.3266
    -6.1114  -6.1114  -6.0816  -6.0816  -6.0481  -6.0481  -6.0375  -6.0374
    -6.0123  -6.0122  -5.9904  -5.9903  -5.9464  -5.9464  -5.9316  -5.9316
     0.1057   0.1057   0.1576   0.1576   0.3725   0.3725   0.3764   0.3764
     0.4714   0.4714   0.4719   0.4719   0.4864   0.4864   0.4993   0.4994
     0.5192   0.5192   0.8002   0.8002   0.8081   0.8081   0.8083   0.8083
     6.3508   6.3509   6.4731   6.4732   6.5194   6.5194   6.7861   6.7861
     6.9925   6.9925   7.0744   7.0745   7.0948   7.0949   7.1268   7.1268
     7.3291   7.3292   7.3942   7.3943   7.4182   7.4183   7.6285   7.6285
     7.7525   7.7526   7.7670   7.7670   7.8241   7.8241   7.9711   7.9711
     8.0527   8.0527   8.0580   8.0580   8.0737   8.0737   8.2775   8.2776
     8.3280   8.3280   8.4968   8.4968   8.6834   8.6835   8.8017   8.8017
     9.3325   9.3325   9.3342   9.3343   9.3637   9.3637   9.4256   9.4256
     9.5316   9.5316   9.6868   9.6869   9.6887   9.6888   9.7737   9.7737
     9.8475   9.8476   9.8676   9.8677   9.9732   9.9733  10.1019  10.1019
    13.1947  13.1947  13.5486  13.5486  13.6109  13.6110  13.6220  13.6220
    13.6649  13.6650  14.1557  14.1557  14.1634  14.1634  14.2425  14.2425
    14.2656  14.2656  14.3691  14.3691  14.4133  14.4133  14.5864  14.5864
    15.5011  15.5011  15.8711  15.8711  15.9228  15.9228  16.3736  16.3737
    16.9222  16.9222  17.0683  17.0685  17.0703  17.0703  17.4709  17.4710

          k = 0.2500-0.5000-0.4946 (  9652 PWs)   bands (ev):

   -46.5191 -46.5191 -46.5189 -46.5189 -46.5182 -46.5182 -46.5181 -46.5181
   -22.7857 -22.7857 -22.7854 -22.7854 -22.7850 -22.7850 -22.7847 -22.7847
   -22.7504 -22.7504 -22.7504 -22.7504 -22.7341 -22.7341 -22.7341 -22.7341
   -22.7336 -22.7336 -22.7336 -22.7336 -22.7165 -22.7165 -22.7165 -22.7165
   -14.2269 -14.2269 -14.2268 -14.2268 -14.1636 -14.1635 -14.1635 -14.1635
    -6.6734  -6.6733  -6.6733  -6.6732  -6.5146  -6.5145  -6.5145  -6.5144
    -6.1210  -6.1210  -6.1209  -6.1209  -6.0286  -6.0285  -6.0285  -6.0284
    -6.0053  -6.0052  -6.0052  -6.0051  -5.9474  -5.9474  -5.9473  -5.9473
     0.2134   0.2134   0.2134   0.2134   0.2746   0.2747   0.2747   0.2747
     0.4065   0.4065   0.4065   0.4065   0.4609   0.4610   0.4610   0.4610
     0.7202   0.7202   0.7202   0.7202   0.8621   0.8621   0.8621   0.8621
     6.4394   6.4394   6.4395   6.4395   6.8485   6.8486   6.8486   6.8486
     7.0270   7.0270   7.0270   7.0270   7.2786   7.2786   7.2787   7.2787
     7.2824   7.2824   7.2825   7.2826   7.5357   7.5357   7.5357   7.5358
     7.6197   7.6197   7.6197   7.6197   7.9778   7.9778   7.9778   7.9778
     7.9939   7.9940   7.9940   7.9941   8.1269   8.1270   8.1270   8.1270
     8.1853   8.1854   8.1854   8.1855   8.6136   8.6136   8.6137   8.6137
     9.4408   9.4408   9.4408   9.4408   9.5081   9.5082   9.5082   9.5082
     9.5954   9.5955   9.5955   9.5955   9.7681   9.7681   9.7682   9.7682
     9.8007   9.8007   9.8007   9.8007   9.9386   9.9387   9.9388   9.9388
    13.5619  13.5619  13.5619  13.5619  13.6985  13.6985  13.6986  13.6986
    13.8794  13.8794  13.8795  13.8795  14.0151  14.0152  14.0152  14.0152
    14.3046  14.3046  14.3046  14.3046  14.3560  14.3561  14.3561  14.3561
    15.8674  15.8674  15.8675  15.8675  16.7278  16.7279  16.7281  16.7281
    16.8480  16.8481  16.8483  16.8483  17.3427  17.3428  17.3429  17.3434

          k =-0.5000-0.5000 0.0000 (  9644 PWs)   bands (ev):

   -46.5185 -46.5185 -46.5185 -46.5185 -46.5183 -46.5183 -46.5183 -46.5183
   -22.8073 -22.8073 -22.8073 -22.8073 -22.7621 -22.7621 -22.7621 -22.7621
   -22.7352 -22.7352 -22.7352 -22.7352 -22.7339 -22.7339 -22.7339 -22.7339
   -22.7330 -22.7330 -22.7330 -22.7330 -22.7320 -22.7320 -22.7320 -22.7320
   -14.2354 -14.2354 -14.2354 -14.2354 -14.1546 -14.1546 -14.1546 -14.1546
    -6.7601  -6.7601  -6.7601  -6.7601  -6.4435  -6.4435  -6.4435  -6.4434
    -6.0527  -6.0527  -6.0527  -6.0527  -6.0399  -6.0399  -6.0399  -6.0398
    -6.0381  -6.0381  -6.0381  -6.0380  -5.9503  -5.9503  -5.9503  -5.9502
     0.1536   0.1536   0.1536   0.1536   0.3698   0.3699   0.3699   0.3699
     0.4289   0.4289   0.4289   0.4290   0.5986   0.5986   0.5987   0.5987
     0.6378   0.6379   0.6379   0.6379   0.7368   0.7368   0.7368   0.7368
     6.3164   6.3164   6.3164   6.3164   6.9227   6.9227   6.9227   6.9228
     6.9367   6.9367   6.9367   6.9367   7.2745   7.2745   7.2745   7.2746
     7.3442   7.3442   7.3442   7.3443   7.3735   7.3736   7.3736   7.3737
     7.7705   7.7705   7.7705   7.7706   7.9464   7.9464   7.9464   7.9464
     7.9954   7.9954   7.9954   7.9955   8.2710   8.2710   8.2710   8.2710
     8.2973   8.2974   8.2974   8.2974   8.5894   8.5894   8.5894   8.5894
     9.3375   9.3375   9.3375   9.3375   9.5655   9.5655   9.5655   9.5655
     9.5778   9.5779   9.5779   9.5779   9.7957   9.7958   9.7958   9.7958
     9.8475   9.8475   9.8475   9.8475   9.9660   9.9660   9.9660   9.9661
    13.4250  13.4250  13.4250  13.4250  13.6559  13.6559  13.6559  13.6559
    13.8219  13.8219  13.8219  13.8219  14.0395  14.0395  14.0395  14.0395
    14.4817  14.4817  14.4817  14.4817  14.4913  14.4913  14.4913  14.4913
    15.4060  15.4060  15.4060  15.4061  16.8048  16.8049  16.8049  16.8049
    16.9273  16.9273  16.9274  16.9274  17.2592  17.2592  17.2593  17.2593

          k =-0.5000-0.5000 0.2473 (  9648 PWs)   bands (ev):

   -46.5192 -46.5192 -46.5192 -46.5192 -46.5178 -46.5178 -46.5178 -46.5178
   -22.7994 -22.7994 -22.7994 -22.7994 -22.7707 -22.7707 -22.7707 -22.7707
   -22.7352 -22.7352 -22.7352 -22.7352 -22.7343 -22.7343 -22.7343 -22.7343
   -22.7338 -22.7338 -22.7338 -22.7338 -22.7312 -22.7312 -22.7312 -22.7312
   -14.2238 -14.2238 -14.2238 -14.2238 -14.1667 -14.1666 -14.1666 -14.1666
    -6.7026  -6.7025  -6.7025  -6.7025  -6.4687  -6.4687  -6.4687  -6.4686
    -6.0745  -6.0745  -6.0745  -6.0745  -6.0545  -6.0545  -6.0545  -6.0544
    -6.0273  -6.0272  -6.0272  -6.0272  -5.9631  -5.9631  -5.9631  -5.9630
     0.1950   0.1950   0.1950   0.1951   0.3105   0.3105   0.3105   0.3105
     0.3883   0.3883   0.3883   0.3883   0.4631   0.4631   0.4631   0.4631
     0.7217   0.7217   0.7217   0.7217   0.8572   0.8572   0.8572   0.8572
     6.4862   6.4862   6.4862   6.4862   6.8214   6.8215   6.8215   6.8216
     6.9751   6.9751   6.9751   6.9751   7.2953   7.2954   7.2954   7.2955
     7.3343   7.3344   7.3344   7.3345   7.5360   7.5361   7.5361   7.5362
     7.5889   7.5889   7.5889   7.5889   7.9930   7.9931   7.9931   7.9931
     8.0379   8.0379   8.0379   8.0380   8.1971   8.1971   8.1971   8.1971
     8.2046   8.2046   8.2046   8.2046   8.4185   8.4186   8.4186   8.4186
     9.4734   9.4734   9.4734   9.4734   9.5070   9.5070   9.5070   9.5070
     9.6224   9.6224   9.6224   9.6225   9.7513   9.7513   9.7513   9.7513
     9.8786   9.8786   9.8786   9.8786   9.8957   9.8957   9.8957   9.8958
    13.5521  13.5521  13.5521  13.5521  13.6884  13.6884  13.6884  13.6885
    13.8493  13.8493  13.8493  13.8494  14.0294  14.0294  14.0294  14.0294
    14.3205  14.3205  14.3205  14.3205  14.3533  14.3533  14.3533  14.3533
    15.8488  15.8488  15.8488  15.8488  16.8366  16.8367  16.8367  16.8368
    16.9267  16.9268  16.9268  16.9269  17.4912  17.4913  17.4913  17.4913

          k =-0.5000-0.5000-0.4946 (  9640 PWs)   bands (ev):

   -46.5185 -46.5185 -46.5185 -46.5185 -46.5184 -46.5184 -46.5184 -46.5184
   -22.7853 -22.7853 -22.7853 -22.7853 -22.7851 -22.7851 -22.7851 -22.7851
   -22.7332 -22.7332 -22.7332 -22.7332 -22.7332 -22.7332 -22.7332 -22.7332
   -22.7332 -22.7332 -22.7332 -22.7332 -22.7332 -22.7332 -22.7332 -22.7332
   -14.1955 -14.1955 -14.1954 -14.1954 -14.1954 -14.1954 -14.1954 -14.1954
    -6.5708  -6.5708  -6.5708  -6.5707  -6.5707  -6.5707  -6.5707  -6.5706
    -6.0819  -6.0819  -6.0819  -6.0818  -6.0818  -6.0818  -6.0818  -6.0817
    -5.9959  -5.9958  -5.9958  -5.9958  -5.9958  -5.9957  -5.9957  -5.9957
     0.2915   0.2915   0.2915   0.2915   0.2916   0.2916   0.2916   0.2916
     0.3201   0.3201   0.3201   0.3201   0.3202   0.3202   0.3202   0.3202
     0.8616   0.8616   0.8616   0.8616   0.8616   0.8616   0.8616   0.8616
     6.6922   6.6923   6.6923   6.6923   6.6923   6.6923   6.6923   6.6924
     7.2819   7.2819   7.2819   7.2820   7.2821   7.2821   7.2821   7.2822
     7.3169   7.3169   7.3169   7.3169   7.3170   7.3170   7.3170   7.3170
     7.9167   7.9168   7.9168   7.9168   7.9168   7.9168   7.9168   7.9168
     8.0790   8.0790   8.0790   8.0791   8.0791   8.0791   8.0791   8.0791
     8.0817   8.0817   8.0817   8.0817   8.0818   8.0818   8.0818   8.0818
     9.6419   9.6419   9.6420   9.6420   9.6420   9.6420   9.6420   9.6420
     9.6464   9.6464   9.6464   9.6464   9.6464   9.6464   9.6464   9.6465
     9.8293   9.8294   9.8294   9.8294   9.8294   9.8295   9.8295   9.8295
    13.8757  13.8757  13.8757  13.8757  13.8757  13.8757  13.8757  13.8757
    13.9626  13.9626  13.9626  13.9626  13.9626  13.9626  13.9626  13.9626
    13.9885  13.9885  13.9885  13.9885  13.9886  13.9886  13.9886  13.9886
    16.7778  16.7778  16.7778  16.7779  16.7781  16.7781  16.7781  16.7781
    16.9058  16.9058  16.9059  16.9059  16.9059  16.9059  16.9059  16.9060

     highest occupied, lowest unoccupied level (ev):    10.5170   12.4387

!    total energy              =   -5961.38281845 Ry
     total all-electron energy =   -147445.836391 Ry
     estimated scf accuracy    <          3.9E-11 Ry

     The total energy is the sum of the following terms:
     one-electron contribution =    -543.61894574 Ry
     hartree contribution      =     479.01999678 Ry
     xc contribution           =    -490.55021333 Ry
     ewald contribution        =   -1653.96634398 Ry
     one-center paw contrib.   =   -3752.26731219 Ry

     convergence has been achieved in   5 iterations

     Forces acting on atoms (cartesian axes, Ry/au):

     atom    1 type  1   force =     0.00000000    0.00000000   -0.00059155
     atom    2 type  1   force =     0.00000000    0.00000000   -0.00056212
     atom    3 type  1   force =     0.00000000    0.00000000   -0.00057810
     atom    4 type  1   force =     0.00000000    0.00000000   -0.00056992
     atom    5 type  1   force =     0.00000000    0.00000000   -0.00057810
     atom    6 type  1   force =     0.00000000    0.00000000   -0.00056992
     atom    7 type  1   force =     0.00000000    0.00000000   -0.00059664
     atom    8 type  1   force =     0.00000000    0.00000000   -0.00056079
     atom    9 type  2   force =     0.00005214    0.00005214    0.04329501
     atom   10 type  2   force =     0.00004179    0.00004179    0.04343741
     atom   11 type  2   force =     0.00005214   -0.00005214    0.04329501
     atom   12 type  2   force =     0.00004179   -0.00004179    0.04343741
     atom   13 type  2   force =    -0.00005214    0.00005214    0.04329501
     atom   14 type  2   force =    -0.00004179    0.00004179    0.04343741
     atom   15 type  2   force =    -0.00005214   -0.00005214    0.04329501
     atom   16 type  2   force =    -0.00004179   -0.00004179    0.04343741
     atom   17 type  3   force =     0.00000018    0.00000018   -0.04670294
     atom   18 type  3   force =    -0.00000119   -0.00000119   -0.04672628
     atom   19 type  3   force =     0.00000018   -0.00000018   -0.04670294
     atom   20 type  3   force =    -0.00000119    0.00000119   -0.04672628
     atom   21 type  3   force =    -0.00000018    0.00000018   -0.04670294
     atom   22 type  3   force =     0.00000119   -0.00000119   -0.04672628
     atom   23 type  3   force =    -0.00000018   -0.00000018   -0.04670294
     atom   24 type  3   force =     0.00000119    0.00000119   -0.04672628
     atom   25 type  3   force =     0.00000082    0.00000000    0.00195314
     atom   26 type  3   force =    -0.00000558    0.00000000    0.00196004
     atom   27 type  3   force =     0.00000356    0.00000000    0.00196160
     atom   28 type  3   force =     0.00000356    0.00000000    0.00197382
     atom   29 type  3   force =    -0.00000082    0.00000000    0.00195314
     atom   30 type  3   force =     0.00000558    0.00000000    0.00196004
     atom   31 type  3   force =    -0.00000356    0.00000000    0.00196160
     atom   32 type  3   force =    -0.00000356    0.00000000    0.00197382
     atom   33 type  3   force =     0.00000000    0.00000082    0.00195314
     atom   34 type  3   force =     0.00000000   -0.00000558    0.00196004
     atom   35 type  3   force =     0.00000000   -0.00000082    0.00195314
     atom   36 type  3   force =     0.00000000    0.00000558    0.00196004
     atom   37 type  3   force =     0.00000000    0.00000356    0.00196160
     atom   38 type  3   force =     0.00000000    0.00000356    0.00197382
     atom   39 type  3   force =     0.00000000   -0.00000356    0.00196160
     atom   40 type  3   force =     0.00000000   -0.00000356    0.00197382

     Total force =     0.180464     Total SCF correction =     0.000017


     Computing stress (Cartesian axis) and pressure

          total   stress  (Ry/bohr**3)                   (kbar)     P=     -798.63
  -0.00540824   0.00000000   0.00000000         -795.58        0.00        0.00
   0.00000000  -0.00540824   0.00000000            0.00     -795.58        0.00
   0.00000000   0.00000000  -0.00547050            0.00        0.00     -804.74


     Writing all to output data dir ./tmp/30_ecut_4_kmesh_PBE.save/ :
     XML data file, charge density, pseudopotentials, collected wavefunctions

     init_run     :      0.88s CPU      1.30s WALL (       1 calls)
     electrons    :      4.31s CPU      4.56s WALL (       1 calls)
     forces       :      0.17s CPU      0.19s WALL (       1 calls)
     stress       :      0.40s CPU      0.44s WALL (       1 calls)

     Called by init_run:
     wfcinit      :      0.41s CPU      0.67s WALL (       1 calls)
     potinit      :      0.21s CPU      0.25s WALL (       1 calls)
     hinit0       :      0.16s CPU      0.25s WALL (       1 calls)

     Called by electrons:
     c_bands      :      3.30s CPU      3.46s WALL (       6 calls)
     sum_band     :      0.45s CPU      0.48s WALL (       6 calls)
     v_of_rho     :      0.04s CPU      0.05s WALL (       6 calls)
     newd         :      0.03s CPU      0.04s WALL (       6 calls)
     PAW_pot      :      0.26s CPU      0.27s WALL (       6 calls)
     mix_rho      :      0.00s CPU      0.01s WALL (       6 calls)

     Called by c_bands:
     init_us_2    :      0.05s CPU      0.05s WALL (      42 calls)
     cegterg      :      3.15s CPU      3.30s WALL (      18 calls)

     Called by *egterg:
     cdiaghg      :      0.84s CPU      0.90s WALL (      53 calls)
     h_psi        :      1.54s CPU      1.59s WALL (      59 calls)
     s_psi        :      0.18s CPU      0.19s WALL (      59 calls)
     g_psi        :      0.00s CPU      0.00s WALL (      41 calls)

     Called by h_psi:
     h_psi:calbec :      0.29s CPU      0.32s WALL (      59 calls)
     vloc_psi     :      1.05s CPU      1.08s WALL (      59 calls)
                                        0.00s GPU  (      59 calls)
     add_vuspsi   :      0.19s CPU      0.19s WALL (      59 calls)

     General routines
     calbec       :      0.81s CPU      0.89s WALL (     128 calls)
     fft          :      0.16s CPU      0.20s WALL (     102 calls)
     ffts         :      0.16s CPU      0.16s WALL (      12 calls)
     fftw         :      1.24s CPU      1.27s WALL (   18692 calls)
     interpolate  :      0.16s CPU      0.17s WALL (       6 calls)

     Parallel routines

     PWSCF        :      6.96s CPU      9.22s WALL


   This run was terminated on:   0:12:23  21May2026            

=------------------------------------------------------------------------------=
   JOB DONE.
=------------------------------------------------------------------------------=
