
     Program PWSCF v.7.5 starts on 21May2026 at  0:15:21 

     This program is part of the open-source Quantum ESPRESSO suite
     for quantum simulation of materials; please cite
         "P. Giannozzi et al., J. Phys.:Condens. Matter 21 395502 (2009);
         "P. Giannozzi et al., J. Phys.:Condens. Matter 29 465901 (2017);
         "P. Giannozzi et al., J. Chem. Phys. 152 154105 (2020);
          URL http://www.quantum-espresso.org", 
     in publications or presentations arising from this work. More details at
     http://www.quantum-espresso.org/quote

     Parallel version (MPI & OpenMP), running on     192 processor cores
     Number of MPI processes:               192
     Threads/MPI process:                     1

     MPI processes distributed on     1 nodes
     278561 MiB available memory on the printing compute node when the environment starts

     Waiting for input...
     Reading input from standard input

     Current dimensions of program PWSCF are:
     Max number of different atomic species (ntypx) = 10
     Max number of k-points (npk) =  40000
     Max angular momentum in pseudopotentials (lmaxx) =  4
     file Ba.pbe-spn-kjpaw_psl.1.0.0.UPF: wavefunction(s)  5S 6S renormalized
     file Ti.pbe-spn-kjpaw_psl.1.0.0.UPF: wavefunction(s)  3S 3P 3D renormalized
     file O.pbe-n-kjpaw_psl.1.0.0.UPF: wavefunction(s)  2S 2P renormalized

     IMPORTANT: XC functional enforced from input :
     Exchange-correlation= PBE
                           (   1   4   3   4   0   0   0)
     Any further DFT definition will be discarded
     Please, verify this is what you really want

     Found identity + ( -0.5000 -0.5000  0.0000) symmetry
     This is a supercell, fractional translations are disabled

     K-points division:     npool     =       8
     R & G space division:  proc/nbgrp/npool/nimage =      24
     Subspace diagonalization in iterative solution of the eigenvalue problem:
     one sub-group per band group will be used
     ELPA distributed-memory algorithm (size of sub-group:  2*  2 procs)


     Parallelization info
     --------------------
     sticks:   dense  smooth     PW     G-vecs:    dense   smooth      PW
     Min         422     211     57                32375    11445    1619
     Max         424     212     58                32377    11448    1623
     Sum       10137    5065   1369               777019   274705   38907

     Using Slab Decomposition



     bravais-lattice index     =            6
     lattice parameter (alat)  =      15.0876  a.u.
     unit-cell volume          =    3472.3239 (a.u.)^3
     number of atoms/cell      =           40
     number of atomic types    =            3
     number of electrons       =       320.00
     number of Kohn-Sham states=          200
     kinetic-energy cutoff     =      70.0000  Ry
     charge density cutoff     =     560.0000  Ry
     scf convergence threshold =      1.0E-10
     mixing beta               =       0.3000
     number of iterations used =           16  plain     mixing
     Exchange-correlation= PBE
                           (   1   4   3   4   0   0   0)

     celldm(1)=  15.087600  celldm(2)=   0.000000  celldm(3)=   1.011020
     celldm(4)=   0.000000  celldm(5)=   0.000000  celldm(6)=   0.000000

     crystal axes: (cart. coord. in units of alat)
               a(1) = (   1.000000   0.000000   0.000000 )  
               a(2) = (   0.000000   1.000000   0.000000 )  
               a(3) = (   0.000000   0.000000   1.011020 )  

     reciprocal axes: (cart. coord. in units 2 pi/alat)
               b(1) = (  1.000000  0.000000  0.000000 )  
               b(2) = (  0.000000  1.000000  0.000000 )  
               b(3) = (  0.000000  0.000000  0.989100 )  


     PseudoPot. # 1 for Ba read from file:
     /home/kylay/scratch/BTO/pseuds/Ba.pbe-spn-kjpaw_psl.1.0.0.UPF
     MD5 check sum: 7cfe25f1fe7574a4710541d5a11d6531
     Pseudo is Projector augmented-wave + core cor, Zval = 10.0
     Generated using &quot;atomic&quot; code by A. Dal Corso  v.6.2.2
     Shape of augmentation charge: PSQ
     Using radial grid of 1251 points,  7 beta functions with: 
                l(1) =   0
                l(2) =   0
                l(3) =   0
                l(4) =   1
                l(5) =   1
                l(6) =   2
                l(7) =   2
     Q(r) pseudized with 0 coefficients 


     PseudoPot. # 2 for Ti read from file:
     /home/kylay/scratch/BTO/pseuds/Ti.pbe-spn-kjpaw_psl.1.0.0.UPF
     MD5 check sum: 01f69b0d8ba4438b2e03ac6ea4af1c0b
     Pseudo is Projector augmented-wave + core cor, Zval = 12.0
     Generated using &quot;atomic&quot; code by A. Dal Corso  v.6.2.2
     Shape of augmentation charge: PSQ
     Using radial grid of 1177 points,  6 beta functions with: 
                l(1) =   0
                l(2) =   0
                l(3) =   1
                l(4) =   1
                l(5) =   2
                l(6) =   2
     Q(r) pseudized with 0 coefficients 


     PseudoPot. # 3 for O  read from file:
     /home/kylay/scratch/BTO/pseuds/O.pbe-n-kjpaw_psl.1.0.0.UPF
     MD5 check sum: e99d9cef9b487d1ca56f5b95ecd0fd7a
     Pseudo is Projector augmented-wave + core cor, Zval =  6.0
     Generated using &quot;atomic&quot; code by A. Dal Corso  v.6.3
     Shape of augmentation charge: PSQ
     Using radial grid of 1095 points,  4 beta functions with: 
                l(1) =   0
                l(2) =   0
                l(3) =   1
                l(4) =   1
     Q(r) pseudized with 0 coefficients 


     atomic species   valence    mass     pseudopotential
     Ba               10.00   137.32700     Ba( 1.00)
     Ti               12.00    47.86700     Ti( 1.00)
     O                 6.00    15.99900     O ( 1.00)

      8 Sym. Ops. (no inversion) found



   Cartesian axes

     site n.     atom                  positions (alat units)
         1        Ba     tau(   1) = (   0.0000000   0.0000000  -0.0010787  )
         2        Ba     tau(   2) = (   0.0000000   0.0000000   0.5044220  )
         3        Ba     tau(   3) = (   0.0000000   0.5000000  -0.0010832  )
         4        Ba     tau(   4) = (   0.0000000   0.5000000   0.5044235  )
         5        Ba     tau(   5) = (   0.5000000   0.0000000  -0.0010832  )
         6        Ba     tau(   6) = (   0.5000000   0.0000000   0.5044235  )
         7        Ba     tau(   7) = (   0.5000000   0.5000000  -0.0010766  )
         8        Ba     tau(   8) = (   0.5000000   0.5000000   0.5044202  )
         9        Ti     tau(   9) = (   0.2500002   0.2500002   0.2436990  )
        10        Ti     tau(  10) = (   0.2500007   0.2500007   0.7492042  )
        11        Ti     tau(  11) = (   0.2500002   0.7499998   0.2436990  )
        12        Ti     tau(  12) = (   0.2500007   0.7499993   0.7492042  )
        13        Ti     tau(  13) = (   0.7499998   0.2500002   0.2436990  )
        14        Ti     tau(  14) = (   0.7499993   0.2500007   0.7492042  )
        15        Ti     tau(  15) = (   0.7499998   0.7499998   0.2436990  )
        16        Ti     tau(  16) = (   0.7499993   0.7499993   0.7492042  )
        17        O      tau(  17) = (   0.2500011   0.2500011   0.0113903  )
        18        O      tau(  18) = (   0.2500007   0.2500007   0.5168954  )
        19        O      tau(  19) = (   0.2500011   0.7499989   0.0113903  )
        20        O      tau(  20) = (   0.2500007   0.7499993   0.5168954  )
        21        O      tau(  21) = (   0.7499989   0.2500011   0.0113903  )
        22        O      tau(  22) = (   0.7499993   0.2500007   0.5168954  )
        23        O      tau(  23) = (   0.7499989   0.7499989   0.0113903  )
        24        O      tau(  24) = (   0.7499993   0.7499993   0.5168954  )
        25        O      tau(  25) = (   0.2500005   0.0000000   0.2592128  )
        26        O      tau(  26) = (   0.2500020   0.0000000   0.7647195  )
        27        O      tau(  27) = (   0.2499999   0.5000000   0.2592107  )
        28        O      tau(  28) = (   0.2499998   0.5000000   0.7647148  )
        29        O      tau(  29) = (   0.7499995   0.0000000   0.2592128  )
        30        O      tau(  30) = (   0.7499980   0.0000000   0.7647195  )
        31        O      tau(  31) = (   0.7500001   0.5000000   0.2592107  )
        32        O      tau(  32) = (   0.7500002   0.5000000   0.7647148  )
        33        O      tau(  33) = (   0.0000000   0.2500005   0.2592128  )
        34        O      tau(  34) = (   0.0000000   0.2500020   0.7647195  )
        35        O      tau(  35) = (   0.0000000   0.7499995   0.2592128  )
        36        O      tau(  36) = (   0.0000000   0.7499980   0.7647195  )
        37        O      tau(  37) = (   0.5000000   0.2499999   0.2592107  )
        38        O      tau(  38) = (   0.5000000   0.2499998   0.7647148  )
        39        O      tau(  39) = (   0.5000000   0.7500001   0.2592107  )
        40        O      tau(  40) = (   0.5000000   0.7500002   0.7647148  )

     number of k points=    75
                       cart. coord. in units 2pi/alat
        k(    1) = (   0.0000000   0.0000000   0.0000000), wk =   0.0039062
        k(    2) = (   0.0000000   0.0000000   0.1236375), wk =   0.0078125
        k(    3) = (   0.0000000   0.0000000   0.2472750), wk =   0.0078125
        k(    4) = (   0.0000000   0.0000000   0.3709125), wk =   0.0078125
        k(    5) = (   0.0000000   0.0000000  -0.4945501), wk =   0.0039062
        k(    6) = (   0.0000000   0.1250000   0.0000000), wk =   0.0156250
        k(    7) = (   0.0000000   0.1250000   0.1236375), wk =   0.0312500
        k(    8) = (   0.0000000   0.1250000   0.2472750), wk =   0.0312500
        k(    9) = (   0.0000000   0.1250000   0.3709125), wk =   0.0312500
        k(   10) = (   0.0000000   0.1250000  -0.4945501), wk =   0.0156250
        k(   11) = (   0.0000000   0.2500000   0.0000000), wk =   0.0156250
        k(   12) = (   0.0000000   0.2500000   0.1236375), wk =   0.0312500
        k(   13) = (   0.0000000   0.2500000   0.2472750), wk =   0.0312500
        k(   14) = (   0.0000000   0.2500000   0.3709125), wk =   0.0312500
        k(   15) = (   0.0000000   0.2500000  -0.4945501), wk =   0.0156250
        k(   16) = (   0.0000000   0.3750000   0.0000000), wk =   0.0156250
        k(   17) = (   0.0000000   0.3750000   0.1236375), wk =   0.0312500
        k(   18) = (   0.0000000   0.3750000   0.2472750), wk =   0.0312500
        k(   19) = (   0.0000000   0.3750000   0.3709125), wk =   0.0312500
        k(   20) = (   0.0000000   0.3750000  -0.4945501), wk =   0.0156250
        k(   21) = (   0.0000000  -0.5000000   0.0000000), wk =   0.0078125
        k(   22) = (   0.0000000  -0.5000000   0.1236375), wk =   0.0156250
        k(   23) = (   0.0000000  -0.5000000   0.2472750), wk =   0.0156250
        k(   24) = (   0.0000000  -0.5000000   0.3709125), wk =   0.0156250
        k(   25) = (   0.0000000  -0.5000000  -0.4945501), wk =   0.0078125
        k(   26) = (   0.1250000   0.1250000   0.0000000), wk =   0.0156250
        k(   27) = (   0.1250000   0.1250000   0.1236375), wk =   0.0312500
        k(   28) = (   0.1250000   0.1250000   0.2472750), wk =   0.0312500
        k(   29) = (   0.1250000   0.1250000   0.3709125), wk =   0.0312500
        k(   30) = (   0.1250000   0.1250000  -0.4945501), wk =   0.0156250
        k(   31) = (   0.1250000   0.2500000   0.0000000), wk =   0.0312500
        k(   32) = (   0.1250000   0.2500000   0.1236375), wk =   0.0625000
        k(   33) = (   0.1250000   0.2500000   0.2472750), wk =   0.0625000
        k(   34) = (   0.1250000   0.2500000   0.3709125), wk =   0.0625000
        k(   35) = (   0.1250000   0.2500000  -0.4945501), wk =   0.0312500
        k(   36) = (   0.1250000   0.3750000   0.0000000), wk =   0.0312500
        k(   37) = (   0.1250000   0.3750000   0.1236375), wk =   0.0625000
        k(   38) = (   0.1250000   0.3750000   0.2472750), wk =   0.0625000
        k(   39) = (   0.1250000   0.3750000   0.3709125), wk =   0.0625000
        k(   40) = (   0.1250000   0.3750000  -0.4945501), wk =   0.0312500
        k(   41) = (   0.1250000  -0.5000000   0.0000000), wk =   0.0156250
        k(   42) = (   0.1250000  -0.5000000   0.1236375), wk =   0.0312500
        k(   43) = (   0.1250000  -0.5000000   0.2472750), wk =   0.0312500
        k(   44) = (   0.1250000  -0.5000000   0.3709125), wk =   0.0312500
        k(   45) = (   0.1250000  -0.5000000  -0.4945501), wk =   0.0156250
        k(   46) = (   0.2500000   0.2500000   0.0000000), wk =   0.0156250
        k(   47) = (   0.2500000   0.2500000   0.1236375), wk =   0.0312500
        k(   48) = (   0.2500000   0.2500000   0.2472750), wk =   0.0312500
        k(   49) = (   0.2500000   0.2500000   0.3709125), wk =   0.0312500
        k(   50) = (   0.2500000   0.2500000  -0.4945501), wk =   0.0156250
        k(   51) = (   0.2500000   0.3750000   0.0000000), wk =   0.0312500
        k(   52) = (   0.2500000   0.3750000   0.1236375), wk =   0.0625000
        k(   53) = (   0.2500000   0.3750000   0.2472750), wk =   0.0625000
        k(   54) = (   0.2500000   0.3750000   0.3709125), wk =   0.0625000
        k(   55) = (   0.2500000   0.3750000  -0.4945501), wk =   0.0312500
        k(   56) = (   0.2500000  -0.5000000   0.0000000), wk =   0.0156250
        k(   57) = (   0.2500000  -0.5000000   0.1236375), wk =   0.0312500
        k(   58) = (   0.2500000  -0.5000000   0.2472750), wk =   0.0312500
        k(   59) = (   0.2500000  -0.5000000   0.3709125), wk =   0.0312500
        k(   60) = (   0.2500000  -0.5000000  -0.4945501), wk =   0.0156250
        k(   61) = (   0.3750000   0.3750000   0.0000000), wk =   0.0156250
        k(   62) = (   0.3750000   0.3750000   0.1236375), wk =   0.0312500
        k(   63) = (   0.3750000   0.3750000   0.2472750), wk =   0.0312500
        k(   64) = (   0.3750000   0.3750000   0.3709125), wk =   0.0312500
        k(   65) = (   0.3750000   0.3750000  -0.4945501), wk =   0.0156250
        k(   66) = (   0.3750000  -0.5000000   0.0000000), wk =   0.0156250
        k(   67) = (   0.3750000  -0.5000000   0.1236375), wk =   0.0312500
        k(   68) = (   0.3750000  -0.5000000   0.2472750), wk =   0.0312500
        k(   69) = (   0.3750000  -0.5000000   0.3709125), wk =   0.0312500
        k(   70) = (   0.3750000  -0.5000000  -0.4945501), wk =   0.0156250
        k(   71) = (  -0.5000000  -0.5000000   0.0000000), wk =   0.0039062
        k(   72) = (  -0.5000000  -0.5000000   0.1236375), wk =   0.0078125
        k(   73) = (  -0.5000000  -0.5000000   0.2472750), wk =   0.0078125
        k(   74) = (  -0.5000000  -0.5000000   0.3709125), wk =   0.0078125
        k(   75) = (  -0.5000000  -0.5000000  -0.4945501), wk =   0.0039062

     Dense  grid:   777019 G-vectors     FFT dimensions: ( 120, 120, 120)

     Smooth grid:   274705 G-vectors     FFT dimensions: (  81,  81,  81)

     Estimated max dynamical RAM per process >     123.88 MB

     Estimated total dynamical RAM >      20.63 GB

     Check: negative core charge=   -0.000002

     The initial density is read from file :
     ./tmp/70_ecut_8_kmesh_PBE.save/charge-density

     Starting wfcs from file
     Checking if some PAW data can be deallocated... 

     total cpu time spent up to now is        6.9 secs

     per-process dynamical memory:   165.3 Mb

     Self-consistent Calculation

     iteration #  1     ecut=    70.00 Ry     beta= 0.30
     Davidson diagonalization with overlap
     ethr =  1.00E-05,  avg # of iterations =  1.1

     Threshold (ethr) on eigenvalues was too large:
     Diagonalizing with lowered threshold

     Davidson diagonalization with overlap
     ethr =  3.12E-12,  avg # of iterations =  2.2

     total cpu time spent up to now is       18.3 secs

     total energy              =   -5964.62504912 Ry
     estimated scf accuracy    <       0.00000001 Ry

     iteration #  2     ecut=    70.00 Ry     beta= 0.30
     Davidson diagonalization with overlap
     ethr =  4.04E-12,  avg # of iterations =  2.0

     total cpu time spent up to now is       23.9 secs

     total energy              =   -5964.62504913 Ry
     estimated scf accuracy    <          2.5E-09 Ry

     iteration #  3     ecut=    70.00 Ry     beta= 0.30
     Davidson diagonalization with overlap
     ethr =  7.73E-13,  avg # of iterations =  2.7

     total cpu time spent up to now is       30.4 secs

     total energy              =   -5964.62504913 Ry
     estimated scf accuracy    <          1.7E-10 Ry

     iteration #  4     ecut=    70.00 Ry     beta= 0.30
     Davidson diagonalization with overlap
     ethr =  1.00E-13,  avg # of iterations =  5.2

     total cpu time spent up to now is       38.4 secs

     End of self-consistent calculation

          k = 0.0000 0.0000 0.0000 ( 34305 PWs)   bands (ev):

   -46.1089 -46.1079 -46.1078 -46.1078 -46.1069 -46.1069 -46.1068 -46.1059
   -22.4438 -22.4403 -22.4403 -22.4376 -22.3956 -22.3934 -22.3934 -22.3914
   -22.3896 -22.3896 -22.3864 -22.3864 -22.3861 -22.3861 -22.3838 -22.3838
   -22.3355 -22.3355 -22.3336 -22.3336 -22.3334 -22.3334 -22.3316 -22.3316
   -14.4579 -14.3463 -14.3369 -14.3368 -14.2674 -14.2674 -14.2594 -14.1989
    -6.7740  -6.7740  -6.7216  -6.5312  -6.2529  -6.1399  -6.1399  -5.9055
    -5.9055  -5.9046  -5.8440  -5.8440  -5.8102  -5.7780  -5.7462  -5.7462
    -5.7432  -5.7432  -5.7346  -5.6687  -5.5754  -5.5754  -5.5137  -5.5137
    -0.3540  -0.3540  -0.2919   0.2990   0.2990   0.3151   0.3151   0.3650
     0.3707   0.3707   0.3746   0.3746   0.5277   0.5277   0.5326   0.5326
     0.5494   0.5494   0.7382   0.7425   0.7425   0.7627   0.7627   0.8065
     5.9193   6.0772   6.1023   6.1023   6.2946   6.2946   6.3338   6.3491
     6.4062   6.4062   6.5586   6.5586   6.5592   6.5805   6.5962   7.5255
     7.5255   7.5768   7.5768   7.6242   7.6242   7.6251   7.6251   7.6385
     7.6385   7.7378   7.7378   7.9232   7.9232   7.9526   8.0507   8.0854
     8.0854   8.0906   8.0906   8.3850   8.3850   8.4540   8.4574   8.4697
     8.4697   8.5504   8.5504   8.6150   8.6905   8.6905   8.7148   8.7148
     9.0496   9.0496   9.2281   9.3431   9.3431   9.3760   9.3760   9.4727
     9.4727   9.4816   9.4816   9.4998   9.4998   9.7143   9.7143   9.9946
    10.0593  10.0593  10.1759  10.1759  10.2461  10.2461  10.3374  10.4080
    12.2294  12.3758  12.5474  12.5474  12.6640  12.6640  13.9448  13.9448
    13.9732  13.9732  14.0007  14.0007  14.0069  14.0069  14.0215  14.0215
    14.0234  14.0234  14.3648  14.3648  14.3938  14.4634  14.4637  14.5501
    14.5501  14.6104  14.6104  14.6154  14.6182  15.0989  15.2992  15.2992
    15.3436  15.4900  16.2948  16.2948  16.4909  16.8975  17.1086  17.1087

          k = 0.0000 0.0000 0.1236 ( 34369 PWs)   bands (ev):

   -46.1088 -46.1080 -46.1078 -46.1078 -46.1070 -46.1070 -46.1068 -46.1059
   -22.4420 -22.4385 -22.4385 -22.4359 -22.3975 -22.3952 -22.3952 -22.3931
   -22.3895 -22.3895 -22.3865 -22.3865 -22.3860 -22.3860 -22.3839 -22.3839
   -22.3354 -22.3354 -22.3337 -22.3337 -22.3333 -22.3333 -22.3317 -22.3317
   -14.4537 -14.3506 -14.3343 -14.3342 -14.2701 -14.2700 -14.2571 -14.2013
    -6.7552  -6.7552  -6.7091  -6.5296  -6.2344  -6.1808  -6.1808  -5.9062
    -5.8873  -5.8873  -5.8419  -5.8419  -5.8089  -5.7792  -5.7558  -5.7372
    -5.7372  -5.7372  -5.7372  -5.6848  -5.5822  -5.5822  -5.5225  -5.5225
    -0.3305  -0.3305  -0.2593   0.2725   0.2725   0.3305   0.3305   0.3753
     0.3754   0.3801   0.3801   0.3821   0.5216   0.5216   0.5248   0.5248
     0.5564   0.5564   0.6898   0.7347   0.7347   0.7440   0.7440   0.7899
     5.9459   6.0780   6.1357   6.1357   6.3348   6.3348   6.3947   6.3991
     6.3991   6.4191   6.5810   6.5892   6.5892   6.5956   6.6018   7.5282
     7.5282   7.5755   7.5755   7.6139   7.6139   7.6480   7.6480   7.6589
     7.6589   7.7668   7.7668   7.8962   7.8962   7.8980   7.9198   7.9198
     7.9809   8.0745   8.0745   8.3982   8.3982   8.4790   8.5006   8.5043
     8.5048   8.5048   8.5171   8.5171   8.7089   8.7090   8.9070   8.9070
     9.0061   9.0061   9.1928   9.3091   9.3092   9.3962   9.3962   9.4190
     9.4190   9.4449   9.4449   9.4610   9.4610   9.7260   9.7260   9.9064
    10.0456  10.0456  10.1543  10.1543  10.2003  10.2003  10.3400  10.4053
    12.2347  12.3699  12.6119  12.6119  12.7220  12.7220  13.9460  13.9460
    13.9562  13.9562  13.9722  13.9722  13.9728  13.9728  14.0031  14.0031
    14.0433  14.0433  14.3389  14.3389  14.4019  14.4633  14.4633  14.5833
    14.5833  14.6093  14.6280  14.6280  14.7198  15.2216  15.2941  15.2941
    15.4181  15.5637  16.3398  16.3398  16.4380  16.8952  17.2046  17.2494

          k = 0.0000 0.0000 0.2473 ( 34273 PWs)   bands (ev):

   -46.1087 -46.1081 -46.1077 -46.1077 -46.1071 -46.1071 -46.1067 -46.1060
   -22.4368 -22.4334 -22.4334 -22.4309 -22.4027 -22.4003 -22.4003 -22.3982
   -22.3891 -22.3891 -22.3868 -22.3868 -22.3858 -22.3858 -22.3841 -22.3841
   -22.3352 -22.3352 -22.3339 -22.3339 -22.3331 -22.3331 -22.3318 -22.3318
   -14.4419 -14.3630 -14.3269 -14.3268 -14.2777 -14.2777 -14.2507 -14.2079
    -6.7006  -6.7006  -6.6745  -6.5302  -6.2751  -6.2751  -6.1813  -5.9052
    -5.8572  -5.8572  -5.8365  -5.8365  -5.8153  -5.8055  -5.7827  -5.7288
    -5.7199  -5.7199  -5.7118  -5.7118  -5.6014  -5.6014  -5.5474  -5.5474
    -0.2629  -0.2629  -0.1642   0.1979   0.1979   0.3751   0.3751   0.3892
     0.3892   0.3961   0.3961   0.4307   0.5033   0.5033   0.5044   0.5044
     0.5573   0.5763   0.5763   0.6916   0.6916   0.7127   0.7127   0.7425
     6.0024   6.0796   6.2094   6.2094   6.3801   6.3801   6.4535   6.4535
     6.5699   6.5827   6.5940   6.6129   6.6984   6.6984   6.7465   7.5355
     7.5355   7.5548   7.5548   7.5592   7.5592   7.5714   7.5715   7.7118
     7.7118   7.7121   7.7121   7.7402   7.7838   7.8502   7.8502   7.9078
     7.9078   8.0406   8.0406   8.2079   8.4236   8.4236   8.4390   8.4390
     8.5519   8.6180   8.6180   8.6272   8.7637   8.7637   8.8934   8.8934
     9.0956   9.2183   9.2183   9.2260   9.2260   9.2852   9.2852   9.3507
     9.3507   9.3701   9.3701   9.4594   9.4594   9.6785   9.7600   9.7600
    10.0059  10.0059  10.0753  10.0753  10.0862  10.0862  10.3476  10.3976
    12.2500  12.3534  12.7889  12.7889  12.8826  12.8826  13.8106  13.8106
    13.8342  13.8342  13.9494  13.9494  13.9694  13.9694  14.0149  14.0149
    14.1006  14.1006  14.2712  14.2712  14.4254  14.4625  14.4629  14.5099
    14.5099  14.5841  14.8135  14.8135  14.9925  15.2758  15.2758  15.5496
    15.6290  15.7781  16.2829  16.4838  16.4838  16.8644  17.0281  17.4501

          k = 0.0000 0.0000 0.3709 ( 34312 PWs)   bands (ev):

   -46.1086 -46.1082 -46.1075 -46.1075 -46.1072 -46.1072 -46.1065 -46.1062
   -22.4290 -22.4259 -22.4259 -22.4234 -22.4106 -22.4080 -22.4080 -22.4057
   -22.3886 -22.3886 -22.3874 -22.3874 -22.3854 -22.3854 -22.3845 -22.3845
   -22.3349 -22.3349 -22.3342 -22.3342 -22.3328 -22.3328 -22.3321 -22.3321
   -14.4240 -14.3813 -14.3157 -14.3157 -14.2891 -14.2891 -14.2409 -14.2178
    -6.6265  -6.6156  -6.6156  -6.5443  -6.3904  -6.3904  -6.1005  -5.9026
    -5.8882  -5.8369  -5.8369  -5.8308  -5.8308  -5.8003  -5.7886  -5.7880
    -5.6937  -5.6937  -5.6738  -5.6738  -5.6296  -5.6296  -5.5849  -5.5848
    -0.1605  -0.1605  -0.0155   0.0886   0.0886   0.3724   0.4117   0.4117
     0.4203   0.4203   0.4438   0.4438   0.4732   0.4733   0.4789   0.4789
     0.5028   0.6067   0.6067   0.6152   0.6152   0.6715   0.6804   0.6804
     6.0486   6.0792   6.2752   6.2752   6.3533   6.3533   6.5853   6.5914
     6.6456   6.6456   6.8372   6.8902   6.9052   6.9052   7.0140   7.2114
     7.2114   7.4119   7.4119   7.4941   7.4979   7.5455   7.5455   7.5648
     7.5648   7.7790   7.7790   7.8025   7.8025   7.8068   7.8825   7.8825
     7.9769   7.9769   7.9819   7.9819   8.2868   8.2868   8.5105   8.5105
     8.6654   8.7508   8.7508   8.7885   8.7885   8.8281   8.8518   8.8518
     8.9582   9.0954   9.0954   9.1849   9.1850   9.1908   9.1908   9.2729
     9.2729   9.3852   9.5273   9.5273   9.5697   9.5697   9.8128   9.8128
     9.9034   9.9034   9.9465   9.9465   9.9628   9.9628  10.3590  10.3860
    12.2732  12.3291  13.0398  13.0398  13.1126  13.1126  13.5891  13.5891
    13.6246  13.6246  13.9543  13.9543  13.9651  13.9651  14.0460  14.0460
    14.1844  14.1844  14.1881  14.1881  14.4076  14.4076  14.4608  14.4620
    14.4624  14.5468  15.0087  15.0087  15.2336  15.2336  15.3490  15.9433
    15.9873  16.0352  16.1139  16.6964  16.7291  16.7375  16.7375  17.0074

          k = 0.0000 0.0000-0.4946 ( 34352 PWs)   bands (ev):

   -46.1084 -46.1084 -46.1074 -46.1074 -46.1074 -46.1074 -46.1063 -46.1063
   -22.4198 -22.4198 -22.4169 -22.4169 -22.4169 -22.4169 -22.4146 -22.4146
   -22.3880 -22.3880 -22.3880 -22.3880 -22.3850 -22.3850 -22.3849 -22.3849
   -22.3345 -22.3345 -22.3345 -22.3345 -22.3325 -22.3325 -22.3325 -22.3325
   -14.4028 -14.4028 -14.3025 -14.3025 -14.3024 -14.3024 -14.2294 -14.2293
    -6.5785  -6.5784  -6.5085  -6.5085  -6.5084  -6.5084  -6.0029  -6.0028
    -5.8472  -5.8471  -5.8293  -5.8293  -5.8292  -5.8292  -5.7942  -5.7941
    -5.6621  -5.6621  -5.6620  -5.6620  -5.6293  -5.6293  -5.6292  -5.6292
    -0.0375  -0.0375  -0.0374  -0.0374   0.1711   0.1712   0.4408   0.4409
     0.4409   0.4410   0.4493   0.4493   0.4494   0.4494   0.5279   0.5279
     0.5279   0.5279   0.5874   0.5875   0.6431   0.6431   0.6432   0.6432
     6.0716   6.0718   6.3200   6.3200   6.3201   6.3201   6.5883   6.5884
     6.9022   6.9022   6.9024   6.9024   7.1608   7.1610   7.1706   7.1706
     7.1707   7.1707   7.2011   7.2011   7.3852   7.3854   7.5557   7.5557
     7.5559   7.5559   7.8394   7.8394   7.8395   7.8395   7.8990   7.8990
     7.8991   7.8991   8.1297   8.1297   8.1298   8.1298   8.6159   8.6159
     8.6160   8.6160   8.8068   8.8070   8.9666   8.9666   8.9666   8.9666
     8.9877   8.9877   8.9878   8.9878   9.0886   9.0887   9.1954   9.1954
     9.1955   9.1955   9.7238   9.7238   9.7239   9.7239   9.7766   9.7766
     9.7767   9.7767   9.8782   9.8782   9.8783   9.8783  10.3723  10.3725
    12.3009  12.3010  13.3202  13.3202  13.3203  13.3203  13.3726  13.3726
    13.3727  13.3727  13.9598  13.9598  13.9598  13.9598  14.1035  14.1036
    14.1036  14.1036  14.2950  14.2950  14.2950  14.2950  14.4620  14.4620
    14.5034  14.5034  15.1506  15.1506  15.1506  15.1506  15.7135  15.7136
    16.3162  16.3164  16.4197  16.4199  16.5393  16.5395  17.0757  17.0757

          k = 0.0000 0.1250 0.0000 ( 34324 PWs)   bands (ev):

   -46.1088 -46.1079 -46.1078 -46.1078 -46.1070 -46.1069 -46.1068 -46.1059
   -22.4437 -22.4404 -22.4402 -22.4377 -22.3955 -22.3935 -22.3933 -22.3915
   -22.3894 -22.3875 -22.3863 -22.3862 -22.3844 -22.3841 -22.3839 -22.3818
   -22.3375 -22.3356 -22.3354 -22.3354 -22.3336 -22.3335 -22.3334 -22.3317
   -14.4534 -14.3433 -14.3416 -14.3340 -14.2704 -14.2648 -14.2624 -14.2016
    -6.7606  -6.7562  -6.7028  -6.5331  -6.2759  -6.1685  -6.1200  -5.9018
    -5.8992  -5.8970  -5.8455  -5.8392  -5.8087  -5.7744  -5.7448  -5.7418
    -5.7413  -5.7401  -5.7342  -5.6776  -5.5983  -5.5823  -5.5320  -5.5223
    -0.3300  -0.3225  -0.2650   0.2878   0.3063   0.3148   0.3214   0.3432
     0.3710   0.3809   0.3855   0.3898   0.5176   0.5258   0.5275   0.5354
     0.5424   0.5501   0.6910   0.7302   0.7338   0.7432   0.7482   0.7882
     5.9480   6.1024   6.1117   6.1334   6.3199   6.3279   6.3668   6.3904
     6.3977   6.4666   6.5588   6.5646   6.6091   6.6115   6.6317   7.5467
     7.5532   7.5693   7.6020   7.6029   7.6275   7.6329   7.6364   7.6463
     7.6674   7.7349   7.7544   7.8664   7.9190   7.9529   8.0109   8.0262
     8.0347   8.0487   8.0753   8.1209   8.1865   8.3509   8.4953   8.5027
     8.5565   8.5801   8.6368   8.6849   8.7216   8.7347   8.8150   8.9289
     8.9842   9.0134   9.1883   9.2094   9.3403   9.3539   9.3638   9.4319
     9.4800   9.4944   9.5011   9.5231   9.5401   9.6403   9.6590   9.8876
    10.0159  10.0709  10.1536  10.1785  10.2049  10.2428  10.3137  10.3633
    12.3140  12.4519  12.5528  12.5779  12.6588  12.6919  13.8897  13.9196
    13.9375  13.9494  13.9598  13.9923  13.9943  14.0020  14.0073  14.0208
    14.0223  14.0302  14.3341  14.3641  14.3741  14.5340  14.5544  14.5567
    14.5792  14.5850  14.6033  14.6320  14.6676  15.1082  15.2930  15.4212
    15.4281  15.5664  16.2553  16.3498  16.5374  16.9364  17.1633  17.2066

          k = 0.0000 0.1250 0.1236 ( 34335 PWs)   bands (ev):

   -46.1088 -46.1079 -46.1078 -46.1077 -46.1070 -46.1069 -46.1068 -46.1060
   -22.4419 -22.4386 -22.4384 -22.4360 -22.3974 -22.3953 -22.3951 -22.3932
   -22.3893 -22.3874 -22.3864 -22.3861 -22.3845 -22.3840 -22.3840 -22.3819
   -22.3375 -22.3357 -22.3353 -22.3353 -22.3337 -22.3336 -22.3334 -22.3317
   -14.4493 -14.3476 -14.3389 -14.3314 -14.2732 -14.2675 -14.2601 -14.2039
    -6.7423  -6.7373  -6.6907  -6.5306  -6.2574  -6.2016  -6.1617  -5.9039
    -5.8858  -5.8804  -5.8436  -5.8369  -5.8074  -5.7758  -5.7655  -5.7391
    -5.7329  -5.7316  -5.7287  -5.6935  -5.6022  -5.5884  -5.5405  -5.5304
    -0.3094  -0.3068  -0.2236   0.2783   0.2886   0.3036   0.3303   0.3459
     0.3690   0.3865   0.3955   0.4127   0.5009   0.5108   0.5169   0.5292
     0.5493   0.5734   0.6865   0.6885   0.7243   0.7260   0.7328   0.7745
     5.9761   6.1125   6.1358   6.1689   6.3606   6.3883   6.3909   6.4024
     6.4555   6.4589   6.5894   6.5996   6.6120   6.6366   6.6369   7.5484
     7.5558   7.5631   7.6015   7.6203   7.6287   7.6297   7.6503   7.6547
     7.6860   7.7641   7.7811   7.8299   7.8570   7.9172   7.9343   7.9347
     7.9490   8.0296   8.0651   8.0665   8.1806   8.3638   8.5225   8.5253
     8.5277   8.5375   8.5981   8.7399   8.8298   8.8320   8.9166   8.9228
     8.9631   8.9703   9.1457   9.2013   9.3306   9.3635   9.3732   9.3752
     9.4433   9.4669   9.4754   9.4853   9.4879   9.6543   9.6709   9.8247
    10.0014  10.0352  10.1342  10.1561  10.1598  10.1959  10.3157  10.3641
    12.3189  12.4464  12.6170  12.6374  12.7169  12.7491  13.8910  13.9174
    13.9408  13.9418  13.9514  13.9567  13.9732  13.9815  13.9818  13.9928
    14.0052  14.0416  14.3066  14.3482  14.3722  14.5444  14.5509  14.5564
    14.5696  14.5825  14.6316  14.7145  14.7619  15.2306  15.2879  15.4240
    15.4938  15.6395  16.3001  16.3896  16.4842  16.9460  17.2427  17.2981

          k = 0.0000 0.1250 0.2473 ( 34329 PWs)   bands (ev):

   -46.1087 -46.1080 -46.1077 -46.1076 -46.1071 -46.1070 -46.1067 -46.1061
   -22.4367 -22.4336 -22.4333 -22.4310 -22.4026 -22.4004 -22.4002 -22.3983
   -22.3890 -22.3871 -22.3867 -22.3859 -22.3848 -22.3842 -22.3838 -22.3821
   -22.3373 -22.3359 -22.3351 -22.3351 -22.3339 -22.3338 -22.3332 -22.3319
   -14.4376 -14.3598 -14.3313 -14.3240 -14.2810 -14.2751 -14.2536 -14.2106
    -6.6890  -6.6827  -6.6577  -6.5285  -6.2842  -6.2567  -6.2041  -5.9044
    -5.8634  -5.8500  -5.8388  -5.8312  -5.8300  -5.8037  -5.7797  -5.7366
    -5.7225  -5.7130  -5.7105  -5.7076  -5.6158  -5.6056  -5.5644  -5.5536
    -0.2568  -0.2402  -0.1185   0.1999   0.2149   0.3490   0.3534   0.3546
     0.3788   0.4026   0.4273   0.4626   0.4638   0.4914   0.4922   0.5118
     0.5665   0.5691   0.6019   0.6710   0.6809   0.6893   0.7043   0.7352
     6.0358   6.1142   6.2090   6.2489   6.3729   6.4383   6.4817   6.5085
     6.5619   6.6136   6.6229   6.6363   6.6988   6.7371   6.7509   7.5257
     7.5342   7.5345   7.5531   7.5628   7.5976   7.6052   7.6397   7.6732
     7.6930   7.6978   7.7139   7.7341   7.7575   7.8478   7.8558   7.9099
     7.9107   7.9898   8.0335   8.1557   8.1915   8.2400   8.4039   8.4272
     8.6137   8.6450   8.6503   8.7809   8.7942   8.8580   8.8855   8.8944
     9.0382   9.1523   9.1774   9.2198   9.2416   9.2561   9.3610   9.3665
     9.3891   9.3938   9.4233   9.4337   9.4348   9.6327   9.6944   9.7058
     9.9597   9.9725  10.0367  10.0720  10.0720  10.0853  10.3215  10.3609
    12.3331  12.4308  12.7933  12.8029  12.8779  12.9070  13.7970  13.8114
    13.8305  13.8441  13.8946  13.9179  13.9550  13.9570  13.9883  14.0188
    14.0432  14.0974  14.2338  14.2802  14.3954  14.4742  14.5000  14.5508
    14.5538  14.5556  14.8153  14.9129  15.0298  15.2697  15.4071  15.5584
    15.6991  15.8524  16.3282  16.4438  16.5193  16.9196  17.0707  17.5211

          k = 0.0000 0.1250 0.3709 ( 34317 PWs)   bands (ev):

   -46.1085 -46.1082 -46.1076 -46.1075 -46.1072 -46.1072 -46.1066 -46.1062
   -22.4289 -22.4260 -22.4258 -22.4235 -22.4105 -22.4081 -22.4079 -22.4058
   -22.3885 -22.3873 -22.3866 -22.3855 -22.3854 -22.3846 -22.3834 -22.3825
   -22.3369 -22.3362 -22.3348 -22.3348 -22.3341 -22.3341 -22.3329 -22.3322
   -14.4200 -14.3779 -14.3199 -14.3129 -14.2927 -14.2864 -14.2438 -14.2205
    -6.6123  -6.6063  -6.5977  -6.5384  -6.3909  -6.3724  -6.1227  -5.9212
    -5.8900  -5.8444  -5.8344  -5.8300  -5.8250  -5.7981  -5.7965  -5.7839
    -5.6976  -5.6891  -5.6786  -5.6719  -5.6391  -5.6310  -5.5997  -5.5885
    -0.1635  -0.1392   0.0313   0.0860   0.1068   0.3708   0.3843   0.3973
     0.4012   0.4190   0.4270   0.4272   0.4577   0.4632   0.4817   0.4861
     0.5291   0.5932   0.5992   0.6252   0.6277   0.6680   0.6723   0.6755
     6.0837   6.1141   6.2733   6.3220   6.3476   6.4091   6.6161   6.6217
     6.6758   6.6826   6.8262   6.8958   6.9069   6.9339   7.0108   7.2089
     7.2321   7.4104   7.4420   7.4670   7.4733   7.5598   7.5724   7.5794
     7.5912   7.6902   7.7525   7.7937   7.8037   7.8853   7.8930   7.9106
     7.9266   7.9634   7.9753   7.9778   8.1638   8.2864   8.2883   8.4747
     8.6112   8.7153   8.7298   8.7515   8.7942   8.8814   8.9220   8.9608
     8.9841   9.0517   9.1088   9.1212   9.1908   9.2457   9.2659   9.3034
     9.3268   9.3777   9.5169   9.5405   9.5548   9.5553   9.7555   9.7601
     9.8675   9.8980   9.9009   9.9037   9.9581   9.9583  10.3305  10.3524
    12.3549  12.4078  13.0420  13.0432  13.1086  13.1330  13.5777  13.5906
    13.6216  13.6369  13.9000  13.9121  13.9647  13.9815  13.9899  14.0520
    14.1363  14.1402  14.1829  14.1929  14.3674  14.3988  14.4306  14.5162
    14.5527  14.5547  15.0079  15.1243  15.2281  15.3649  15.3877  15.9989
    16.0054  16.0790  16.1867  16.6971  16.7429  16.7554  16.7686  17.0784

          k = 0.0000 0.1250-0.4946 ( 34338 PWs)   bands (ev):

   -46.1084 -46.1084 -46.1074 -46.1074 -46.1073 -46.1073 -46.1064 -46.1064
   -22.4197 -22.4197 -22.4170 -22.4170 -22.4168 -22.4168 -22.4147 -22.4147
   -22.3879 -22.3878 -22.3860 -22.3859 -22.3851 -22.3850 -22.3830 -22.3829
   -22.3366 -22.3366 -22.3345 -22.3345 -22.3345 -22.3344 -22.3326 -22.3325
   -14.3991 -14.3990 -14.3064 -14.3063 -14.2997 -14.2997 -14.2323 -14.2322
    -6.5681  -6.5680  -6.5032  -6.5030  -6.4906  -6.4904  -6.0239  -6.0238
    -5.8520  -5.8519  -5.8349  -5.8348  -5.8230  -5.8229  -5.7915  -5.7914
    -5.6682  -5.6680  -5.6604  -5.6603  -5.6401  -5.6400  -5.6301  -5.6300
    -0.0427  -0.0426  -0.0177  -0.0176   0.2100   0.2101   0.3952   0.3953
     0.4200   0.4200   0.4312   0.4312   0.4563   0.4563   0.5045   0.5045
     0.5517   0.5518   0.6034   0.6035   0.6353   0.6353   0.6500   0.6500
     6.1069   6.1070   6.3161   6.3162   6.3722   6.3723   6.6190   6.6190
     6.9192   6.9193   6.9306   6.9307   7.1455   7.1456   7.1734   7.1735
     7.1879   7.1879   7.1956   7.1958   7.3692   7.3693   7.5678   7.5680
     7.5824   7.5825   7.8430   7.8431   7.8469   7.8470   7.8666   7.8666
     7.8981   7.8982   8.0780   8.0781   8.1293   8.1295   8.4420   8.4420
     8.5800   8.5801   8.8233   8.8233   8.9110   8.9111   8.9528   8.9529
     8.9945   8.9946   9.0888   9.0889   9.1458   9.1458   9.2269   9.2270
     9.2438   9.2439   9.6910   9.6910   9.7179   9.7179   9.7684   9.7684
     9.7846   9.7846   9.8274   9.8275   9.8286   9.8287  10.3413  10.3415
    12.3810  12.3811  13.3138  13.3139  13.3226  13.3227  13.3692  13.3693
    13.3886  13.3887  13.9060  13.9061  13.9732  13.9733  14.0529  14.0529
    14.1112  14.1113  14.2491  14.2492  14.2878  14.2879  14.4730  14.4730
    14.5537  14.5537  15.1470  15.1470  15.2775  15.2775  15.7549  15.7550
    16.3696  16.3699  16.4406  16.4408  16.6109  16.6111  17.0341  17.0343

          k = 0.0000 0.2500 0.0000 ( 34366 PWs)   bands (ev):

   -46.1087 -46.1080 -46.1078 -46.1077 -46.1071 -46.1069 -46.1068 -46.1061
   -22.4433 -22.4408 -22.4399 -22.4380 -22.3953 -22.3938 -22.3931 -22.3917
   -22.3891 -22.3866 -22.3860 -22.3842 -22.3817 -22.3787 -22.3784 -22.3762
   -22.3434 -22.3414 -22.3411 -22.3393 -22.3352 -22.3337 -22.3333 -22.3319
   -14.4406 -14.3550 -14.3349 -14.3257 -14.2791 -14.2710 -14.2575 -14.2091
    -6.7235  -6.7048  -6.6481  -6.5432  -6.3393  -6.2443  -6.0627  -5.8927
    -5.8814  -5.8720  -5.8497  -5.8255  -5.8000  -5.7649  -5.7621  -5.7514
    -5.7333  -5.7225  -5.7089  -5.7029  -5.6626  -5.6018  -5.5821  -5.5466
    -0.2610  -0.2350  -0.1832   0.2112   0.2658   0.3277   0.3401   0.3606
     0.3883   0.3990   0.4286   0.4327   0.4899   0.4984   0.5068   0.5226
     0.5510   0.5575   0.5681   0.6886   0.7069   0.7077   0.7092   0.7369
     6.0098   6.1022   6.1889   6.1957   6.3125   6.3754   6.4111   6.5127
     6.5594   6.5661   6.5662   6.6396   6.7214   6.7642   6.7693   7.4623
     7.5409   7.5971   7.6237   7.6308   7.6343   7.6345   7.6693   7.6758
     7.7080   7.7080   7.7371   7.7380   7.7496   7.7976   7.8231   7.9049
     7.9460   8.0174   8.0427   8.1669   8.2047   8.2549   8.2939   8.5773
     8.5970   8.6093   8.6872   8.6931   8.8014   8.8115   8.8318   8.9186
     8.9676   9.1381   9.1824   9.2385   9.3020   9.3033   9.3231   9.4202
     9.4240   9.4740   9.5145   9.5239   9.5542   9.5580   9.5944   9.6823
     9.9077  10.0079  10.0832  10.0930  10.1860  10.2218  10.2391  10.2518
    12.5156  12.5900  12.6438  12.6560  12.6990  12.7986  13.7306  13.7619
    13.7656  13.7857  13.9665  13.9808  14.0064  14.0085  14.0190  14.0191
    14.0553  14.0684  14.2541  14.2854  14.4006  14.4952  14.5022  14.5626
    14.5688  14.5759  14.7630  14.8126  14.9356  15.1240  15.2705  15.6450
    15.7640  15.7847  16.1346  16.5229  16.6811  16.9824  17.1477  17.3525

          k = 0.0000 0.2500 0.1236 ( 34367 PWs)   bands (ev):

   -46.1087 -46.1079 -46.1078 -46.1076 -46.1071 -46.1069 -46.1068 -46.1061
   -22.4415 -22.4390 -22.4381 -22.4362 -22.3971 -22.3956 -22.3949 -22.3935
   -22.3889 -22.3865 -22.3861 -22.3842 -22.3816 -22.3788 -22.3783 -22.3763
   -22.3434 -22.3415 -22.3411 -22.3394 -22.3351 -22.3336 -22.3334 -22.3319
   -14.4366 -14.3522 -14.3391 -14.3232 -14.2821 -14.2686 -14.2601 -14.2115
    -6.7064  -6.6860  -6.6377  -6.5382  -6.3206  -6.2626  -6.1072  -5.8958
    -5.8732  -5.8602  -5.8485  -5.8230  -5.7989  -5.7957  -5.7671  -5.7462
    -5.7265  -5.7173  -5.7155  -5.7049  -5.6560  -5.6060  -5.5898  -5.5530
    -0.2431  -0.2388  -0.1256   0.2277   0.2628   0.2958   0.3353   0.3395
     0.3755   0.4048   0.4444   0.4590   0.4617   0.4812   0.4948   0.5294
     0.5512   0.5628   0.5970   0.6688   0.6769   0.7004   0.7017   0.7308
     6.0413   6.1356   6.1893   6.2386   6.3695   6.3714   6.4492   6.5642
     6.5895   6.5899   6.5981   6.6303   6.7223   6.7719   6.7868   7.4784
     7.5333   7.5944   7.6140   7.6272   7.6385   7.6441   7.6572   7.6730
     7.6741   7.6745   7.7616   7.7655   7.7700   7.7882   7.8175   7.9077
     7.9351   7.9710   8.0346   8.0401   8.0729   8.2672   8.3141   8.5415
     8.5888   8.6327   8.6350   8.7508   8.8293   8.8589   8.8761   8.9186
     8.9514   9.1696   9.1767   9.2547   9.2715   9.2973   9.3174   9.3928
     9.4415   9.4740   9.5031   9.5116   9.5255   9.5273   9.5687   9.6347
     9.8907   9.9702  10.0498  10.0699  10.1612  10.1741  10.2392  10.2591
    12.5303  12.6426  12.6513  12.7025  12.7451  12.8521  13.7322  13.7632
    13.7677  13.8121  13.9303  13.9581  13.9706  13.9710  14.0114  14.0213
    14.0369  14.0523  14.2215  14.2933  14.3747  14.4638  14.4929  14.5494
    14.6239  14.6385  14.7627  14.9072  14.9874  15.2457  15.2656  15.7121
    15.7622  15.8564  16.1788  16.5491  16.6274  17.0201  17.1819  17.3787

          k = 0.0000 0.2500 0.2473 ( 34341 PWs)   bands (ev):

   -46.1086 -46.1079 -46.1078 -46.1075 -46.1072 -46.1069 -46.1068 -46.1062
   -22.4363 -22.4339 -22.4331 -22.4313 -22.4024 -22.4007 -22.4000 -22.3985
   -22.3886 -22.3864 -22.3863 -22.3845 -22.3813 -22.3791 -22.3781 -22.3765
   -22.3431 -22.3417 -22.3409 -22.3396 -22.3349 -22.3336 -22.3334 -22.3321
   -14.4254 -14.3507 -14.3441 -14.3159 -14.2904 -14.2676 -14.2620 -14.2183
    -6.6571  -6.6313  -6.6096  -6.5282  -6.3159  -6.2669  -6.2044  -5.9003
    -5.8740  -5.8708  -5.8459  -5.8289  -5.8164  -5.7954  -5.7772  -5.7525
    -5.7314  -5.7110  -5.6958  -5.6934  -5.6538  -5.6177  -5.6107  -5.5714
    -0.2167  -0.1749  -0.0089   0.2090   0.2599   0.2640   0.2755   0.3439
     0.3677   0.3965   0.4213   0.4581   0.4638   0.4842   0.5150   0.5333
     0.5487   0.5893   0.5910   0.6130   0.6304   0.6792   0.6805   0.7115
     6.1076   6.1901   6.2077   6.3422   6.3541   6.5402   6.5642   6.6045
     6.6614   6.6904   6.7004   6.7084   6.7248   6.8042   6.8683   7.4285
     7.5083   7.5249   7.5411   7.5625   7.5877   7.6254   7.6354   7.6537
     7.6652   7.6707   7.7198   7.7741   7.7920   7.8484   7.8639   7.8700
     7.8755   7.9131   7.9141   8.0086   8.0092   8.3057   8.3206   8.3703
     8.4415   8.5824   8.7092   8.7224   8.7644   8.7931   8.8821   9.1301
     9.1429   9.1518   9.1732   9.1928   9.2996   9.3092   9.3682   9.3684
     9.3697   9.4337   9.4494   9.4762   9.4877   9.4990   9.5649   9.5754
     9.8432   9.9023   9.9321  10.0254  10.0597  10.0837  10.2400  10.2588
    12.5496  12.6377  12.8094  12.8648  12.8785  13.0001  13.7368  13.7508
    13.7874  13.7890  13.8140  13.8395  13.8856  13.8878  13.9817  14.0301
    14.0434  14.0883  14.1351  14.3060  14.3160  14.3783  14.4610  14.4835
    14.7027  14.7614  14.8179  15.1426  15.1897  15.2480  15.5732  15.7493
    15.9010  16.0669  16.3215  16.4696  16.6389  17.0270  17.1906  17.2803

          k = 0.0000 0.2500 0.3709 ( 34337 PWs)   bands (ev):

   -46.1084 -46.1081 -46.1077 -46.1074 -46.1074 -46.1071 -46.1067 -46.1063
   -22.4286 -22.4263 -22.4255 -22.4238 -22.4102 -22.4084 -22.4076 -22.4061
   -22.3881 -22.3869 -22.3859 -22.3849 -22.3808 -22.3796 -22.3777 -22.3769
   -22.3428 -22.3420 -22.3406 -22.3399 -22.3346 -22.3339 -22.3331 -22.3324
   -14.4085 -14.3681 -14.3319 -14.3049 -14.3029 -14.2788 -14.2521 -14.2284
    -6.5818  -6.5728  -6.5461  -6.5255  -6.3967  -6.3207  -6.1842  -5.9746
    -5.8936  -5.8610  -5.8452  -5.8177  -5.8100  -5.8088  -5.7894  -5.7722
    -5.7098  -5.6918  -5.6762  -5.6666  -5.6650  -5.6393  -5.6352  -5.5992
    -0.1447  -0.0778   0.0893   0.1391   0.1595   0.2681   0.3383   0.3491
     0.3597   0.3758   0.4247   0.4275   0.4463   0.4579   0.5069   0.5317
     0.5367   0.5743   0.5780   0.6213   0.6422   0.6461   0.6493   0.6779
     6.1590   6.1894   6.2683   6.3329   6.4453   6.5666   6.7284   6.7305
     6.7540   6.7854   6.7954   6.9123   6.9173   7.0070   7.0382   7.1859
     7.2844   7.3811   7.4055   7.4106   7.5403   7.5803   7.5889   7.5972
     7.6071   7.6457   7.6643   7.7814   7.8063   7.8289   7.8896   7.9205
     7.9347   7.9630   7.9766   8.0031   8.0109   8.0351   8.2970   8.3755
     8.3894   8.4516   8.6201   8.6549   8.8126   8.8262   8.9664   9.0003
     9.1352   9.1899   9.1954   9.2012   9.2701   9.2916   9.3188   9.3550
     9.3735   9.4067   9.4636   9.4924   9.5191   9.6205   9.6236   9.6658
     9.7705   9.7742   9.8344   9.8950   9.9390   9.9472  10.2425  10.2533
    12.5706  12.6176  13.0541  13.0824  13.0971  13.2121  13.5751  13.5950
    13.6088  13.6890  13.7437  13.7641  13.8359  13.9943  13.9968  14.0227
    14.0299  14.0692  14.1679  14.2174  14.2581  14.3505  14.3728  14.4355
    14.7379  14.7584  15.0029  15.2091  15.4061  15.5247  15.7055  16.0184
    16.1826  16.2173  16.3994  16.5743  16.8197  16.8448  16.8736  17.2896

          k = 0.0000 0.2500-0.4946 ( 34318 PWs)   bands (ev):

   -46.1082 -46.1082 -46.1075 -46.1075 -46.1072 -46.1072 -46.1065 -46.1065
   -22.4194 -22.4194 -22.4174 -22.4174 -22.4166 -22.4166 -22.4149 -22.4149
   -22.3875 -22.3875 -22.3854 -22.3854 -22.3802 -22.3802 -22.3773 -22.3773
   -22.3424 -22.3424 -22.3402 -22.3402 -22.3342 -22.3342 -22.3328 -22.3328
   -14.3884 -14.3884 -14.3175 -14.3174 -14.2919 -14.2919 -14.2403 -14.2402
    -6.5409  -6.5407  -6.4906  -6.4904  -6.4390  -6.4389  -6.0827  -6.0826
    -5.8650  -5.8649  -5.8503  -5.8502  -5.8049  -5.8048  -5.7816  -5.7815
    -5.6858  -5.6857  -5.6681  -5.6680  -5.6558  -5.6557  -5.6327  -5.6325
    -0.0367  -0.0367   0.0393   0.0394   0.2939   0.2940   0.3011   0.3012
     0.3877   0.3877   0.3975   0.3976   0.4387   0.4388   0.4763   0.4764
     0.5923   0.5923   0.6132   0.6133   0.6308   0.6308   0.6422   0.6422
     6.1823   6.1824   6.3063   6.3064   6.5167   6.5168   6.7318   6.7319
     6.9626   6.9627   7.0024   7.0025   7.1000   7.1001   7.1543   7.1544
     7.1823   7.1825   7.2849   7.2851   7.3329   7.3330   7.5773   7.5774
     7.6557   7.6558   7.6866   7.6867   7.8625   7.8625   7.8935   7.8937
     7.9338   7.9338   7.9848   7.9849   8.1334   8.1336   8.1931   8.1932
     8.4821   8.4822   8.5456   8.5456   8.8932   8.8933   8.9801   8.9802
     9.0749   9.0750   9.2331   9.2331   9.2795   9.2795   9.2880   9.2880
     9.3226   9.3227   9.6033   9.6033   9.6967   9.6968   9.7044   9.7044
     9.7475   9.7475   9.7558   9.7558   9.8017   9.8017  10.2471  10.2472
    12.5941  12.5941  13.3271  13.3272  13.3298  13.3298  13.3587  13.3587
    13.4532  13.4533  13.7524  13.7524  13.9157  13.9158  14.0137  14.0137
    14.1238  14.1238  14.1331  14.1331  14.2668  14.2668  14.3921  14.3921
    14.7519  14.7519  15.1336  15.1337  15.6006  15.6006  15.8901  15.8902
    16.4776  16.4778  16.5208  16.5210  16.8225  16.8227  16.9085  16.9086

          k = 0.0000 0.3750 0.0000 ( 34338 PWs)   bands (ev):

   -46.1085 -46.1081 -46.1076 -46.1075 -46.1073 -46.1071 -46.1066 -46.1062
   -22.4427 -22.4414 -22.4394 -22.4384 -22.3949 -22.3941 -22.3928 -22.3920
   -22.3885 -22.3872 -22.3856 -22.3846 -22.3730 -22.3702 -22.3699 -22.3678
   -22.3523 -22.3500 -22.3497 -22.3478 -22.3348 -22.3340 -22.3330 -22.3322
   -14.4212 -14.3749 -14.3223 -14.3133 -14.2921 -14.2837 -14.2465 -14.2203
    -6.6708  -6.6261  -6.5698  -6.5638  -6.4293  -6.3476  -5.9756  -5.8790
    -5.8566  -5.8539  -5.8337  -5.8058  -5.7942  -5.7734  -5.7647  -5.7548
    -5.7544  -5.7383  -5.7315  -5.6958  -5.6712  -5.6513  -5.6305  -5.5833
    -0.1563  -0.1145  -0.0422   0.0989   0.1517   0.3568   0.3620   0.3701
     0.4147   0.4266   0.4315   0.4509   0.4543   0.4788   0.4934   0.4952
     0.4965   0.5911   0.5987   0.6090   0.6448   0.6622   0.6731   0.6744
     6.0617   6.0994   6.2402   6.2595   6.2919   6.3450   6.5608   6.5649
     6.5944   6.7112   6.8496   6.9025   6.9300   7.0091   7.0282   7.1632
     7.3026   7.4299   7.4648   7.5398   7.5428   7.6133   7.6213   7.6241
     7.6454   7.6649   7.7797   7.7959   7.8091   7.8504   7.8712   7.8786
     7.9286   7.9567   7.9652   7.9816   8.1149   8.1215   8.3272   8.6199
     8.6510   8.7316   8.7520   8.7618   8.7774   8.7995   8.8227   8.9372
     8.9512   9.0187   9.0865   9.1629   9.2676   9.3247   9.3341   9.3438
     9.4231   9.4236   9.5041   9.5181   9.6349   9.6477   9.6505   9.7152
     9.7730   9.8902   9.9405   9.9563  10.0625  10.1054  10.1975  10.2260
    12.5718  12.6220  12.8578  12.9236  12.9366  12.9982  13.4856  13.5064
    13.5304  13.5386  13.9953  14.0016  14.0105  14.0143  14.0163  14.0238
    14.1467  14.1492  14.1527  14.1836  14.3800  14.3887  14.4407  14.5356
    14.5692  14.5734  14.9726  14.9802  15.1230  15.2208  15.2977  15.9299
    15.9879  16.1185  16.2018  16.8028  16.8139  16.9118  16.9227  17.0227

          k = 0.0000 0.3750 0.1236 ( 34338 PWs)   bands (ev):

   -46.1085 -46.1081 -46.1077 -46.1075 -46.1073 -46.1071 -46.1067 -46.1063
   -22.4409 -22.4396 -22.4377 -22.4367 -22.3968 -22.3959 -22.3946 -22.3938
   -22.3884 -22.3871 -22.3857 -22.3847 -22.3729 -22.3703 -22.3698 -22.3678
   -22.3522 -22.3501 -22.3497 -22.3479 -22.3347 -22.3339 -22.3330 -22.3323
   -14.4176 -14.3719 -14.3261 -14.3108 -14.2953 -14.2813 -14.2491 -14.2227
    -6.6558  -6.6073  -6.5612  -6.5564  -6.4105  -6.3535  -6.0259  -5.8821
    -5.8565  -5.8509  -5.8441  -5.8276  -5.8028  -5.7739  -5.7676  -5.7603
    -5.7406  -5.7265  -5.7238  -5.6911  -5.6694  -5.6573  -5.6318  -5.5872
    -0.1355  -0.1351   0.0200   0.1167   0.1405   0.3251   0.3631   0.3880
     0.3970   0.4074   0.4115   0.4325   0.4408   0.4632   0.4999   0.5116
     0.5228   0.5845   0.5879   0.6202   0.6503   0.6617   0.6655   0.6659
     6.0953   6.1331   6.2586   6.2903   6.3406   6.3486   6.5912   6.5958
     6.6283   6.7431   6.8566   6.8898   6.9321   7.0257   7.0281   7.1885
     7.2858   7.4295   7.4398   7.5178   7.5614   7.5972   7.6247   7.6316
     7.6677   7.6799   7.7467   7.7781   7.8263   7.8614   7.8681   7.8889
     7.9102   7.9236   7.9764   7.9877   8.0474   8.1266   8.1906   8.5566
     8.5816   8.6583   8.7579   8.7637   8.7787   8.7858   8.8958   8.9682
     9.0285   9.0783   9.1074   9.1387   9.2714   9.3147   9.3390   9.3712
     9.3848   9.3960   9.4900   9.5437   9.6128   9.6184   9.6268   9.7008
     9.7525   9.8595   9.9004   9.9525  10.0536  10.1027  10.1697  10.1988
    12.6302  12.6813  12.8647  12.9326  12.9540  13.0454  13.4879  13.5164
    13.5277  13.5711  13.9527  13.9607  13.9677  14.0033  14.0296  14.0301
    14.1021  14.1138  14.1441  14.1912  14.3441  14.3801  14.4144  14.5089
    14.6417  14.6437  14.9715  15.0883  15.2165  15.2432  15.3398  15.9730
    16.0454  16.1902  16.2044  16.8255  16.8398  16.8683  16.9448  17.0975

          k = 0.0000 0.3750 0.2473 ( 34350 PWs)   bands (ev):

   -46.1084 -46.1080 -46.1078 -46.1074 -46.1074 -46.1070 -46.1067 -46.1064
   -22.4358 -22.4345 -22.4327 -22.4317 -22.4020 -22.4011 -22.3997 -22.3989
   -22.3881 -22.3868 -22.3860 -22.3850 -22.3726 -22.3706 -22.3696 -22.3681
   -22.3519 -22.3503 -22.3494 -22.3481 -22.3345 -22.3337 -22.3332 -22.3325
   -14.4070 -14.3630 -14.3371 -14.3044 -14.3036 -14.2745 -14.2564 -14.2297
    -6.6132  -6.5526  -6.5400  -6.5377  -6.3749  -6.3563  -6.1260  -5.9451
    -5.8893  -5.8627  -5.8575  -5.8021  -5.7955  -5.7947  -5.7736  -5.7478
    -5.7464  -5.7180  -5.7030  -5.6780  -5.6726  -5.6645  -5.6357  -5.5985
    -0.1319  -0.0755   0.1287   0.1368   0.1680   0.2317   0.3290   0.3396
     0.3529   0.3740   0.4166   0.4284   0.4497   0.4572   0.5186   0.5286
     0.5488   0.5659   0.5699   0.6158   0.6419   0.6456   0.6563   0.6700
     6.1656   6.2043   6.2562   6.3291   6.4242   6.5100   6.7033   6.7082
     6.7256   6.8329   6.8536   6.8814   6.9380   7.0225   7.0956   7.2247
     7.2571   7.3668   7.4280   7.4352   7.5625   7.5950   7.6068   7.6311
     7.6322   7.7104   7.7278   7.7687   7.7734   7.8635   7.8868   7.8882
     7.9101   7.9169   7.9522   7.9527   7.9598   8.0649   8.1642   8.3699
     8.4165   8.4758   8.6045   8.6463   8.8109   8.8435   9.0046   9.0183
     9.1496   9.1521   9.1685   9.2810   9.2914   9.2988   9.3010   9.3144
     9.3806   9.3954   9.4142   9.5321   9.5987   9.6082   9.6226   9.6639
     9.6960   9.7909   9.8182   9.9359  10.0109  10.0842  10.0962  10.1366
    12.7732  12.8452  12.9024  12.9212  13.0466  13.1759  13.4946  13.5187
    13.5511  13.6612  13.8164  13.8181  13.8300  13.9775  14.0089  14.0249
    14.0515  14.0742  14.1294  14.2129  14.2459  14.3448  14.3555  14.4378
    14.7796  14.8167  14.9666  15.2012  15.3689  15.4935  15.5675  16.1145
    16.1981  16.2069  16.4019  16.7080  16.8674  16.9476  16.9738  17.3093

          k = 0.0000 0.3750 0.3709 ( 34301 PWs)   bands (ev):

   -46.1083 -46.1079 -46.1079 -46.1075 -46.1072 -46.1069 -46.1068 -46.1065
   -22.4281 -22.4269 -22.4251 -22.4242 -22.4098 -22.4088 -22.4073 -22.4064
   -22.3876 -22.3865 -22.3864 -22.3854 -22.3721 -22.3710 -22.3692 -22.3684
   -22.3516 -22.3507 -22.3491 -22.3484 -22.3342 -22.3335 -22.3335 -22.3328
   -14.3912 -14.3533 -14.3497 -14.3180 -14.2929 -14.2674 -14.2643 -14.2401
    -6.5508  -6.5177  -6.5174  -6.4674  -6.4179  -6.2724  -6.2425  -6.0548
    -5.8921  -5.8724  -5.8619  -5.8448  -5.7847  -5.7793  -5.7699  -5.7544
    -5.7304  -5.7110  -5.7013  -5.6901  -5.6588  -5.6574  -5.6418  -5.6157
    -0.0846   0.0160   0.1144   0.1393   0.2405   0.2457   0.2468   0.2734
     0.3520   0.3642   0.3900   0.3922   0.4419   0.4756   0.5299   0.5332
     0.5385   0.5468   0.5907   0.6146   0.6155   0.6351   0.6498   0.6660
     6.2185   6.2520   6.2609   6.3133   6.5884   6.7495   6.7971   6.8810
     6.8934   6.9207   6.9327   6.9460   6.9636   7.0591   7.1225   7.2379
     7.2529   7.2710   7.3528   7.3579   7.3953   7.5276   7.5289   7.5431
     7.6032   7.7100   7.7356   7.7627   7.7652   7.8064   7.8650   7.8922
     7.9098   7.9194   7.9287   7.9575   8.0042   8.1569   8.1601   8.1650
     8.2363   8.3252   8.4204   8.4977   8.8543   8.8580   8.9107   9.0747
     9.0977   9.2280   9.2697   9.2840   9.2847   9.3103   9.3701   9.3770
     9.4200   9.4460   9.4600   9.4794   9.5940   9.6162   9.6217   9.6414
     9.6949   9.7016   9.7958   9.8858   9.8931   9.9367  10.0896  10.0986
    12.8542  12.9039  13.0785  13.0797  13.2006  13.3641  13.4939  13.5058
    13.6022  13.6202  13.6207  13.6333  13.7930  13.7944  13.8690  14.0520
    14.0961  14.1061  14.1070  14.1444  14.2460  14.2542  14.3145  14.3473
    14.8808  14.9551  14.9881  15.1680  15.7132  15.7793  16.0090  16.1458
    16.3677  16.4496  16.4530  16.7366  16.8259  16.9638  17.0347  17.0852

          k = 0.0000 0.3750-0.4946 ( 34322 PWs)   bands (ev):

   -46.1081 -46.1081 -46.1077 -46.1077 -46.1071 -46.1071 -46.1067 -46.1067
   -22.4189 -22.4189 -22.4178 -22.4178 -22.4162 -22.4162 -22.4153 -22.4153
   -22.3870 -22.3870 -22.3859 -22.3859 -22.3716 -22.3716 -22.3688 -22.3688
   -22.3511 -22.3511 -22.3488 -22.3487 -22.3339 -22.3339 -22.3331 -22.3331
   -14.3724 -14.3723 -14.3340 -14.3339 -14.2802 -14.2801 -14.2523 -14.2522
    -6.5083  -6.5082  -6.4807  -6.4806  -6.3605  -6.3604  -6.1681  -6.1679
    -5.8785  -5.8784  -5.8694  -5.8693  -5.7776  -5.7775  -5.7629  -5.7628
    -5.7129  -5.7128  -5.7032  -5.7031  -5.6494  -5.6493  -5.6369  -5.6368
     0.0019   0.0019   0.1266   0.1267   0.1792   0.1792   0.3427   0.3428
     0.3651   0.3652   0.3704   0.3705   0.4106   0.4106   0.5067   0.5068
     0.5808   0.5809   0.5967   0.5967   0.6268   0.6268   0.6478   0.6479
     6.2426   6.2427   6.2930   6.2931   6.7152   6.7153   6.9498   6.9498
     7.0156   7.0156   7.0235   7.0236   7.1001   7.1002   7.1117   7.1118
     7.1957   7.1958   7.2975   7.2977   7.4587   7.4589   7.4655   7.4656
     7.5046   7.5047   7.7529   7.7530   7.8754   7.8755   7.8779   7.8780
     7.9176   7.9176   7.9481   7.9482   8.0179   8.0179   8.1585   8.1586
     8.2782   8.2782   8.3507   8.3508   8.8573   8.8574   8.9429   8.9429
     9.1991   9.1991   9.2833   9.2833   9.3140   9.3140   9.3238   9.3238
     9.4898   9.4898   9.5281   9.5282   9.5931   9.5933   9.6942   9.6942
     9.7274   9.7274   9.7615   9.7615   9.8114   9.8114  10.0882  10.0884
    12.8824  12.8824  13.3342  13.3342  13.3426  13.3427  13.4018  13.4019
    13.5258  13.5259  13.5802  13.5803  13.7301  13.7302  13.9479  13.9479
    14.0800  14.0801  14.1660  14.1660  14.2329  14.2330  14.2874  14.2875
    14.9311  14.9311  15.1034  15.1034  15.9944  15.9944  16.1271  16.1272
    16.4654  16.4656  16.6990  16.6991  16.7472  16.7474  17.1524  17.1534

          k = 0.0000-0.5000 0.0000 ( 34320 PWs)   bands (ev):

   -46.1083 -46.1083 -46.1074 -46.1074 -46.1073 -46.1073 -46.1064 -46.1064
   -22.4420 -22.4420 -22.4389 -22.4389 -22.3945 -22.3945 -22.3924 -22.3924
   -22.3878 -22.3878 -22.3851 -22.3851 -22.3626 -22.3626 -22.3601 -22.3601
   -22.3598 -22.3598 -22.3578 -22.3578 -22.3344 -22.3344 -22.3326 -22.3326
   -14.3982 -14.3982 -14.3073 -14.3072 -14.2985 -14.2985 -14.2334 -14.2334
    -6.6150  -6.6150  -6.5300  -6.5300  -6.4594  -6.4593  -5.8718  -5.8718
    -5.8662  -5.8661  -5.8193  -5.8193  -5.7886  -5.7886  -5.7841  -5.7840
    -5.7378  -5.7377  -5.7212  -5.7212  -5.6636  -5.6636  -5.6271  -5.6271
    -0.0303  -0.0303   0.0190   0.0190   0.1474   0.1474   0.4061   0.4061
     0.4086   0.4086   0.4464   0.4464   0.4597   0.4597   0.5184   0.5184
     0.5710   0.5710   0.5770   0.5770   0.6316   0.6316   0.6361   0.6361
     6.0889   6.0889   6.2686   6.2686   6.3083   6.3083   6.5628   6.5628
     6.8544   6.8544   6.9781   6.9781   7.1654   7.1654   7.1980   7.1980
     7.2190   7.2190   7.2918   7.2918   7.3720   7.3720   7.6192   7.6193
     7.6583   7.6583   7.8509   7.8509   7.8884   7.8884   7.8900   7.8900
     7.8969   7.8969   7.9557   7.9557   8.0078   8.0078   8.4777   8.4777
     8.6935   8.6935   8.7789   8.7789   8.8768   8.8768   8.9128   8.9128
     8.9719   8.9719   9.1282   9.1282   9.1559   9.1559   9.2965   9.2965
     9.3122   9.3122   9.6380   9.6380   9.7624   9.7624   9.7642   9.7642
     9.7835   9.7835   9.8783   9.8783   9.9047   9.9047  10.2113  10.2114
    12.5971  12.5971  13.1824  13.1825  13.2110  13.2111  13.2423  13.2423
    13.2608  13.2608  14.0078  14.0078  14.0132  14.0132  14.0613  14.0613
    14.0882  14.0882  14.2564  14.2564  14.2651  14.2651  14.4881  14.4881
    14.5729  14.5729  15.0821  15.0821  15.1271  15.1272  15.6447  15.6447
    16.3974  16.3975  16.5415  16.5415  16.6277  16.6277  17.1783  17.1783

          k = 0.0000-0.5000 0.1236 ( 34314 PWs)   bands (ev):

   -46.1083 -46.1083 -46.1075 -46.1075 -46.1073 -46.1073 -46.1065 -46.1065
   -22.4402 -22.4402 -22.4372 -22.4372 -22.3964 -22.3964 -22.3942 -22.3942
   -22.3877 -22.3877 -22.3852 -22.3852 -22.3625 -22.3625 -22.3602 -22.3602
   -22.3598 -22.3598 -22.3579 -22.3579 -22.3343 -22.3343 -22.3327 -22.3327
   -14.3948 -14.3948 -14.3108 -14.3108 -14.2961 -14.2961 -14.2360 -14.2359
    -6.6029  -6.6029  -6.5111  -6.5111  -6.4571  -6.4571  -5.9331  -5.9331
    -5.8678  -5.8678  -5.8042  -5.8042  -5.7829  -5.7829  -5.7803  -5.7803
    -5.7340  -5.7339  -5.7246  -5.7246  -5.6618  -5.6618  -5.6281  -5.6281
    -0.0110  -0.0110   0.0000   0.0000   0.1978   0.1978   0.3649   0.3649
     0.3987   0.3987   0.4283   0.4283   0.4659   0.4659   0.4958   0.4958
     0.5885   0.5885   0.5887   0.5887   0.6247   0.6247   0.6422   0.6422
     6.1229   6.1229   6.3056   6.3056   6.3227   6.3227   6.5933   6.5933
     6.8849   6.8849   6.9871   6.9871   7.1552   7.1552   7.2010   7.2010
     7.2010   7.2011   7.3100   7.3100   7.3610   7.3610   7.6226   7.6226
     7.6791   7.6792   7.8318   7.8319   7.8734   7.8734   7.8872   7.8872
     7.8990   7.8990   7.9677   7.9677   7.9759   7.9759   8.3665   8.3665
     8.6531   8.6531   8.7041   8.7041   8.9420   8.9420   8.9484   8.9484
     8.9984   8.9984   9.1439   9.1439   9.1749   9.1749   9.2934   9.2935
     9.3102   9.3102   9.6136   9.6136   9.7336   9.7336   9.7472   9.7472
     9.7740   9.7740   9.8716   9.8716   9.8989   9.8989  10.1816  10.1816
    12.6569  12.6569  13.1860  13.1860  13.2288  13.2288  13.2390  13.2390
    13.3004  13.3005  13.9641  13.9641  14.0165  14.0165  14.0200  14.0200
    14.0950  14.0950  14.2160  14.2161  14.2579  14.2579  14.4615  14.4615
    14.6454  14.6454  15.1242  15.1242  15.1987  15.1987  15.6864  15.6865
    16.4426  16.4427  16.6157  16.6157  16.6402  16.6402  17.1750  17.1751

          k = 0.0000-0.5000 0.2473 ( 34350 PWs)   bands (ev):

   -46.1082 -46.1082 -46.1076 -46.1076 -46.1072 -46.1072 -46.1066 -46.1066
   -22.4351 -22.4351 -22.4322 -22.4322 -22.4015 -22.4015 -22.3993 -22.3993
   -22.3874 -22.3874 -22.3855 -22.3855 -22.3623 -22.3623 -22.3605 -22.3605
   -22.3595 -22.3595 -22.3581 -22.3581 -22.3341 -22.3341 -22.3329 -22.3329
   -14.3852 -14.3851 -14.3208 -14.3208 -14.2891 -14.2891 -14.2431 -14.2431
    -6.5700  -6.5700  -6.4565  -6.4565  -6.4541  -6.4541  -6.0342  -6.0342
    -5.8730  -5.8730  -5.8366  -5.8366  -5.7703  -5.7703  -5.7523  -5.7523
    -5.7319  -5.7319  -5.7312  -5.7312  -5.6569  -5.6569  -5.6311  -5.6311
    -0.0106  -0.0106   0.0446   0.0446   0.2720   0.2720   0.2989   0.2989
     0.3787   0.3787   0.3959   0.3959   0.4323   0.4323   0.4837   0.4838
     0.6053   0.6053   0.6134   0.6134   0.6190   0.6190   0.6357   0.6357
     6.1938   6.1938   6.2987   6.2987   6.4738   6.4738   6.7069   6.7069
     6.9692   6.9692   7.0096   7.0096   7.1292   7.1292   7.1472   7.1472
     7.2096   7.2096   7.3351   7.3351   7.3727   7.3727   7.6071   7.6071
     7.6752   7.6752   7.7322   7.7322   7.8785   7.8785   7.9011   7.9011
     7.9207   7.9207   7.9326   7.9327   8.0094   8.0094   8.1569   8.1569
     8.5019   8.5019   8.5429   8.5429   8.9001   8.9001   9.0020   9.0020
     9.1901   9.1901   9.1969   9.1969   9.2055   9.2055   9.2745   9.2745
     9.3334   9.3334   9.5472   9.5472   9.6486   9.6486   9.7160   9.7160
     9.7954   9.7954   9.8542   9.8542   9.8844   9.8844  10.0924  10.0924
    12.8207  12.8207  13.1975  13.1975  13.2293  13.2294  13.2866  13.2866
    13.4103  13.4103  13.8236  13.8236  13.8935  13.8935  14.0558  14.0558
    14.1039  14.1040  14.1150  14.1150  14.2376  14.2376  14.3909  14.3909
    14.8072  14.8072  15.1136  15.1136  15.5100  15.5100  15.8284  15.8284
    16.5724  16.5724  16.6471  16.6471  16.8319  16.8319  17.0097  17.0097

          k = 0.0000-0.5000 0.3709 ( 34334 PWs)   bands (ev):

   -46.1081 -46.1081 -46.1077 -46.1077 -46.1070 -46.1070 -46.1067 -46.1067
   -22.4275 -22.4275 -22.4247 -22.4247 -22.4093 -22.4093 -22.4069 -22.4068
   -22.3870 -22.3870 -22.3859 -22.3859 -22.3618 -22.3618 -22.3609 -22.3609
   -22.3592 -22.3592 -22.3584 -22.3584 -22.3338 -22.3338 -22.3332 -22.3332
   -14.3706 -14.3706 -14.3358 -14.3357 -14.2787 -14.2787 -14.2538 -14.2537
    -6.5259  -6.5259  -6.4606  -6.4606  -6.3718  -6.3718  -6.1491  -6.1491
    -5.8802  -5.8802  -5.8666  -5.8666  -5.7569  -5.7569  -5.7415  -5.7414
    -5.7367  -5.7367  -5.7330  -5.7329  -5.6500  -5.6500  -5.6361  -5.6361
     0.0144   0.0144   0.1297   0.1297   0.1676   0.1676   0.3394   0.3394
     0.3627   0.3627   0.3702   0.3703   0.4115   0.4115   0.5108   0.5108
     0.5766   0.5766   0.5936   0.5936   0.6360   0.6360   0.6409   0.6409
     6.2478   6.2478   6.2890   6.2890   6.6872   6.6872   6.9276   6.9276
     7.0371   7.0371   7.0535   7.0535   7.0906   7.0906   7.0970   7.0970
     7.2196   7.2196   7.3086   7.3086   7.4586   7.4586   7.4997   7.4997
     7.5031   7.5031   7.7915   7.7915   7.8623   7.8623   7.8895   7.8895
     7.8966   7.8966   7.9281   7.9281   8.0139   8.0139   8.0953   8.0953
     8.2724   8.2724   8.3904   8.3904   8.8648   8.8648   8.9412   8.9412
     9.2560   9.2560   9.2629   9.2629   9.3020   9.3020   9.3401   9.3401
     9.4551   9.4551   9.4572   9.4572   9.5159   9.5159   9.7560   9.7560
     9.8093   9.8093   9.8248   9.8248   9.8701   9.8701   9.9545   9.9545
    13.0428  13.0429  13.2131  13.2132  13.2262  13.2263  13.3923  13.3923
    13.5698  13.5698  13.6127  13.6127  13.7230  13.7230  13.9419  13.9419
    14.1118  14.1118  14.1479  14.1479  14.2066  14.2067  14.2983  14.2983
    14.9540  14.9540  15.0899  15.0899  15.9223  15.9224  16.0883  16.0883
    16.5678  16.5679  16.7486  16.7486  16.7722  16.7722  17.1748  17.2155

          k = 0.0000-0.5000-0.4946 ( 34332 PWs)   bands (ev):

   -46.1079 -46.1079 -46.1079 -46.1079 -46.1069 -46.1069 -46.1069 -46.1069
   -22.4184 -22.4184 -22.4184 -22.4184 -22.4158 -22.4158 -22.4158 -22.4158
   -22.3865 -22.3865 -22.3864 -22.3864 -22.3614 -22.3614 -22.3614 -22.3613
   -22.3588 -22.3588 -22.3588 -22.3588 -22.3335 -22.3335 -22.3335 -22.3335
   -14.3533 -14.3533 -14.3532 -14.3532 -14.2663 -14.2663 -14.2662 -14.2662
    -6.4852  -6.4852  -6.4851  -6.4851  -6.2657  -6.2657  -6.2655  -6.2655
    -5.8814  -5.8814  -5.8813  -5.8813  -5.7453  -5.7453  -5.7452  -5.7452
    -5.7363  -5.7363  -5.7362  -5.7361  -5.6428  -5.6428  -5.6426  -5.6426
     0.0765   0.0765   0.0765   0.0765   0.2329   0.2329   0.2329   0.2330
     0.3588   0.3588   0.3588   0.3588   0.5152   0.5152   0.5152   0.5152
     0.5434   0.5434   0.5434   0.5434   0.6467   0.6467   0.6467   0.6468
     6.2748   6.2748   6.2749   6.2749   6.9008   6.9008   6.9009   6.9009
     7.0658   7.0658   7.0659   7.0659   7.1747   7.1748   7.1749   7.1749
     7.2488   7.2488   7.2489   7.2490   7.3244   7.3244   7.3246   7.3246
     7.6962   7.6962   7.6963   7.6963   7.8351   7.8351   7.8352   7.8352
     7.8875   7.8875   7.8875   7.8876   8.1158   8.1158   8.1158   8.1158
     8.2298   8.2298   8.2299   8.2299   8.8740   8.8740   8.8740   8.8740
     9.3150   9.3150   9.3150   9.3150   9.3551   9.3551   9.3551   9.3551
     9.3881   9.3881   9.3881   9.3881   9.6945   9.6945   9.6945   9.6946
     9.7974   9.7974   9.7974   9.7974   9.8715   9.8715   9.8717   9.8717
    13.1821  13.1821  13.1822  13.1822  13.3701  13.3701  13.3702  13.3702
    13.5444  13.5444  13.5444  13.5445  13.7552  13.7552  13.7553  13.7553
    14.1672  14.1672  14.1672  14.1673  14.2079  14.2079  14.2079  14.2079
    15.0431  15.0431  15.0431  15.0431  16.3162  16.3162  16.3163  16.3163
    16.4218  16.4218  16.4219  16.4219  17.0228  17.0229  17.0231  17.2828

          k = 0.1250 0.1250 0.0000 ( 34351 PWs)   bands (ev):

   -46.1088 -46.1079 -46.1078 -46.1078 -46.1069 -46.1069 -46.1069 -46.1060
   -22.4435 -22.4403 -22.4403 -22.4378 -22.3954 -22.3934 -22.3934 -22.3915
   -22.3874 -22.3874 -22.3843 -22.3843 -22.3843 -22.3842 -22.3819 -22.3819
   -22.3375 -22.3374 -22.3356 -22.3355 -22.3355 -22.3355 -22.3337 -22.3337
   -14.4490 -14.3404 -14.3386 -14.3386 -14.2679 -14.2678 -14.2655 -14.2042
    -6.7433  -6.7433  -6.6839  -6.5341  -6.2955  -6.1487  -6.1487  -5.8986
    -5.8913  -5.8913  -5.8406  -5.8406  -5.8079  -5.7708  -5.7482  -5.7460
    -5.7352  -5.7352  -5.7289  -5.6859  -5.6266  -5.5836  -5.5404  -5.5404
    -0.3246  -0.2772  -0.2352   0.2924   0.2924   0.3020   0.3408   0.3584
     0.3585   0.3722   0.3771   0.4181   0.4891   0.5202   0.5202   0.5421
     0.5421   0.5590   0.6874   0.6874   0.7223   0.7326   0.7326   0.7696
     5.9777   6.1335   6.1335   6.1476   6.3226   6.3833   6.3833   6.4339
     6.4575   6.4575   6.5830   6.6127   6.6127   6.6386   6.6523   7.5725
     7.5725   7.5774   7.5913   7.5913   7.6305   7.6504   7.6522   7.6522
     7.6809   7.7504   7.7504   7.8127   7.9173   7.9335   7.9526   7.9645
     8.0385   8.0462   8.0687   8.0687   8.1700   8.2062   8.2062   8.6113
     8.6114   8.6557   8.7014   8.7014   8.7464   8.8670   8.9164   8.9217
     8.9217   8.9725   9.2101   9.2307   9.2307   9.2804   9.3637   9.4556
     9.4556   9.5041   9.5041   9.5392   9.5574   9.5574   9.6346   9.7624
    10.0269  10.0522  10.1555  10.1555  10.1843  10.2207  10.2919  10.3196
    12.3855  12.5226  12.5723  12.5965  12.6866  12.6866  13.8941  13.8941
    13.9393  13.9393  13.9408  13.9412  13.9412  13.9768  13.9862  14.0035
    14.0290  14.0290  14.3327  14.3435  14.3435  14.5509  14.5696  14.5744
    14.6368  14.6368  14.6518  14.6539  14.6708  15.1166  15.4227  15.4227
    15.4988  15.6397  16.3096  16.3096  16.5790  16.9930  17.1888  17.3026

          k = 0.1250 0.1250 0.1236 ( 34313 PWs)   bands (ev):

   -46.1087 -46.1079 -46.1078 -46.1078 -46.1070 -46.1070 -46.1068 -46.1060
   -22.4417 -22.4385 -22.4385 -22.4361 -22.3973 -22.3952 -22.3952 -22.3933
   -22.3873 -22.3873 -22.3844 -22.3844 -22.3842 -22.3841 -22.3820 -22.3820
   -22.3374 -22.3373 -22.3356 -22.3356 -22.3354 -22.3354 -22.3337 -22.3337
   -14.4449 -14.3446 -14.3360 -14.3360 -14.2706 -14.2706 -14.2632 -14.2066
    -6.7249  -6.7249  -6.6723  -6.5309  -6.2770  -6.1824  -6.1824  -5.9012
    -5.8795  -5.8795  -5.8386  -5.8386  -5.8065  -5.7749  -5.7722  -5.7402
    -5.7273  -5.7273  -5.7242  -5.7016  -5.6262  -5.5902  -5.5483  -5.5483
    -0.3019  -0.2749  -0.1845   0.2767   0.3030   0.3030   0.3103   0.3645
     0.3645   0.3733   0.3765   0.4426   0.4845   0.4956   0.4956   0.5486
     0.5601   0.5602   0.6837   0.6855   0.6855   0.7189   0.7189   0.7601
     6.0078   6.1487   6.1693   6.1693   6.3824   6.4192   6.4192   6.4502
     6.4502   6.4940   6.6208   6.6390   6.6405   6.6405   6.6517   7.5744
     7.5744   7.5801   7.5801   7.5925   7.6433   7.6433   7.6501   7.6668
     7.6979   7.7772   7.7772   7.7797   7.9077   7.9077   7.9095   7.9144
     7.9357   7.9746   8.0125   8.0362   8.1866   8.2006   8.2007   8.5478
     8.6283   8.6283   8.7665   8.8453   8.8453   8.8763   8.8791   8.8992
     8.9393   8.9393   9.2009   9.2009   9.2199   9.3030   9.3856   9.4022
     9.4022   9.5009   9.5009   9.5048   9.5048   9.5564   9.6473   9.7161
    10.0058  10.0089  10.1352  10.1352  10.1404  10.1720  10.2933  10.3249
    12.3910  12.5173  12.6341  12.6530  12.7440  12.7440  13.8963  13.8963
    13.9356  13.9380  13.9380  13.9433  13.9433  13.9529  13.9634  13.9821
    13.9821  13.9966  14.3160  14.3160  14.3408  14.5344  14.5414  14.5536
    14.6517  14.6533  14.7187  14.7187  14.7769  15.2387  15.4185  15.4185
    15.5693  15.7118  16.3491  16.3491  16.5255  17.0011  17.2742  17.3658

          k = 0.1250 0.1250 0.2473 ( 34334 PWs)   bands (ev):

   -46.1086 -46.1080 -46.1077 -46.1077 -46.1071 -46.1071 -46.1067 -46.1061
   -22.4365 -22.4335 -22.4335 -22.4311 -22.4025 -22.4003 -22.4003 -22.3984
   -22.3869 -22.3869 -22.3847 -22.3847 -22.3839 -22.3838 -22.3823 -22.3822
   -22.3372 -22.3371 -22.3359 -22.3358 -22.3352 -22.3352 -22.3339 -22.3339
   -14.4334 -14.3567 -14.3284 -14.3284 -14.2784 -14.2784 -14.2566 -14.2133
    -6.6716  -6.6716  -6.6408  -6.5262  -6.2659  -6.2659  -6.2236  -5.9032
    -5.8567  -5.8567  -5.8438  -5.8336  -5.8336  -5.8025  -5.7763  -5.7442
    -5.7235  -5.7106  -5.7066  -5.7065  -5.6314  -5.6088  -5.5706  -5.5706
    -0.2369  -0.2331  -0.0730   0.2054   0.2257   0.3285   0.3286   0.3796
     0.3876   0.3876   0.3888   0.4588   0.4589   0.4715   0.4948   0.5200
     0.5750   0.5750   0.5767   0.6798   0.6798   0.6846   0.6846   0.7315
     6.0715   6.1509   6.2488   6.2488   6.4304   6.4304   6.5282   6.5282
     6.5541   6.6403   6.6500   6.6616   6.7403   6.7403   6.7536   7.4932
     7.4932   7.5794   7.5794   7.6002   7.6002   7.6390   7.6568   7.6568
     7.6568   7.7012   7.7055   7.7277   7.7421   7.8526   7.8526   7.9042
     7.9140   7.9635   8.0051   8.0883   8.2074   8.2075   8.2354   8.2664
     8.6765   8.6766   8.7446   8.7675   8.8250   8.8837   8.8837   8.9198
     9.0469   9.0470   9.2006   9.2473   9.2473   9.2947   9.2947   9.3730
     9.4025   9.4025   9.4527   9.4531   9.4531   9.5625   9.6047   9.6843
     9.9208   9.9597  10.0186  10.0509  10.0705  10.0705  10.2974  10.3265
    12.4060  12.5022  12.8052  12.8117  12.9022  12.9022  13.7909  13.8083
    13.8400  13.8400  13.9022  13.9022  13.9373  13.9373  13.9593  13.9593
    14.0268  14.0534  14.2430  14.2431  14.3640  14.4629  14.4655  14.5226
    14.6514  14.6521  14.9155  14.9155  15.0543  15.4016  15.4016  15.5664
    15.7689  15.9224  16.3684  16.4782  16.4782  16.9699  17.1137  17.5161

          k = 0.1250 0.1250 0.3709 ( 34318 PWs)   bands (ev):

   -46.1085 -46.1081 -46.1075 -46.1075 -46.1072 -46.1072 -46.1066 -46.1063
   -22.4288 -22.4259 -22.4259 -22.4236 -22.4104 -22.4080 -22.4080 -22.4059
   -22.3864 -22.3864 -22.3852 -22.3852 -22.3836 -22.3835 -22.3827 -22.3826
   -22.3369 -22.3368 -22.3362 -22.3361 -22.3349 -22.3349 -22.3342 -22.3342
   -14.4160 -14.3745 -14.3171 -14.3170 -14.2900 -14.2900 -14.2468 -14.2233
    -6.5980  -6.5888  -6.5888  -6.5321  -6.3730  -6.3730  -6.1419  -5.9380
    -5.8912  -5.8377  -5.8377  -5.8287  -5.8287  -5.8014  -5.7965  -5.7823
    -5.6981  -5.6905  -5.6769  -5.6769  -5.6461  -5.6360  -5.6035  -5.6035
    -0.1463  -0.1384   0.0768   0.1007   0.1052   0.3566   0.3566   0.4026
     0.4075   0.4210   0.4211   0.4232   0.4363   0.4363   0.4522   0.4804
     0.5588   0.5588   0.5590   0.6579   0.6580   0.6705   0.6705   0.6852
     6.1219   6.1516   6.3199   6.3199   6.4026   6.4026   6.6424   6.6477
     6.7063   6.7063   6.8152   6.9031   6.9371   6.9371   7.0063   7.2223
     7.2223   7.4435   7.4435   7.4478   7.4507   7.5865   7.5865   7.6074
     7.6074   7.6685   7.7145   7.7862   7.7974   7.8830   7.8938   7.9000
     7.9508   7.9569   7.9621   7.9621   8.1720   8.1720   8.2513   8.3156
     8.5766   8.6138   8.7458   8.7458   8.8617   8.8617   8.9159   9.0018
     9.0383   9.0383   9.1291   9.1775   9.1775   9.2719   9.2719   9.3427
     9.3632   9.3632   9.4941   9.5440   9.5440   9.5653   9.6759   9.7420
     9.8404   9.8461   9.8886   9.8904   9.9529   9.9529  10.3042  10.3211
    12.4278  12.4798  13.0440  13.0494  13.1287  13.1287  13.5727  13.5890
    13.6333  13.6333  13.9105  13.9105  13.9290  13.9290  13.9964  13.9964
    14.1219  14.1404  14.1492  14.1492  14.3558  14.3611  14.3991  14.4846
    14.6511  14.6512  15.1244  15.1244  15.3601  15.3601  15.4180  16.0092
    16.0673  16.1172  16.2539  16.7140  16.7140  16.7899  16.8028  17.1411

          k = 0.1250 0.1250-0.4946 ( 34330 PWs)   bands (ev):

   -46.1083 -46.1083 -46.1074 -46.1074 -46.1074 -46.1074 -46.1064 -46.1064
   -22.4196 -22.4196 -22.4170 -22.4170 -22.4170 -22.4170 -22.4148 -22.4148
   -22.3859 -22.3858 -22.3858 -22.3858 -22.3831 -22.3831 -22.3830 -22.3830
   -22.3366 -22.3365 -22.3365 -22.3364 -22.3346 -22.3346 -22.3346 -22.3346
   -14.3954 -14.3953 -14.3036 -14.3036 -14.3036 -14.3035 -14.2351 -14.2350
    -6.5574  -6.5573  -6.4855  -6.4855  -6.4854  -6.4854  -6.0424  -6.0423
    -5.8557  -5.8556  -5.8287  -5.8287  -5.8286  -5.8286  -5.7895  -5.7894
    -5.6675  -5.6675  -5.6674  -5.6674  -5.6411  -5.6411  -5.6410  -5.6409
    -0.0270  -0.0270  -0.0202  -0.0201   0.2487   0.2487   0.3864   0.3864
     0.3865   0.3865   0.4297   0.4297   0.4385   0.4385   0.5014   0.5014
     0.5015   0.5015   0.6254   0.6254   0.6600   0.6600   0.6600   0.6600
     6.1452   6.1453   6.3677   6.3677   6.3678   6.3678   6.6449   6.6450
     6.9418   6.9418   6.9420   6.9420   7.1294   7.1296   7.1698   7.1699
     7.1996   7.1996   7.1997   7.1997   7.3707   7.3708   7.5951   7.5951
     7.5952   7.5953   7.8057   7.8058   7.8473   7.8473   7.8743   7.8744
     7.8887   7.8887   8.0802   8.0802   8.0803   8.0803   8.4291   8.4292
     8.4353   8.4354   8.8134   8.8134   8.8135   8.8135   9.0248   9.0249
     9.0885   9.0885   9.0886   9.0886   9.1420   9.1420   9.2757   9.2758
     9.2758   9.2758   9.6595   9.6595   9.7170   9.7170   9.7580   9.7581
     9.7756   9.7757   9.7757   9.7757   9.8138   9.8139  10.3126  10.3128
    12.4537  12.4538  13.3112  13.3113  13.3242  13.3242  13.3848  13.3848
    13.3849  13.3849  13.9198  13.9198  13.9199  13.9199  14.0610  14.0610
    14.0610  14.0611  14.2362  14.2362  14.2474  14.2474  14.4413  14.4414
    14.6510  14.6510  15.2747  15.2747  15.2747  15.2747  15.7898  15.7899
    16.4233  16.4235  16.4584  16.4586  16.6756  16.6758  17.0386  17.0386

          k = 0.1250 0.2500 0.0000 ( 34356 PWs)   bands (ev):

   -46.1087 -46.1079 -46.1078 -46.1077 -46.1071 -46.1070 -46.1068 -46.1061
   -22.4432 -22.4407 -22.4400 -22.4381 -22.3952 -22.3937 -22.3932 -22.3918
   -22.3870 -22.3846 -22.3840 -22.3822 -22.3816 -22.3786 -22.3785 -22.3763
   -22.3434 -22.3413 -22.3412 -22.3394 -22.3372 -22.3357 -22.3353 -22.3339
   -14.4363 -14.3519 -14.3320 -14.3302 -14.2765 -14.2742 -14.2605 -14.2118
    -6.7078  -6.6937  -6.6292  -6.5416  -6.3510  -6.2248  -6.0918  -5.8885
    -5.8750  -5.8678  -5.8448  -5.8269  -5.8014  -5.7666  -5.7609  -5.7519
    -5.7275  -5.7177  -5.7113  -5.7094  -5.6937  -5.5995  -5.5901  -5.5643
    -0.2699  -0.1939  -0.1411   0.2110   0.2823   0.3066   0.3147   0.3787
     0.3917   0.3948   0.4025   0.4484   0.4674   0.4873   0.4992   0.5201
     0.5596   0.5608   0.5867   0.6768   0.6881   0.6999   0.7016   0.7174
     6.0415   6.1333   6.1972   6.2297   6.3087   6.4336   6.4555   6.5333
     6.5607   6.5974   6.6288   6.6485   6.7387   6.7705   6.7725   7.4360
     7.5436   7.6159   7.6324   7.6344   7.6477   7.6519   7.6522   7.6626
     7.7099   7.7101   7.7308   7.7519   7.7579   7.7881   7.7883   7.9061
     7.9498   8.0016   8.0107   8.1199   8.1853   8.1865   8.2631   8.3306
     8.6861   8.6996   8.6998   8.7538   8.7672   8.8187   8.8636   8.9236
     8.9774   9.1762   9.1803   9.1862   9.3289   9.3336   9.3363   9.3443
     9.3543   9.4470   9.5235   9.5276   9.5352   9.5455   9.5735   9.6078
     9.9491   9.9948  10.0833  10.0841  10.1614  10.1848  10.2183  10.2232
    12.5469  12.6330  12.6717  12.7108  12.7149  12.7934  13.7349  13.7653
    13.7791  13.7893  13.9111  13.9454  13.9618  13.9796  14.0035  14.0067
    14.0253  14.0664  14.2497  14.2635  14.3703  14.4651  14.4886  14.5450
    14.6465  14.6661  14.8182  14.8675  14.9635  15.1308  15.4017  15.7226
    15.7608  15.8498  16.1866  16.4807  16.7103  17.0561  17.1948  17.3371

          k = 0.1250 0.2500 0.1236 ( 34350 PWs)   bands (ev):

   -46.1086 -46.1079 -46.1078 -46.1077 -46.1071 -46.1069 -46.1069 -46.1061
   -22.4413 -22.4389 -22.4382 -22.4364 -22.3971 -22.3955 -22.3950 -22.3936
   -22.3869 -22.3845 -22.3841 -22.3823 -22.3815 -22.3787 -22.3785 -22.3764
   -22.3433 -22.3414 -22.3412 -22.3394 -22.3372 -22.3356 -22.3354 -22.3340
   -14.4324 -14.3491 -14.3361 -14.3276 -14.2794 -14.2719 -14.2632 -14.2142
    -6.6906  -6.6752  -6.6192  -6.5360  -6.3324  -6.2434  -6.1277  -5.8921
    -5.8685  -5.8613  -5.8435  -5.8246  -5.8049  -5.8000  -5.7631  -5.7466
    -5.7239  -5.7213  -5.7115  -5.7079  -5.6803  -5.6048  -5.5973  -5.5705
    -0.2500  -0.2041  -0.0811   0.2251   0.2789   0.2890   0.3101   0.3570
     0.3765   0.3885   0.4101   0.4445   0.4539   0.4804   0.4959   0.5257
     0.5685   0.5700   0.5740   0.6756   0.6769   0.6831   0.7004   0.7206
     6.0758   6.1695   6.2305   6.2401   6.3669   6.4271   6.4892   6.5581
     6.6070   6.6195   6.6263   6.6747   6.7396   6.7744   6.7931   7.4482
     7.5173   7.6143   7.6290   7.6363   7.6369   7.6386   7.6483   7.6640
     7.6932   7.7097   7.7506   7.7525   7.7688   7.7773   7.8087   7.9058
     7.9364   7.9622   7.9978   8.0379   8.0904   8.1357   8.2599   8.3477
     8.5970   8.7127   8.7143   8.7988   8.8167   8.8334   8.8919   8.9186
     8.9661   9.1608   9.2107   9.2125   9.2918   9.3195   9.3252   9.3516
     9.3881   9.4697   9.4753   9.4986   9.4987   9.5429   9.5608   9.5739
     9.9249   9.9551  10.0419  10.0690  10.1386  10.1391  10.2227  10.2280
    12.5714  12.6744  12.7100  12.7294  12.7556  12.8471  13.7378  13.7716
    13.7862  13.8054  13.9156  13.9289  13.9512  13.9567  13.9777  13.9805
    13.9962  14.0231  14.2312  14.2577  14.3425  14.4485  14.4640  14.5174
    14.7274  14.7373  14.8678  14.9125  14.9996  15.2521  15.3974  15.7586
    15.7872  15.9199  16.2253  16.5065  16.6561  17.0835  17.2297  17.3753

          k = 0.1250 0.2500 0.2473 ( 34332 PWs)   bands (ev):

   -46.1085 -46.1079 -46.1078 -46.1076 -46.1072 -46.1070 -46.1068 -46.1062
   -22.4362 -22.4338 -22.4332 -22.4314 -22.4023 -22.4006 -22.4001 -22.3986
   -22.3866 -22.3844 -22.3843 -22.3825 -22.3811 -22.3790 -22.3782 -22.3766
   -22.3431 -22.3416 -22.3410 -22.3396 -22.3369 -22.3356 -22.3354 -22.3342
   -14.4214 -14.3476 -14.3410 -14.3201 -14.2877 -14.2709 -14.2652 -14.2211
    -6.6411  -6.6217  -6.5925  -6.5240  -6.2976  -6.2788  -6.2135  -5.8977
    -5.8860  -5.8654  -5.8406  -5.8369  -5.8187  -5.7959  -5.7742  -5.7578
    -5.7316  -5.7075  -5.6983  -5.6952  -5.6697  -5.6200  -5.6167  -5.5882
    -0.1997  -0.1710   0.0369   0.2148   0.2578   0.2674   0.2838   0.3206
     0.3689   0.3954   0.3973   0.4315   0.4333   0.4441   0.5264   0.5272
     0.5517   0.5530   0.6026   0.6055   0.6772   0.6798   0.6958   0.7193
     6.1487   6.2323   6.2484   6.3420   6.4098   6.5334   6.5936   6.5942
     6.6432   6.7127   6.7274   6.7520   6.7652   6.8025   6.8741   7.3986
     7.4897   7.5056   7.5449   7.5856   7.6100   7.6164   7.6477   7.6518
     7.6622   7.6809   7.6960   7.7964   7.8022   7.8519   7.8636   7.8667
     7.8676   7.9058   7.9117   7.9700   8.0227   8.1830   8.2541   8.3315
     8.3945   8.5682   8.6786   8.7456   8.7719   8.8694   8.8746   9.0771
     9.1446   9.1652   9.1901   9.2417   9.2923   9.3189   9.3254   9.3820
     9.3840   9.4104   9.4228   9.4664   9.4768   9.4913   9.5378   9.5882
     9.8461   9.8934   9.9273  10.0218  10.0309  10.0671  10.2220  10.2314
    12.6001  12.6960  12.8271  12.8866  12.8886  12.9950  13.7451  13.7700
    13.7855  13.7945  13.8137  13.8491  13.8787  13.8822  13.9276  13.9719
    13.9941  14.0345  14.1450  14.2693  14.2805  14.3680  14.4253  14.4498
    14.8291  14.8681  14.9207  15.1470  15.1900  15.3810  15.5794  15.7453
    15.9699  16.1259  16.3530  16.4964  16.5952  17.0678  17.2347  17.3289

          k = 0.1250 0.2500 0.3709 ( 34325 PWs)   bands (ev):

   -46.1084 -46.1080 -46.1076 -46.1074 -46.1073 -46.1071 -46.1067 -46.1064
   -22.4284 -22.4262 -22.4256 -22.4239 -22.4101 -22.4083 -22.4077 -22.4061
   -22.3861 -22.3849 -22.3839 -22.3829 -22.3807 -22.3795 -22.3778 -22.3770
   -22.3427 -22.3419 -22.3406 -22.3399 -22.3366 -22.3359 -22.3351 -22.3344
   -14.4047 -14.3648 -14.3289 -14.3090 -14.3001 -14.2823 -14.2552 -14.2313
    -6.5655  -6.5582  -6.5387  -6.5180  -6.3793  -6.3219  -6.1964  -5.9871
    -5.8929  -5.8551  -5.8396  -5.8198  -5.8183  -5.8124  -5.7892  -5.7719
    -5.7099  -5.6906  -5.6838  -5.6726  -5.6721  -5.6431  -5.6420  -5.6142
    -0.1260  -0.0826   0.1030   0.1522   0.1833   0.2726   0.3393   0.3395
     0.3399   0.3749   0.4037   0.4154   0.4158   0.4622   0.4815   0.4858
     0.4946   0.5161   0.6116   0.6402   0.6783   0.6789   0.6882   0.7014
     6.2044   6.2332   6.3148   6.3859   6.4409   6.5572   6.7417   6.7446
     6.7717   6.7843   6.7871   6.9312   6.9517   6.9989   7.0417   7.1857
     7.2658   7.3774   7.3869   7.4535   7.5327   7.5632   7.6055   7.6143
     7.6177   7.6584   7.6915   7.7651   7.7690   7.8306   7.8881   7.9123
     7.9211   7.9332   7.9644   8.0131   8.0272   8.0460   8.1979   8.2641
     8.3891   8.4603   8.5338   8.6395   8.7758   8.8104   8.9391   9.1208
     9.1415   9.1633   9.1755   9.2612   9.2658   9.2969   9.3008   9.3322
     9.4137   9.4217   9.4647   9.5173   9.5441   9.5736   9.6089   9.6591
     9.7578   9.7657   9.8234   9.8775   9.9318   9.9398  10.2223  10.2287
    12.6248  12.6752  13.0608  13.0898  13.1161  13.2071  13.5724  13.5980
    13.6190  13.6839  13.7554  13.7824  13.8436  13.9436  13.9790  13.9867
    14.0148  14.0325  14.1178  14.1745  14.2486  14.3154  14.3322  14.4013
    14.8567  14.8675  15.1222  15.3423  15.4087  15.5346  15.7022  16.0258
    16.2408  16.2440  16.4522  16.5881  16.7753  16.8676  16.9213  17.3305

          k = 0.1250 0.2500-0.4946 ( 34320 PWs)   bands (ev):

   -46.1082 -46.1082 -46.1075 -46.1075 -46.1073 -46.1073 -46.1065 -46.1065
   -22.4193 -22.4193 -22.4173 -22.4173 -22.4167 -22.4167 -22.4150 -22.4150
   -22.3855 -22.3855 -22.3834 -22.3834 -22.3801 -22.3801 -22.3774 -22.3774
   -22.3423 -22.3423 -22.3403 -22.3403 -22.3363 -22.3363 -22.3348 -22.3348
   -14.3849 -14.3848 -14.3146 -14.3145 -14.2957 -14.2956 -14.2433 -14.2432
    -6.5296  -6.5294  -6.4738  -6.4737  -6.4350  -6.4348  -6.0951  -6.0950
    -5.8663  -5.8662  -5.8444  -5.8443  -5.8107  -5.8107  -5.7809  -5.7808
    -5.6874  -5.6873  -5.6694  -5.6693  -5.6650  -5.6649  -5.6440  -5.6439
    -0.0201  -0.0201   0.0311   0.0312   0.2971   0.2971   0.3396   0.3396
     0.3672   0.3673   0.3935   0.3935   0.4172   0.4173   0.4432   0.4433
     0.4934   0.4934   0.6642   0.6642   0.6666   0.6666   0.6816   0.6816
     6.2277   6.2278   6.3564   6.3564   6.5090   6.5091   6.7447   6.7448
     6.9698   6.9699   7.0039   7.0040   7.0816   7.0818   7.1337   7.1337
     7.2139   7.2140   7.2863   7.2864   7.3632   7.3633   7.6045   7.6046
     7.6601   7.6602   7.6707   7.6708   7.8506   7.8507   7.8625   7.8626
     7.9338   7.9338   7.9893   7.9894   8.0910   8.0911   8.2071   8.2072
     8.3845   8.3846   8.5378   8.5379   8.7837   8.7838   9.0371   9.0371
     9.1274   9.1275   9.2111   9.2111   9.2532   9.2532   9.3324   9.3324
     9.3827   9.3828   9.5871   9.5871   9.6677   9.6678   9.7045   9.7045
     9.7427   9.7427   9.7525   9.7525   9.7909   9.7910  10.2247  10.2249
    12.6504  12.6504  13.3216  13.3216  13.3409  13.3410  13.3728  13.3729
    13.4481  13.4482  13.7676  13.7677  13.9248  13.9249  13.9615  13.9615
    14.0839  14.0839  14.1153  14.1154  14.2212  14.2212  14.3573  14.3574
    14.8647  14.8648  15.2634  15.2634  15.5999  15.5999  15.9081  15.9082
    16.4895  16.4897  16.5747  16.5749  16.8694  16.8695  16.9109  16.9110

          k = 0.1250 0.3750 0.0000 ( 34370 PWs)   bands (ev):

   -46.1085 -46.1081 -46.1076 -46.1075 -46.1072 -46.1072 -46.1067 -46.1063
   -22.4426 -22.4412 -22.4396 -22.4385 -22.3949 -22.3940 -22.3929 -22.3921
   -22.3865 -22.3852 -22.3836 -22.3826 -22.3728 -22.3701 -22.3700 -22.3678
   -22.3522 -22.3499 -22.3498 -22.3479 -22.3369 -22.3360 -22.3350 -22.3342
   -14.4172 -14.3715 -14.3195 -14.3175 -14.2894 -14.2872 -14.2494 -14.2231
    -6.6577  -6.6180  -6.5644  -6.5447  -6.4326  -6.3283  -6.0052  -5.8738
    -5.8515  -5.8501  -5.8317  -5.8070  -5.8019  -5.7799  -5.7776  -5.7653
    -5.7520  -5.7406  -5.7262  -5.6911  -5.6805  -5.6586  -5.6267  -5.5998
    -0.1708  -0.0853   0.0078   0.0921   0.1705   0.3308   0.3449   0.3839
     0.4007   0.4052   0.4217   0.4393   0.4604   0.4681   0.4706   0.4890
     0.5282   0.5871   0.6126   0.6238   0.6418   0.6533   0.6600   0.6672
     6.0939   6.1307   6.2429   6.2902   6.3069   6.4007   6.5866   6.5981
     6.6183   6.7574   6.8606   6.8881   6.9419   7.0134   7.0227   7.1490
     7.3234   7.4349   7.4604   7.5159   7.5331   7.6110   7.6410   7.6460
     7.6472   7.6644   7.7408   7.7972   7.8190   7.8247   7.8802   7.8824
     7.9340   7.9414   7.9626   8.0217   8.0536   8.1366   8.3398   8.3610
     8.6052   8.6842   8.7091   8.7268   8.8305   8.8502   8.9081   8.9174
     8.9658   9.0940   9.0957   9.1491   9.2104   9.2834   9.2866   9.3766
     9.4032   9.4273   9.4788   9.4974   9.6322   9.6590   9.6863   9.6881
     9.8098   9.8928   9.9348   9.9536  10.0247  10.0988  10.1706  10.1964
    12.5968  12.6497  12.8863  12.9341  12.9827  12.9935  13.4913  13.5129
    13.5335  13.5586  13.9364  13.9553  13.9699  13.9957  14.0194  14.0199
    14.0995  14.1421  14.1437  14.1625  14.3468  14.3744  14.4101  14.5047
    14.6552  14.6644  14.9858  15.0903  15.1284  15.3352  15.3520  15.9783
    16.0643  16.1741  16.2034  16.7693  16.8574  16.9367  16.9572  17.0818

          k = 0.1250 0.3750 0.1236 ( 34367 PWs)   bands (ev):

   -46.1085 -46.1081 -46.1076 -46.1075 -46.1072 -46.1071 -46.1067 -46.1063
   -22.4408 -22.4395 -22.4378 -22.4368 -22.3967 -22.3958 -22.3947 -22.3939
   -22.3864 -22.3851 -22.3837 -22.3827 -22.3727 -22.3702 -22.3699 -22.3679
   -22.3521 -22.3500 -22.3498 -22.3479 -22.3368 -22.3360 -22.3351 -22.3343
   -14.4136 -14.3685 -14.3233 -14.3149 -14.2926 -14.2848 -14.2521 -14.2256
    -6.6425  -6.5994  -6.5554  -6.5378  -6.4140  -6.3345  -6.0454  -5.8772
    -5.8630  -5.8514  -5.8414  -5.8325  -5.8042  -5.7777  -5.7667  -5.7608
    -5.7428  -5.7412  -5.7221  -5.6875  -5.6791  -5.6642  -5.6294  -5.6036
    -0.1539  -0.0998   0.0661   0.1083   0.1585   0.3164   0.3298   0.3963
     0.4014   0.4048   0.4103   0.4158   0.4216   0.4576   0.4723   0.4812
     0.5536   0.5567   0.5745   0.6518   0.6637   0.6646   0.6657   0.6728
     6.1310   6.1674   6.2924   6.3058   6.3462   6.3955   6.6113   6.6240
     6.6485   6.7834   6.8703   6.8752   6.9453   7.0192   7.0323   7.1708
     7.2973   7.4202   7.4654   7.4889   7.5514   7.6014   7.6510   7.6546
     7.6682   7.6802   7.7068   7.7756   7.8344   7.8389   7.8767   7.8868
     7.8928   7.9348   7.9438   8.0413   8.0621   8.0665   8.2060   8.3604
     8.5368   8.6413   8.6617   8.7010   8.8319   8.8953   8.9409   8.9729
     8.9745   9.1296   9.1446   9.1679   9.1711   9.2637   9.2963   9.3907
     9.3999   9.4050   9.4664   9.5341   9.5879   9.6461   9.6494   9.6925
     9.7897   9.8579   9.8938   9.9488  10.0209  10.0955  10.1449  10.1721
    12.6535  12.7079  12.8949  12.9634  12.9784  13.0405  13.4955  13.5227
    13.5552  13.5658  13.9454  13.9458  13.9711  13.9713  13.9716  13.9763
    14.0854  14.1079  14.1238  14.1498  14.3288  14.3480  14.3823  14.4768
    14.7353  14.7420  15.0898  15.0937  15.2484  15.3483  15.3679  16.0154
    16.1188  16.2048  16.2435  16.7804  16.8816  16.8942  16.9829  17.1491

          k = 0.1250 0.3750 0.2473 ( 34329 PWs)   bands (ev):

   -46.1084 -46.1080 -46.1077 -46.1074 -46.1073 -46.1070 -46.1068 -46.1064
   -22.4357 -22.4344 -22.4328 -22.4318 -22.4019 -22.4010 -22.3998 -22.3990
   -22.3860 -22.3848 -22.3840 -22.3830 -22.3724 -22.3705 -22.3697 -22.3682
   -22.3518 -22.3502 -22.3495 -22.3482 -22.3366 -22.3358 -22.3353 -22.3345
   -14.4032 -14.3597 -14.3341 -14.3077 -14.3016 -14.2779 -14.2595 -14.2326
    -6.5996  -6.5457  -6.5328  -6.5203  -6.3602  -6.3568  -6.1352  -5.9554
    -5.8853  -5.8591  -5.8522  -5.8057  -5.8021  -5.7968  -5.7763  -5.7486
    -5.7461  -5.7179  -5.7153  -5.6782  -5.6781  -5.6752  -5.6374  -5.6145
    -0.1193  -0.0749   0.1400   0.1604   0.1813   0.2357   0.3291   0.3297
     0.3337   0.3728   0.3905   0.4169   0.4205   0.4763   0.4799   0.4866
     0.4924   0.5265   0.6094   0.6335   0.6747   0.6765   0.6872   0.7004
     6.2098   6.2463   6.3033   6.3822   6.4229   6.5048   6.7061   6.7230
     6.7381   6.8383   6.8522   6.9057   6.9599   7.0134   7.0980   7.2230
     7.2335   7.3717   7.4015   7.4747   7.5652   7.5780   7.6066   7.6303
     7.6535   7.7144   7.7456   7.7474   7.7606   7.8707   7.8736   7.8894
     7.8988   7.9184   7.9223   7.9641   7.9866   8.0931   8.1070   8.3311
     8.3726   8.4065   8.5647   8.5813   8.8215   8.8712   8.8862   9.1284
     9.1313   9.1375   9.1975   9.2132   9.2305   9.2547   9.3273   9.3590
     9.4166   9.4339   9.4411   9.5004   9.6019   9.6083   9.6279   9.6750
     9.7240   9.7892   9.8101   9.9293   9.9837  10.0653  10.0875  10.1176
    12.7959  12.8680  12.9310  12.9659  13.0552  13.1706  13.5059  13.5442
    13.5582  13.6552  13.8052  13.8341  13.8346  13.9700  13.9701  13.9978
    14.0189  14.0195  14.0831  14.1721  14.2359  14.3086  14.3174  14.4025
    14.9011  14.9235  15.0871  15.3344  15.3742  15.5008  15.5725  16.1407
    16.1970  16.2736  16.4481  16.7194  16.8208  16.9980  17.0002  17.3061

          k = 0.1250 0.3750 0.3709 ( 34322 PWs)   bands (ev):

   -46.1082 -46.1079 -46.1078 -46.1075 -46.1073 -46.1069 -46.1069 -46.1065
   -22.4279 -22.4268 -22.4252 -22.4243 -22.4097 -22.4087 -22.4074 -22.4065
   -22.3856 -22.3845 -22.3844 -22.3834 -22.3720 -22.3709 -22.3694 -22.3685
   -22.3515 -22.3506 -22.3492 -22.3485 -22.3363 -22.3356 -22.3355 -22.3348
   -14.3875 -14.3501 -14.3465 -14.3151 -14.2967 -14.2707 -14.2676 -14.2431
    -6.5364  -6.5082  -6.5021  -6.4624  -6.4012  -6.2772  -6.2449  -6.0628
    -5.8894  -5.8679  -5.8566  -5.8446  -5.7883  -5.7881  -5.7714  -5.7542
    -5.7320  -5.7102  -5.7102  -5.6938  -5.6690  -5.6650  -5.6490  -5.6306
    -0.0689   0.0074   0.1249   0.1499   0.2270   0.2313   0.2504   0.3157
     0.3344   0.3598   0.3753   0.3808   0.4113   0.4324   0.4801   0.4815
     0.4858   0.5599   0.5641   0.6591   0.6679   0.6907   0.7003   0.7084
     6.2681   6.3000   6.3082   6.3642   6.5788   6.7381   6.7810   6.8732
     6.8889   6.8906   6.9164   7.0041   7.0169   7.0435   7.1154   7.2340
     7.2377   7.2925   7.3299   7.3420   7.4495   7.5430   7.5515   7.5675
     7.5984   7.6578   7.6963   7.7456   7.8249   7.8614   7.8698   7.8734
     7.8918   7.9071   7.9265   7.9423   7.9923   8.1448   8.1677   8.1814
     8.1847   8.2476   8.4041   8.4348   8.7847   8.8000   8.8638   9.0041
     9.1493   9.2335   9.2636   9.2951   9.2967   9.3542   9.3725   9.4054
     9.4241   9.4666   9.4748   9.5034   9.6115   9.6344   9.6393   9.6465
     9.6824   9.6846   9.7814   9.8686   9.8829   9.9269  10.0790  10.0840
    12.8892  12.9467  13.0918  13.0958  13.2094  13.3582  13.5143  13.5209
    13.5959  13.6294  13.6340  13.6427  13.7859  13.7876  13.8795  14.0004
    14.0440  14.0590  14.0928  14.0970  14.2060  14.2122  14.2734  14.3087
    15.0112  15.0790  15.1115  15.3020  15.7185  15.7784  16.0147  16.1457
    16.3766  16.4609  16.5090  16.7726  16.8408  16.9153  17.0317  17.1509

          k = 0.1250 0.3750-0.4946 ( 34336 PWs)   bands (ev):

   -46.1080 -46.1080 -46.1077 -46.1076 -46.1071 -46.1071 -46.1067 -46.1067
   -22.4188 -22.4188 -22.4177 -22.4177 -22.4163 -22.4163 -22.4154 -22.4154
   -22.3850 -22.3850 -22.3839 -22.3839 -22.3715 -22.3715 -22.3689 -22.3689
   -22.3510 -22.3510 -22.3489 -22.3488 -22.3359 -22.3359 -22.3351 -22.3351
   -14.3689 -14.3689 -14.3309 -14.3309 -14.2838 -14.2837 -14.2554 -14.2554
    -6.4959  -6.4958  -6.4653  -6.4652  -6.3584  -6.3583  -6.1742  -6.1741
    -5.8772  -5.8771  -5.8644  -5.8643  -5.7834  -5.7833  -5.7634  -5.7633
    -5.7167  -5.7166  -5.7046  -5.7045  -5.6604  -5.6603  -5.6487  -5.6485
     0.0156   0.0156   0.1139   0.1139   0.1869   0.1870   0.3198   0.3199
     0.3510   0.3511   0.3623   0.3623   0.4485   0.4486   0.4549   0.4550
     0.4820   0.4820   0.6288   0.6288   0.6941   0.6941   0.7005   0.7005
     6.2921   6.2922   6.3421   6.3422   6.6996   6.6996   6.9354   6.9355
     7.0009   7.0009   7.0012   7.0013   7.0999   7.1000   7.1153   7.1153
     7.2385   7.2387   7.3422   7.3423   7.4437   7.4438   7.4520   7.4521
     7.5309   7.5310   7.7735   7.7735   7.7972   7.7973   7.8774   7.8775
     7.9210   7.9211   8.0011   8.0011   8.0078   8.0079   8.1235   8.1235
     8.2662   8.2663   8.2956   8.2956   8.7614   8.7615   8.9017   8.9018
     9.2178   9.2178   9.2969   9.2969   9.3293   9.3293   9.3773   9.3774
     9.4934   9.4934   9.5437   9.5437   9.6100   9.6102   9.6927   9.6927
     9.7290   9.7291   9.7442   9.7443   9.7983   9.7983  10.0756  10.0757
    12.9222  12.9223  13.3449  13.3450  13.3468  13.3469  13.4120  13.4121
    13.5441  13.5441  13.5738  13.5739  13.7402  13.7402  13.9397  13.9397
    14.0305  14.0305  14.1182  14.1183  14.1860  14.1860  14.2483  14.2484
    15.0590  15.0590  15.2354  15.2355  15.9975  15.9976  16.1300  16.1301
    16.4740  16.4742  16.6987  16.6988  16.7998  16.8000  17.1035  17.1036

          k = 0.1250-0.5000 0.0000 ( 34324 PWs)   bands (ev):

   -46.1083 -46.1083 -46.1074 -46.1074 -46.1073 -46.1073 -46.1065 -46.1065
   -22.4419 -22.4419 -22.4391 -22.4391 -22.3945 -22.3945 -22.3925 -22.3925
   -22.3858 -22.3858 -22.3831 -22.3831 -22.3625 -22.3625 -22.3600 -22.3600
   -22.3599 -22.3599 -22.3579 -22.3579 -22.3365 -22.3365 -22.3346 -22.3346
   -14.3945 -14.3945 -14.3045 -14.3045 -14.3024 -14.3024 -14.2363 -14.2363
    -6.6055  -6.6055  -6.5266  -6.5266  -6.4402  -6.4401  -5.9007  -5.9007
    -5.8608  -5.8608  -5.8198  -5.8198  -5.7891  -5.7891  -5.7849  -5.7849
    -5.7333  -5.7333  -5.7274  -5.7273  -5.6591  -5.6591  -5.6410  -5.6410
    -0.0430  -0.0430   0.0415   0.0415   0.1901   0.1901   0.3645   0.3646
     0.3887   0.3887   0.4328   0.4328   0.4546   0.4546   0.5389   0.5389
     0.5539   0.5539   0.5930   0.5930   0.6299   0.6299   0.6384   0.6384
     6.1206   6.1206   6.2695   6.2695   6.3607   6.3607   6.5947   6.5947
     6.8589   6.8589   7.0162   7.0162   7.1461   7.1461   7.1992   7.1992
     7.2129   7.2130   7.2923   7.2924   7.3677   7.3677   7.6437   7.6437
     7.6544   7.6545   7.8417   7.8417   7.8495   7.8495   7.8890   7.8890
     7.9326   7.9326   7.9413   7.9413   8.0192   8.0192   8.4623   8.4624
     8.5344   8.5344   8.7044   8.7044   8.9826   8.9826   8.9841   8.9841
     8.9946   8.9946   9.0499   9.0499   9.0769   9.0769   9.3192   9.3192
     9.3448   9.3448   9.6424   9.6424   9.7587   9.7587   9.7747   9.7747
     9.7849   9.7849   9.8452   9.8452   9.9104   9.9104  10.1827  10.1827
    12.6241  12.6241  13.1948  13.1948  13.2205  13.2205  13.2562  13.2562
    13.2780  13.2780  13.9478  13.9478  14.0113  14.0113  14.0408  14.0408
    14.0721  14.0721  14.2188  14.2188  14.2524  14.2524  14.4573  14.4573
    14.6610  14.6610  15.0872  15.0872  15.2544  15.2544  15.6884  15.6884
    16.4652  16.4652  16.5953  16.5953  16.6420  16.6420  17.1304  17.1304

          k = 0.1250-0.5000 0.1236 ( 34354 PWs)   bands (ev):

   -46.1083 -46.1083 -46.1074 -46.1074 -46.1073 -46.1073 -46.1065 -46.1065
   -22.4401 -22.4401 -22.4373 -22.4373 -22.3963 -22.3963 -22.3943 -22.3943
   -22.3857 -22.3857 -22.3832 -22.3832 -22.3624 -22.3624 -22.3601 -22.3601
   -22.3599 -22.3599 -22.3580 -22.3580 -22.3364 -22.3364 -22.3347 -22.3347
   -14.3912 -14.3911 -14.3080 -14.3080 -14.2999 -14.2999 -14.2389 -14.2388
    -6.5932  -6.5932  -6.5080  -6.5080  -6.4382  -6.4382  -5.9500  -5.9500
    -5.8625  -5.8625  -5.8038  -5.8038  -5.7937  -5.7937  -5.7814  -5.7814
    -5.7307  -5.7306  -5.7304  -5.7304  -5.6586  -5.6586  -5.6421  -5.6421
    -0.0269  -0.0269   0.0262   0.0262   0.2385   0.2385   0.3566   0.3566
     0.3613   0.3613   0.4284   0.4284   0.4396   0.4396   0.4942   0.4942
     0.5378   0.5379   0.6160   0.6160   0.6518   0.6518   0.6554   0.6554
     6.1580   6.1580   6.3228   6.3228   6.3573   6.3573   6.6199   6.6199
     6.8860   6.8860   7.0182   7.0182   7.1353   7.1353   7.1802   7.1803
     7.2186   7.2187   7.3098   7.3098   7.3675   7.3675   7.6479   7.6479
     7.6765   7.6765   7.8020   7.8020   7.8599   7.8599   7.8669   7.8669
     7.9376   7.9376   7.9532   7.9532   7.9873   7.9873   8.3716   8.3716
     8.5047   8.5047   8.6568   8.6568   8.9301   8.9301   9.0340   9.0340
     9.0496   9.0496   9.0855   9.0855   9.0958   9.0958   9.3032   9.3033
     9.3592   9.3592   9.6279   9.6279   9.7330   9.7331   9.7497   9.7497
     9.7671   9.7671   9.8499   9.8499   9.9039   9.9039  10.1551  10.1551
    12.6823  12.6823  13.2010  13.2010  13.2371  13.2371  13.2741  13.2741
    13.2955  13.2956  13.9609  13.9609  13.9621  13.9621  14.0276  14.0276
    14.0479  14.0479  14.2007  14.2007  14.2227  14.2227  14.4294  14.4294
    14.7403  14.7403  15.2036  15.2037  15.2521  15.2521  15.7231  15.7232
    16.5082  16.5083  16.6513  16.6513  16.6653  16.6654  17.1325  17.1346

          k = 0.1250-0.5000 0.2473 ( 34350 PWs)   bands (ev):

   -46.1082 -46.1082 -46.1075 -46.1075 -46.1072 -46.1072 -46.1066 -46.1066
   -22.4350 -22.4350 -22.4323 -22.4323 -22.4015 -22.4015 -22.3994 -22.3994
   -22.3854 -22.3854 -22.3835 -22.3835 -22.3622 -22.3622 -22.3604 -22.3604
   -22.3596 -22.3596 -22.3582 -22.3582 -22.3362 -22.3362 -22.3349 -22.3349
   -14.3816 -14.3816 -14.3179 -14.3179 -14.2929 -14.2929 -14.2461 -14.2461
    -6.5595  -6.5595  -6.4541  -6.4541  -6.4364  -6.4364  -6.0436  -6.0436
    -5.8680  -5.8680  -5.8350  -5.8350  -5.7718  -5.7718  -5.7650  -5.7650
    -5.7365  -5.7364  -5.7294  -5.7294  -5.6578  -5.6578  -5.6453  -5.6453
    -0.0001  -0.0001   0.0408   0.0409   0.2743   0.2743   0.3383   0.3383
     0.3535   0.3535   0.3930   0.3930   0.4134   0.4134   0.4437   0.4437
     0.5106   0.5106   0.6571   0.6571   0.6595   0.6595   0.6835   0.6835
     6.2375   6.2375   6.3490   6.3490   6.4705   6.4705   6.7185   6.7185
     6.9639   6.9640   7.0226   7.0226   7.1132   7.1132   7.1236   7.1236
     7.2357   7.2357   7.3615   7.3615   7.3682   7.3682   7.6335   7.6336
     7.6566   7.6566   7.7343   7.7343   7.8408   7.8408   7.8842   7.8842
     7.9303   7.9303   7.9553   7.9553   7.9932   7.9932   8.1807   8.1807
     8.4397   8.4397   8.4771   8.4772   8.8537   8.8537   8.9701   8.9701
     9.1649   9.1649   9.1976   9.1976   9.2136   9.2136   9.3033   9.3033
     9.3876   9.3876   9.5797   9.5797   9.6386   9.6387   9.7126   9.7126
     9.7851   9.7851   9.8438   9.8438   9.8878   9.8878  10.0725  10.0725
    12.8419  12.8419  13.2163  13.2163  13.2628  13.2628  13.2948  13.2948
    13.4047  13.4047  13.8227  13.8227  13.9050  13.9050  13.9992  13.9992
    14.0686  14.0687  14.0949  14.0949  14.1952  14.1952  14.3551  14.3551
    14.9198  14.9198  15.2433  15.2433  15.5150  15.5150  15.8469  15.8470
    16.6330  16.6331  16.6532  16.6532  16.8697  16.8698  17.0108  17.0108

          k = 0.1250-0.5000 0.3709 ( 34310 PWs)   bands (ev):

   -46.1080 -46.1080 -46.1077 -46.1077 -46.1071 -46.1071 -46.1067 -46.1067
   -22.4274 -22.4274 -22.4248 -22.4248 -22.4092 -22.4092 -22.4069 -22.4069
   -22.3850 -22.3850 -22.3839 -22.3839 -22.3617 -22.3617 -22.3608 -22.3608
   -22.3593 -22.3593 -22.3585 -22.3585 -22.3359 -22.3359 -22.3352 -22.3352
   -14.3671 -14.3671 -14.3327 -14.3327 -14.2822 -14.2822 -14.2569 -14.2569
    -6.5140  -6.5140  -6.4446  -6.4446  -6.3708  -6.3708  -6.1536  -6.1536
    -5.8759  -5.8759  -5.8641  -5.8641  -5.7597  -5.7596  -5.7508  -5.7508
    -5.7395  -5.7395  -5.7326  -5.7326  -5.6570  -5.6570  -5.6500  -5.6500
     0.0273   0.0273   0.1168   0.1168   0.1750   0.1750   0.3177   0.3177
     0.3465   0.3465   0.3631   0.3631   0.4499   0.4499   0.4543   0.4543
     0.4870   0.4870   0.6254   0.6254   0.6903   0.6904   0.7032   0.7032
     6.2968   6.2968   6.3384   6.3384   6.6754   6.6754   6.9101   6.9101
     7.0261   7.0261   7.0266   7.0266   7.0848   7.0848   7.1087   7.1087
     7.2585   7.2585   7.3470   7.3471   7.4519   7.4519   7.4812   7.4813
     7.5304   7.5304   7.7848   7.7848   7.8049   7.8049   7.8946   7.8946
     7.8952   7.8952   7.9931   7.9931   8.0058   8.0058   8.0734   8.0734
     8.2524   8.2524   8.3295   8.3295   8.7978   8.7978   8.8584   8.8584
     9.2440   9.2440   9.2869   9.2869   9.3114   9.3114   9.4074   9.4074
     9.4741   9.4741   9.4931   9.4931   9.5194   9.5194   9.7425   9.7425
     9.7957   9.7957   9.8180   9.8181   9.8714   9.8714   9.9455   9.9455
    13.0596  13.0596  13.2438  13.2438  13.2471  13.2471  13.4015  13.4015
    13.5632  13.5633  13.6152  13.6152  13.7342  13.7343  13.9336  13.9336
    14.0591  14.0591  14.1026  14.1026  14.1625  14.1625  14.2574  14.2574
    15.0822  15.0822  15.2220  15.2220  15.9282  15.9282  16.0910  16.0910
    16.5740  16.5741  16.7479  16.7479  16.8270  16.8273  17.1640  17.1640

          k = 0.1250-0.5000-0.4946 ( 34336 PWs)   bands (ev):

   -46.1078 -46.1078 -46.1078 -46.1078 -46.1069 -46.1069 -46.1069 -46.1069
   -22.4183 -22.4183 -22.4183 -22.4183 -22.4159 -22.4159 -22.4159 -22.4159
   -22.3845 -22.3845 -22.3844 -22.3844 -22.3613 -22.3613 -22.3613 -22.3613
   -22.3589 -22.3589 -22.3589 -22.3589 -22.3355 -22.3355 -22.3355 -22.3355
   -14.3500 -14.3500 -14.3500 -14.3499 -14.2697 -14.2697 -14.2696 -14.2696
    -6.4714  -6.4714  -6.4713  -6.4713  -6.2669  -6.2669  -6.2668  -6.2668
    -5.8779  -5.8779  -5.8778  -5.8778  -5.7505  -5.7505  -5.7504  -5.7504
    -5.7374  -5.7374  -5.7373  -5.7373  -5.6545  -5.6545  -5.6544  -5.6544
     0.0871   0.0871   0.0872   0.0872   0.2145   0.2145   0.2146   0.2146
     0.3478   0.3478   0.3479   0.3479   0.4686   0.4686   0.4686   0.4686
     0.5514   0.5514   0.5514   0.5514   0.7064   0.7064   0.7064   0.7064
     6.3243   6.3243   6.3244   6.3244   6.8772   6.8772   6.8773   6.8773
     7.0211   7.0211   7.0211   7.0211   7.2307   7.2307   7.2308   7.2308
     7.2477   7.2477   7.2477   7.2478   7.3576   7.3576   7.3577   7.3577
     7.6453   7.6453   7.6454   7.6454   7.8760   7.8760   7.8761   7.8761
     7.8896   7.8896   7.8897   7.8897   8.0975   8.0975   8.0975   8.0975
     8.1950   8.1950   8.1951   8.1951   8.7918   8.7918   8.7919   8.7919
     9.3088   9.3088   9.3088   9.3088   9.4013   9.4013   9.4013   9.4013
     9.4238   9.4238   9.4239   9.4239   9.6940   9.6940   9.6940   9.6940
     9.7819   9.7819   9.7819   9.7819   9.8709   9.8709   9.8711   9.8711
    13.2076  13.2076  13.2077  13.2077  13.3796  13.3797  13.3797  13.3797
    13.5546  13.5547  13.5547  13.5547  13.7477  13.7477  13.7477  13.7478
    14.1204  14.1204  14.1204  14.1204  14.1628  14.1628  14.1628  14.1628
    15.1761  15.1761  15.1761  15.1761  16.3235  16.3235  16.3236  16.3236
    16.4199  16.4200  16.4201  16.4201  17.2258  17.2287  17.2290  17.2291

          k = 0.2500 0.2500 0.0000 ( 34370 PWs)   bands (ev):

   -46.1085 -46.1078 -46.1078 -46.1077 -46.1071 -46.1069 -46.1069 -46.1062
   -22.4428 -22.4404 -22.4404 -22.4384 -22.3950 -22.3935 -22.3935 -22.3920
   -22.3812 -22.3812 -22.3791 -22.3787 -22.3783 -22.3783 -22.3767 -22.3765
   -22.3433 -22.3429 -22.3415 -22.3415 -22.3412 -22.3410 -22.3396 -22.3396
   -14.4241 -14.3429 -14.3429 -14.3238 -14.2835 -14.2690 -14.2690 -14.2195
    -6.6631  -6.6631  -6.5743  -6.5415  -6.3867  -6.1686  -6.1686  -5.8757
    -5.8557  -5.8557  -5.8309  -5.8309  -5.8014  -5.7831  -5.7635  -5.7540
    -5.7501  -5.7282  -5.7144  -5.7108  -5.7107  -5.6125  -5.6125  -5.6069
    -0.2394  -0.1221  -0.0293   0.2150   0.2150   0.3107   0.3294   0.3294
     0.3650   0.3817   0.4126   0.4478   0.4587   0.4587   0.5220   0.5375
     0.5376   0.5849   0.5849   0.6187   0.6631   0.6783   0.6816   0.6816
     6.1083   6.1983   6.1983   6.2988   6.3284   6.5696   6.5696   6.5994
     6.5994   6.6818   6.7023   6.8012   6.8012   6.8061   6.8117   7.3152
     7.5374   7.5687   7.5687   7.6118   7.6406   7.6484   7.6484   7.6595
     7.6889   7.7092   7.7092   7.7882   7.7882   7.8047   7.8672   7.8672
     7.9037   7.9138   7.9597   7.9897   8.0218   8.2431   8.2431   8.4263
     8.4263   8.6078   8.6911   8.6911   8.6996   8.7628   9.0102   9.0103
     9.1103   9.1132   9.1332   9.2064   9.2165   9.2729   9.3317   9.4165
     9.4165   9.4428   9.4428   9.4749   9.5152   9.5152   9.6057   9.6057
     9.9383   9.9420  10.0394  10.0773  10.0842  10.0842  10.1495  10.1716
    12.6314  12.7657  12.7748  12.7789  12.7789  12.8785  13.7248  13.7514
    13.7514  13.7782  13.7782  13.8399  13.8584  13.8584  13.9820  14.0148
    14.0580  14.0580  14.1545  14.2902  14.2902  14.3720  14.4568  14.4670
    14.8031  14.8299  14.8299  15.1144  15.1382  15.1416  15.7436  15.7436
    15.9473  16.0372  16.3524  16.3524  16.8059  17.2380  17.2701  17.3228

          k = 0.2500 0.2500 0.1236 ( 34365 PWs)   bands (ev):

   -46.1085 -46.1078 -46.1078 -46.1077 -46.1071 -46.1070 -46.1070 -46.1062
   -22.4410 -22.4386 -22.4386 -22.4367 -22.3968 -22.3953 -22.3953 -22.3938
   -22.3811 -22.3811 -22.3790 -22.3786 -22.3784 -22.3784 -22.3767 -22.3765
   -22.3432 -22.3428 -22.3414 -22.3414 -22.3413 -22.3410 -22.3397 -22.3397
   -14.4204 -14.3402 -14.3401 -14.3277 -14.2811 -14.2719 -14.2719 -14.2220
    -6.6457  -6.6457  -6.5658  -6.5340  -6.3683  -6.1884  -6.1884  -5.8802
    -5.8550  -5.8550  -5.8384  -5.8292  -5.8292  -5.7995  -5.7521  -5.7487
    -5.7425  -5.7303  -5.7127  -5.7066  -5.7066  -5.6182  -5.6182  -5.6128
    -0.2192  -0.1360   0.0287   0.2254   0.2254   0.2888   0.3220   0.3221
     0.3657   0.3812   0.3947   0.4000   0.4388   0.4388   0.5216   0.5216
     0.5542   0.5703   0.6019   0.6019   0.6726   0.6957   0.6957   0.6993
     6.1491   6.2414   6.2414   6.3287   6.3552   6.5906   6.5906   6.5907
     6.5907   6.7029   6.7365   6.8060   6.8113   6.8242   6.8242   7.3243
     7.5264   7.5316   7.5316   7.6205   7.6234   7.6535   7.6535   7.6874
     7.6898   7.6898   7.6980   7.8058   7.8059   7.8115   7.8677   7.8677
     7.9022   7.9059   7.9419   7.9464   8.0356   8.1413   8.1413   8.4348
     8.4348   8.5813   8.6065   8.6848   8.7721   8.7721   9.0359   9.0359
     9.0434   9.1268   9.1519   9.2429   9.2496   9.3009   9.3588   9.3843
     9.3843   9.4037   9.4037   9.4903   9.5446   9.5446   9.5661   9.5661
     9.8979   9.9182  10.0036  10.0438  10.0674  10.0674  10.1537  10.1694
    12.6739  12.7946  12.8053  12.8325  12.8325  12.8735  13.7529  13.7577
    13.7577  13.7852  13.7852  13.8533  13.8533  13.8591  13.9313  13.9657
    14.0118  14.0118  14.1626  14.2581  14.2581  14.3612  14.4254  14.4368
    14.9127  14.9240  14.9240  15.1158  15.1370  15.2623  15.7409  15.7409
    16.0051  16.1033  16.3768  16.3768  16.7503  17.2343  17.3114  17.3592

          k = 0.2500 0.2500 0.2473 ( 34347 PWs)   bands (ev):

   -46.1084 -46.1078 -46.1077 -46.1077 -46.1071 -46.1071 -46.1070 -46.1063
   -22.4358 -22.4335 -22.4335 -22.4317 -22.4020 -22.4004 -22.4004 -22.3988
   -22.3808 -22.3808 -22.3788 -22.3788 -22.3787 -22.3784 -22.3770 -22.3768
   -22.3430 -22.3426 -22.3415 -22.3413 -22.3412 -22.3412 -22.3399 -22.3399
   -14.4097 -14.3388 -14.3323 -14.3323 -14.2800 -14.2800 -14.2742 -14.2290
    -6.5957  -6.5957  -6.5437  -6.5161  -6.3151  -6.2454  -6.2454  -5.9239
    -5.8890  -5.8494  -5.8494  -5.8255  -5.8255  -5.7940  -5.7807  -5.7577
    -5.7335  -5.7081  -5.7074  -5.6976  -5.6975  -5.6335  -5.6335  -5.6295
    -0.1616  -0.1263   0.1465   0.2269   0.2527   0.2527   0.2871   0.3131
     0.3131   0.3679   0.3741   0.3797   0.3923   0.3923   0.4847   0.4848
     0.5033   0.6148   0.6355   0.6409   0.6409   0.7176   0.7176   0.7315
     6.2391   6.3304   6.3415   6.3415   6.5154   6.5666   6.5666   6.6674
     6.6674   6.7909   6.8058   6.8101   6.8337   6.9019   6.9019   7.3634
     7.4063   7.4063   7.4800   7.4965   7.6532   7.6532   7.6583   7.6628
     7.6628   7.7039   7.7935   7.7935   7.8120   7.8291   7.8398   7.8592
     7.8592   7.8812   7.8971   7.9090   8.0631   8.0631   8.0758   8.3544
     8.4552   8.4552   8.5011   8.5267   8.7302   8.7302   8.9634   9.1456
     9.1723   9.1988   9.1988   9.2285   9.3014   9.3014   9.3091   9.3863
     9.3863   9.4244   9.4366   9.5028   9.5028   9.5348   9.5529   9.5529
     9.8101   9.8619   9.9001   9.9584  10.0131  10.0131  10.1561  10.1640
    12.7409  12.8589  12.9004  12.9228  12.9803  12.9803  13.7730  13.7730
    13.7884  13.8113  13.8113  13.8257  13.8275  13.8275  13.8305  13.8924
    13.8924  13.9147  14.1722  14.1723  14.1860  14.3210  14.3417  14.3644
    15.1194  15.1342  15.1573  15.1573  15.2019  15.5889  15.7276  15.7276
    16.1703  16.2985  16.4622  16.4622  16.5862  17.1573  17.3596  17.4080

          k = 0.2500 0.2500 0.3709 ( 34338 PWs)   bands (ev):

   -46.1083 -46.1079 -46.1075 -46.1075 -46.1072 -46.1072 -46.1068 -46.1065
   -22.4281 -22.4260 -22.4260 -22.4242 -22.4098 -22.4080 -22.4080 -22.4064
   -22.3803 -22.3803 -22.3792 -22.3792 -22.3783 -22.3780 -22.3774 -22.3772
   -22.3427 -22.3423 -22.3418 -22.3416 -22.3409 -22.3409 -22.3402 -22.3402
   -14.3937 -14.3553 -14.3204 -14.3204 -14.2922 -14.2921 -14.2640 -14.2395
    -6.5192  -6.5192  -6.5172  -6.5002  -6.3297  -6.3297  -6.2334  -6.0255
    -5.8899  -5.8379  -5.8379  -5.8292  -5.8233  -5.8233  -5.7857  -5.7661
    -5.7104  -5.7022  -5.6981  -5.6870  -5.6869  -5.6541  -5.6539  -5.6539
    -0.0745  -0.0711   0.1356   0.1523   0.2803   0.2803   0.2872   0.3306
     0.3306   0.3426   0.3427   0.3709   0.3737   0.3773   0.4352   0.4352
     0.4425   0.5518   0.6742   0.6826   0.6826   0.7257   0.7257   0.7385
     6.3070   6.3330   6.4316   6.4316   6.5325   6.5325   6.7528   6.8061
     6.8085   6.8177   6.8177   6.9757   6.9834   7.0585   7.0585   7.2139
     7.2139   7.2889   7.3881   7.4451   7.5340   7.5340   7.6321   7.6711
     7.6711   7.7054   7.7079   7.7079   7.7133   7.8380   7.8512   7.8873
     7.8994   7.9362   7.9362   7.9872   8.0444   8.0444   8.0703   8.1414
     8.3666   8.3668   8.4793   8.4793   8.6050   8.6050   8.9190   9.0153
     9.2348   9.2503   9.2503   9.2833   9.2833   9.3252   9.3698   9.3994
     9.3994   9.5180   9.5180   9.5429   9.5545   9.5792   9.5792   9.6041
     9.7285   9.7415   9.7809   9.8367   9.9130   9.9130  10.1551  10.1584
    12.7785  12.8366  13.1085  13.1120  13.1922  13.1922  13.5790  13.6156
    13.6661  13.6661  13.7926  13.7926  13.8376  13.8376  13.8652  13.8652
    13.9438  14.0010  14.0596  14.0596  14.2141  14.2214  14.2289  14.3102
    15.1235  15.1308  15.4136  15.4136  15.5842  15.6880  15.6880  16.0371
    16.3224  16.4213  16.6108  16.6403  16.6403  16.9119  17.2448  17.2455

          k = 0.2500 0.2500-0.4946 ( 34304 PWs)   bands (ev):

   -46.1081 -46.1081 -46.1074 -46.1074 -46.1074 -46.1074 -46.1066 -46.1066
   -22.4190 -22.4190 -22.4170 -22.4170 -22.4170 -22.4170 -22.4153 -22.4153
   -22.3798 -22.3798 -22.3798 -22.3798 -22.3779 -22.3779 -22.3776 -22.3776
   -22.3423 -22.3422 -22.3419 -22.3419 -22.3405 -22.3405 -22.3405 -22.3405
   -14.3746 -14.3745 -14.3064 -14.3063 -14.3063 -14.3063 -14.2518 -14.2517
    -6.4996  -6.4995  -6.4262  -6.4262  -6.4261  -6.4261  -6.1329  -6.1328
    -5.8702  -5.8701  -5.8272  -5.8272  -5.8272  -5.8271  -5.7760  -5.7759
    -5.6978  -5.6977  -5.6826  -5.6825  -5.6730  -5.6730  -5.6729  -5.6729
     0.0259   0.0260   0.0296   0.0297   0.3046   0.3047   0.3047   0.3047
     0.3742   0.3743   0.3795   0.3796   0.3796   0.3796   0.3972   0.3973
     0.4294   0.4294   0.7134   0.7134   0.7134   0.7134   0.7182   0.7182
     6.3307   6.3308   6.4899   6.4899   6.4900   6.4900   6.8070   6.8071
     7.0085   7.0086   7.0086   7.0086   7.0264   7.0265   7.1054   7.1054
     7.2966   7.2966   7.2967   7.2967   7.4139   7.4140   7.5657   7.5657
     7.6820   7.6820   7.6821   7.6821   7.7783   7.7784   7.8718   7.8718
     7.9335   7.9335   8.0065   8.0066   8.0066   8.0066   8.1845   8.1846
     8.2364   8.2365   8.5180   8.5180   8.5180   8.5180   8.9308   8.9308
     9.2527   9.2527   9.2527   9.2527   9.2940   9.2940   9.4557   9.4557
     9.4557   9.4557   9.5529   9.5529   9.6446   9.6446   9.6900   9.6901
     9.6951   9.6951   9.7617   9.7617   9.7618   9.7618  10.1551  10.1553
    12.8091  12.8092  13.3391  13.3392  13.3655  13.3655  13.4327  13.4327
    13.4328  13.4328  13.8144  13.8144  13.8144  13.8144  13.9502  13.9502
    13.9502  13.9502  14.0778  14.0778  14.1097  14.1098  14.2644  14.2644
    15.1273  15.1273  15.5945  15.5945  15.5945  15.5945  15.9770  15.9772
    16.5098  16.5100  16.7287  16.7288  16.9213  16.9214  16.9215  17.0141

          k = 0.2500 0.3750 0.0000 ( 34350 PWs)   bands (ev):

   -46.1084 -46.1080 -46.1076 -46.1075 -46.1073 -46.1071 -46.1068 -46.1064
   -22.4422 -22.4409 -22.4399 -22.4389 -22.3946 -22.3938 -22.3931 -22.3923
   -22.3807 -22.3794 -22.3779 -22.3770 -22.3725 -22.3703 -22.3698 -22.3681
   -22.3519 -22.3501 -22.3497 -22.3481 -22.3427 -22.3418 -22.3407 -22.3399
   -14.4058 -14.3618 -14.3294 -14.3114 -14.2973 -14.2817 -14.2578 -14.2310
    -6.6214  -6.5966  -6.5525  -6.4896  -6.4453  -6.2725  -6.0826  -5.8692
    -5.8576  -5.8377  -5.8368  -5.8262  -5.8102  -5.7945  -5.7870  -5.7653
    -5.7571  -5.7349  -5.7111  -5.7047  -5.6856  -5.6784  -5.6444  -5.6277
    -0.1611  -0.0211   0.0882   0.1202   0.2223   0.2316   0.3175   0.3262
     0.3694   0.4016   0.4073   0.4230   0.4398   0.4481   0.5070   0.5126
     0.5652   0.5780   0.5810   0.6120   0.6355   0.6440   0.6471   0.6620
     6.1607   6.1957   6.2466   6.2860   6.4307   6.5577   6.6694   6.6872
     6.7141   6.8477   6.8947   6.9128   6.9875   7.0112   7.0286   7.0970
     7.3561   7.3733   7.4281   7.5144   7.5639   7.5890   7.6082   7.6289
     7.6451   7.7039   7.7133   7.7985   7.8178   7.8294   7.8446   7.8907
     7.9154   7.9505   7.9739   7.9818   8.0500   8.1383   8.1815   8.3340
     8.4314   8.5560   8.6101   8.6200   8.6576   8.7257   8.8837   9.0135
     9.0406   9.0664   9.1414   9.1789   9.1884   9.3021   9.3382   9.4083
     9.4415   9.4498   9.4835   9.5369   9.5798   9.6197   9.6920   9.7173
     9.8266   9.8757   9.9167   9.9221   9.9475  10.0743  10.0876  10.1117
    12.6946  12.7569  12.9480  12.9795  12.9976  13.1145  13.5079  13.5137
    13.5404  13.6412  13.7697  13.7980  13.8222  13.9662  14.0018  14.0299
    14.0397  14.0445  14.1289  14.1888  14.2421  14.3296  14.3487  14.4228
    14.8394  14.8402  14.9966  15.1369  15.3810  15.4826  15.6926  16.1366
    16.1941  16.2854  16.3357  16.6347  16.9849  17.0013  17.0360  17.3321

          k = 0.2500 0.3750 0.1236 ( 34359 PWs)   bands (ev):

   -46.1083 -46.1079 -46.1076 -46.1075 -46.1072 -46.1071 -46.1068 -46.1064
   -22.4404 -22.4392 -22.4382 -22.4371 -22.3965 -22.3956 -22.3949 -22.3941
   -22.3806 -22.3793 -22.3780 -22.3771 -22.3724 -22.3703 -22.3699 -22.3682
   -22.3518 -22.3500 -22.3497 -22.3482 -22.3427 -22.3418 -22.3408 -22.3400
   -14.4023 -14.3588 -14.3268 -14.3150 -14.2948 -14.2848 -14.2605 -14.2335
    -6.6058  -6.5789  -6.5423  -6.4840  -6.4271  -6.2798  -6.1051  -5.9089
    -5.8620  -5.8364  -5.8343  -5.8342  -5.8080  -5.7858  -5.7750  -5.7710
    -5.7610  -5.7361  -5.7093  -5.7044  -5.6843  -5.6828  -5.6480  -5.6322
    -0.1433  -0.0372   0.1022   0.1740   0.2066   0.2385   0.3054   0.3193
     0.3680   0.3856   0.3866   0.4140   0.4146   0.4479   0.4760   0.4819
     0.5125   0.5290   0.6123   0.6346   0.6704   0.6818   0.6842   0.6886
     6.2058   6.2399   6.2952   6.3400   6.4276   6.5497   6.6805   6.7066
     6.7265   6.8341   6.9047   6.9295   6.9949   7.0064   7.0477   7.1116
     7.3399   7.3631   7.3963   7.5325   7.5587   7.5940   7.5955   7.6379
     7.6619   7.7106   7.7307   7.7661   7.8037   7.8380   7.8556   7.8906
     7.9066   7.9105   7.9587   7.9933   8.0663   8.1067   8.1426   8.2282
     8.4150   8.5484   8.5506   8.5894   8.6216   8.7638   8.8474   8.9904
     9.0932   9.1111   9.1497   9.2128   9.2379   9.2969   9.3271   9.4171
     9.4185   9.4816   9.5088   9.5197   9.5216   9.6565   9.6598   9.7052
     9.7940   9.8516   9.8702   9.9332   9.9398  10.0678  10.0694  10.0961
    12.7462  12.8103  12.9729  13.0112  13.0260  13.1093  13.5181  13.5457
    13.5484  13.6362  13.7812  13.8163  13.8292  13.9519  13.9588  13.9923
    13.9971  14.0381  14.0855  14.1507  14.2320  14.2977  14.3136  14.3915
    14.9350  14.9413  15.1048  15.2565  15.3824  15.4914  15.6904  16.1581
    16.1939  16.3333  16.3979  16.6442  16.9280  17.0405  17.0491  17.3303

          k = 0.2500 0.3750 0.2473 ( 34339 PWs)   bands (ev):

   -46.1082 -46.1079 -46.1076 -46.1075 -46.1072 -46.1071 -46.1069 -46.1065
   -22.4353 -22.4341 -22.4331 -22.4321 -22.4017 -22.4008 -22.4000 -22.3992
   -22.3803 -22.3791 -22.3783 -22.3773 -22.3721 -22.3702 -22.3700 -22.3684
   -22.3516 -22.3500 -22.3498 -22.3484 -22.3424 -22.3416 -22.3410 -22.3402
   -14.3922 -14.3503 -14.3255 -14.3191 -14.2937 -14.2877 -14.2684 -14.2408
    -6.5617  -6.5282  -6.5157  -6.4707  -6.3746  -6.3052  -6.1673  -5.9897
    -5.8727  -5.8486  -5.8367  -5.8242  -5.8052  -5.8027  -5.7814  -5.7513
    -5.7493  -5.7418  -5.7072  -5.7034  -5.6934  -5.6824  -5.6576  -5.6454
    -0.0937  -0.0390   0.1414   0.1855   0.2454   0.2576   0.2857   0.3240
     0.3284   0.3310   0.3582   0.3619   0.3788   0.3870   0.4259   0.4359
     0.4621   0.5550   0.6733   0.6742   0.6816   0.7221   0.7298   0.7319
     6.3083   6.3408   6.4194   6.4214   6.4909   6.5286   6.7371   6.7744
     6.7865   6.7953   6.9252   6.9833   6.9983   7.0260   7.1101   7.1630
     7.2526   7.2994   7.3721   7.4761   7.5567   7.5734   7.6071   7.7024
     7.7074   7.7118   7.7237   7.7316   7.7355   7.8245   7.8669   7.8914
     7.8937   7.8999   7.9256   7.9987   8.0033   8.0280   8.1302   8.1526
     8.3422   8.3756   8.4183   8.5299   8.5319   8.7070   8.7774   8.8998
     9.2139   9.2472   9.2554   9.2656   9.2807   9.3262   9.3686   9.4078
     9.4476   9.4531   9.4905   9.5253   9.5690   9.6117   9.6748   9.6775
     9.7255   9.7852   9.8004   9.9026   9.9126  10.0052  10.0569  10.0620
    12.8807  12.9575  13.0238  13.0840  13.0942  13.1548  13.5423  13.5811
    13.6203  13.6343  13.8126  13.8139  13.8516  13.8583  13.8650  13.8695
    13.9236  13.9783  14.0475  14.0615  14.1925  14.2124  14.2281  14.3080
    15.1681  15.1811  15.3853  15.3864  15.5453  15.5801  15.6800  16.1846
    16.2368  16.4716  16.5825  16.6795  16.7601  17.0492  17.2951  17.3244

          k = 0.2500 0.3750 0.3709 ( 34360 PWs)   bands (ev):

   -46.1081 -46.1078 -46.1077 -46.1074 -46.1074 -46.1070 -46.1070 -46.1067
   -22.4276 -22.4265 -22.4256 -22.4246 -22.4094 -22.4084 -22.4077 -22.4068
   -22.3798 -22.3788 -22.3787 -22.3777 -22.3717 -22.3707 -22.3697 -22.3688
   -22.3512 -22.3504 -22.3495 -22.3487 -22.3421 -22.3413 -22.3413 -22.3405
   -14.3771 -14.3410 -14.3374 -14.3076 -14.3068 -14.2802 -14.2770 -14.2517
    -6.4964  -6.4841  -6.4595  -6.4504  -6.3539  -6.2940  -6.2560  -6.0891
    -5.8807  -5.8548  -5.8451  -5.8411  -5.8107  -5.7984  -5.7732  -5.7513
    -5.7362  -5.7354  -5.7077  -5.7036  -5.6991  -5.6813  -5.6693  -5.6647
    -0.0266   0.0087   0.1539   0.1789   0.2078   0.2080   0.2634   0.2833
     0.3303   0.3453   0.3455   0.3459   0.3586   0.3695   0.3883   0.4088
     0.4140   0.6272   0.6327   0.7258   0.7262   0.7263   0.7540   0.7589
     6.3858   6.4169   6.4235   6.5003   6.5562   6.7055   6.7364   6.8697
     6.9121   6.9122   6.9391   7.0219   7.0864   7.0992   7.1379   7.1413
     7.2310   7.2641   7.2990   7.3700   7.5147   7.5878   7.6109   7.6133
     7.6294   7.6302   7.6448   7.7464   7.7625   7.8672   7.8755   7.8909
     7.8915   7.9089   7.9119   7.9491   7.9647   8.0892   8.1043   8.1106
     8.1733   8.1989   8.3054   8.3638   8.5052   8.5819   8.7205   8.7766
     9.2593   9.3326   9.3376   9.3458   9.3459   9.3820   9.3908   9.4784
     9.5082   9.5119   9.5341   9.5344   9.6372   9.6507   9.6549   9.6602
     9.6621   9.6638   9.7444   9.8138   9.8554   9.8929  10.0382  10.0426
    12.9950  13.0706  13.1512  13.1680  13.2345  13.3407  13.5690  13.5789
    13.6103  13.6543  13.6611  13.6862  13.7634  13.7656  13.8556  13.9009
    13.9081  13.9269  13.9531  14.0691  14.0973  14.0995  14.1633  14.2044
    15.3424  15.3863  15.4149  15.6496  15.7313  15.7754  16.0242  16.1388
    16.4129  16.4906  16.6858  16.7676  16.8784  16.8809  17.0221  17.2325

          k = 0.2500 0.3750-0.4946 ( 34362 PWs)   bands (ev):

   -46.1079 -46.1079 -46.1075 -46.1075 -46.1072 -46.1072 -46.1068 -46.1068
   -22.4185 -22.4185 -22.4175 -22.4175 -22.4166 -22.4166 -22.4157 -22.4157
   -22.3793 -22.3793 -22.3782 -22.3782 -22.3712 -22.3712 -22.3692 -22.3692
   -22.3508 -22.3508 -22.3491 -22.3491 -22.3417 -22.3417 -22.3409 -22.3409
   -14.3591 -14.3591 -14.3222 -14.3221 -14.2940 -14.2939 -14.2644 -14.2644
    -6.4624  -6.4623  -6.4221  -6.4220  -6.3554  -6.3553  -6.1949  -6.1948
    -5.8734  -5.8733  -5.8496  -5.8495  -5.8005  -5.8004  -5.7625  -5.7624
    -5.7301  -5.7300  -5.7081  -5.7080  -5.6855  -5.6854  -5.6780  -5.6779
     0.0544   0.0544   0.0998   0.0999   0.2087   0.2088   0.2803   0.2804
     0.3105   0.3105   0.3367   0.3367   0.3586   0.3587   0.3778   0.3778
     0.5348   0.5348   0.6943   0.6943   0.7524   0.7524   0.7569   0.7569
     6.4114   6.4115   6.4682   6.4683   6.6594   6.6595   6.9359   6.9360
     6.9445   6.9445   7.0129   7.0130   7.1025   7.1026   7.1208   7.1208
     7.3131   7.3132   7.4148   7.4149   7.4194   7.4195   7.4451   7.4451
     7.6166   7.6167   7.6963   7.6964   7.7915   7.7916   7.8873   7.8873
     7.9354   7.9354   7.9588   7.9588   8.0393   8.0393   8.0478   8.0479
     8.1852   8.1853   8.2354   8.2354   8.5061   8.5062   8.7102   8.7103
     9.3022   9.3022   9.3553   9.3553   9.3858   9.3859   9.5078   9.5078
     9.5085   9.5086   9.5863   9.5864   9.6429   9.6430   9.6805   9.6805
     9.6949   9.6949   9.7297   9.7297   9.7613   9.7613  10.0338  10.0340
    13.0395  13.0396  13.3772  13.3773  13.4030  13.4031  13.4381  13.4382
    13.5545  13.5546  13.6010  13.6011  13.7677  13.7678  13.8923  13.8924
    13.9149  13.9150  13.9881  13.9881  14.0595  14.0595  14.1420  14.1420
    15.3793  15.3793  15.5744  15.5744  16.0034  16.0035  16.1428  16.1429
    16.4917  16.4919  16.6990  16.6991  16.9550  16.9552  16.9553  16.9556

          k = 0.2500-0.5000 0.0000 ( 34342 PWs)   bands (ev):

   -46.1082 -46.1082 -46.1074 -46.1074 -46.1073 -46.1073 -46.1066 -46.1066
   -22.4416 -22.4416 -22.4394 -22.4394 -22.3942 -22.3942 -22.3927 -22.3927
   -22.3801 -22.3801 -22.3774 -22.3774 -22.3622 -22.3622 -22.3602 -22.3602
   -22.3598 -22.3598 -22.3581 -22.3581 -22.3423 -22.3423 -22.3403 -22.3403
   -14.3839 -14.3839 -14.3134 -14.3134 -14.2966 -14.2966 -14.2444 -14.2444
    -6.5806  -6.5806  -6.5195  -6.5194  -6.3847  -6.3847  -5.9781  -5.9781
    -5.8446  -5.8446  -5.8163  -5.8163  -5.7914  -5.7914  -5.7865  -5.7865
    -5.7434  -5.7434  -5.7204  -5.7203  -5.6783  -5.6783  -5.6560  -5.6560
    -0.0457  -0.0456   0.0992   0.0992   0.2657   0.2658   0.2862   0.2862
     0.3600   0.3600   0.3905   0.3905   0.4728   0.4728   0.4898   0.4898
     0.5712   0.5712   0.6174   0.6174   0.6266   0.6266   0.6312   0.6312
     6.1861   6.1861   6.2708   6.2708   6.5047   6.5047   6.7052   6.7052
     6.8720   6.8720   7.1082   7.1082   7.1166   7.1166   7.1399   7.1399
     7.2751   7.2752   7.2939   7.2939   7.3523   7.3523   7.6228   7.6228
     7.7085   7.7085   7.7178   7.7178   7.8652   7.8652   7.8860   7.8860
     7.9237   7.9237   8.0063   8.0063   8.0561   8.0561   8.2481   8.2481
     8.4628   8.4628   8.6037   8.6037   8.7044   8.7044   8.8241   8.8241
     9.1202   9.1202   9.1334   9.1334   9.2425   9.2425   9.3381   9.3382
     9.3931   9.3931   9.6802   9.6802   9.7458   9.7458   9.7481   9.7481
     9.7598   9.7598   9.7878   9.7878   9.9215   9.9215  10.0958  10.0958
    12.7293  12.7293  13.2215  13.2215  13.2415  13.2415  13.2672  13.2672
    13.3816  13.3817  13.7829  13.7829  13.9105  13.9105  14.0261  14.0261
    14.0974  14.0974  14.0999  14.0999  14.2312  14.2312  14.3760  14.3760
    14.8448  14.8448  15.0959  15.0959  15.5796  15.5796  15.8386  15.8386
    16.6435  16.6436  16.6546  16.6546  16.7703  16.7703  16.9867  16.9867

          k = 0.2500-0.5000 0.1236 ( 34336 PWs)   bands (ev):

   -46.1081 -46.1081 -46.1074 -46.1074 -46.1073 -46.1073 -46.1066 -46.1066
   -22.4398 -22.4398 -22.4376 -22.4376 -22.3960 -22.3960 -22.3945 -22.3945
   -22.3800 -22.3800 -22.3775 -22.3775 -22.3621 -22.3621 -22.3602 -22.3602
   -22.3598 -22.3598 -22.3582 -22.3582 -22.3422 -22.3422 -22.3404 -22.3404
   -14.3807 -14.3806 -14.3109 -14.3108 -14.3000 -14.3000 -14.2471 -14.2471
    -6.5675  -6.5675  -6.5016  -6.5015  -6.3840  -6.3840  -6.0059  -6.0059
    -5.8465  -5.8465  -5.8078  -5.8078  -5.8036  -5.8036  -5.7834  -5.7834
    -5.7453  -5.7453  -5.7204  -5.7204  -5.6798  -5.6797  -5.6580  -5.6579
    -0.0300  -0.0300   0.0818   0.0818   0.2698   0.2698   0.3323   0.3323
     0.3393   0.3393   0.3872   0.3872   0.4405   0.4405   0.4598   0.4598
     0.4885   0.4885   0.6596   0.6596   0.6624   0.6624   0.6736   0.6736
     6.2315   6.2315   6.3223   6.3223   6.4984   6.4984   6.7158   6.7158
     6.8903   6.8903   7.1026   7.1026   7.1049   7.1049   7.1182   7.1182
     7.2828   7.2828   7.3113   7.3114   7.3701   7.3701   7.6462   7.6462
     7.6923   7.6923   7.7156   7.7157   7.8454   7.8454   7.8677   7.8677
     7.9336   7.9336   8.0004   8.0004   8.0247   8.0247   8.2545   8.2545
     8.3736   8.3736   8.5688   8.5688   8.6822   8.6822   8.8242   8.8242
     9.1556   9.1556   9.1844   9.1844   9.2435   9.2435   9.3271   9.3271
     9.4210   9.4210   9.6570   9.6570   9.6923   9.6923   9.7503   9.7503
     9.7607   9.7607   9.7943   9.7943   9.9133   9.9133  10.0747  10.0747
    12.7822  12.7822  13.2382  13.2382  13.2770  13.2770  13.2802  13.2802
    13.3765  13.3765  13.7983  13.7983  13.9183  13.9183  13.9775  13.9775
    14.0537  14.0537  14.0907  14.0908  14.1917  14.1917  14.3444  14.3444
    14.9418  14.9418  15.2123  15.2123  15.5793  15.5793  15.8552  15.8552
    16.6588  16.6589  16.6873  16.6881  16.8228  16.8230  16.9878  16.9878

          k = 0.2500-0.5000 0.2473 ( 34354 PWs)   bands (ev):

   -46.1080 -46.1080 -46.1074 -46.1074 -46.1073 -46.1073 -46.1067 -46.1067
   -22.4347 -22.4347 -22.4326 -22.4326 -22.4012 -22.4012 -22.3996 -22.3996
   -22.3797 -22.3797 -22.3778 -22.3778 -22.3619 -22.3619 -22.3601 -22.3601
   -22.3599 -22.3599 -22.3584 -22.3584 -22.3420 -22.3420 -22.3406 -22.3406
   -14.3714 -14.3713 -14.3096 -14.3096 -14.3035 -14.3035 -14.2547 -14.2547
    -6.5315  -6.5315  -6.4499  -6.4499  -6.3857  -6.3857  -6.0763  -6.0763
    -5.8529  -5.8529  -5.8313  -5.8313  -5.7911  -5.7911  -5.7756  -5.7756
    -5.7480  -5.7480  -5.7233  -5.7233  -5.6833  -5.6833  -5.6641  -5.6641
     0.0125   0.0125   0.0691   0.0691   0.2794   0.2795   0.2811   0.2811
     0.3763   0.3763   0.3815   0.3815   0.3890   0.3890   0.4109   0.4109
     0.4297   0.4297   0.7061   0.7062   0.7142   0.7142   0.7145   0.7145
     6.3349   6.3349   6.4618   6.4618   6.4828   6.4828   6.7711   6.7711
     6.9522   6.9522   7.0538   7.0538   7.0783   7.0783   7.0991   7.0991
     7.3035   7.3035   7.3629   7.3629   7.4071   7.4071   7.5961   7.5961
     7.7076   7.7077   7.7116   7.7116   7.7734   7.7734   7.8787   7.8787
     7.9632   7.9632   7.9657   7.9657   7.9863   7.9863   8.1988   8.1988
     8.2540   8.2540   8.4165   8.4165   8.6271   8.6271   8.7461   8.7461
     9.2560   9.2560   9.2662   9.2662   9.2977   9.2977   9.3569   9.3569
     9.4737   9.4737   9.6108   9.6108   9.6184   9.6184   9.7151   9.7151
     9.7586   9.7586   9.8073   9.8074   9.8926   9.8926  10.0111  10.0111
    12.9276  12.9276  13.2747  13.2748  13.3223  13.3223  13.3613  13.3613
    13.3874  13.3874  13.8415  13.8415  13.8433  13.8433  13.9328  13.9328
    13.9409  13.9409  14.0511  14.0511  14.0960  14.0960  14.2597  14.2597
    15.1765  15.1765  15.5244  15.5244  15.5757  15.5758  15.9236  15.9236
    16.6554  16.6554  16.8090  16.8093  16.9862  16.9923  16.9923  17.0153

          k = 0.2500-0.5000 0.3709 ( 34354 PWs)   bands (ev):

   -46.1079 -46.1079 -46.1076 -46.1076 -46.1072 -46.1072 -46.1068 -46.1068
   -22.4271 -22.4271 -22.4251 -22.4251 -22.4089 -22.4089 -22.4072 -22.4072
   -22.3793 -22.3793 -22.3783 -22.3783 -22.3615 -22.3615 -22.3605 -22.3605
   -22.3596 -22.3596 -22.3588 -22.3588 -22.3417 -22.3417 -22.3409 -22.3409
   -14.3574 -14.3573 -14.3240 -14.3239 -14.2924 -14.2924 -14.2660 -14.2660
    -6.4819  -6.4819  -6.3997  -6.3997  -6.3706  -6.3706  -6.1706  -6.1706
    -5.8627  -5.8627  -5.8570  -5.8570  -5.7757  -5.7757  -5.7677  -5.7677
    -5.7463  -5.7463  -5.7304  -5.7304  -5.6858  -5.6858  -5.6738  -5.6738
     0.0611   0.0611   0.1058   0.1059   0.1957   0.1957   0.2812   0.2812
     0.2969   0.2969   0.3422   0.3422   0.3692   0.3692   0.3755   0.3755
     0.5368   0.5368   0.6905   0.6905   0.7541   0.7541   0.7546   0.7546
     6.4145   6.4145   6.4649   6.4649   6.6438   6.6438   6.9062   6.9062
     6.9506   6.9506   7.0482   7.0482   7.0727   7.0727   7.1329   7.1329
     7.3216   7.3216   7.4364   7.4364   7.4391   7.4391   7.4496   7.4496
     7.6212   7.6212   7.6884   7.6884   7.8034   7.8034   7.8946   7.8946
     7.9155   7.9155   7.9872   7.9872   8.0274   8.0274   8.0391   8.0391
     8.2000   8.2000   8.2037   8.2037   8.5699   8.5699   8.6194   8.6194
     9.3174   9.3174   9.3469   9.3469   9.3784   9.3784   9.5074   9.5074
     9.5154   9.5154   9.5345   9.5345   9.5668   9.5668   9.7082   9.7082
     9.7580   9.7580   9.7888   9.7889   9.8700   9.8700   9.9158   9.9158
    13.1295  13.1295  13.3144  13.3144  13.3357  13.3357  13.4279  13.4279
    13.5435  13.5436  13.6434  13.6434  13.7629  13.7629  13.9079  13.9079
    13.9145  13.9145  13.9774  13.9774  14.0426  14.0426  14.1470  14.1470
    15.4027  15.4027  15.5613  15.5613  15.9412  15.9413  16.1049  16.1049
    16.5856  16.5856  16.7460  16.7460  17.0083  17.0083  17.2228  17.2232

          k = 0.2500-0.5000-0.4946 ( 34368 PWs)   bands (ev):

   -46.1077 -46.1077 -46.1077 -46.1077 -46.1070 -46.1070 -46.1070 -46.1070
   -22.4180 -22.4180 -22.4180 -22.4180 -22.4162 -22.4162 -22.4162 -22.4162
   -22.3788 -22.3788 -22.3787 -22.3787 -22.3610 -22.3610 -22.3610 -22.3610
   -22.3592 -22.3592 -22.3592 -22.3592 -22.3413 -22.3413 -22.3413 -22.3413
   -14.3408 -14.3408 -14.3407 -14.3407 -14.2793 -14.2793 -14.2792 -14.2792
    -6.4333  -6.4333  -6.4332  -6.4332  -6.2735  -6.2735  -6.2734  -6.2733
    -5.8676  -5.8676  -5.8675  -5.8675  -5.7668  -5.7668  -5.7667  -5.7667
    -5.7394  -5.7394  -5.7393  -5.7393  -5.6829  -5.6829  -5.6828  -5.6828
     0.1170   0.1170   0.1170   0.1170   0.1872   0.1872   0.1872   0.1872
     0.3155   0.3155   0.3155   0.3155   0.3633   0.3633   0.3633   0.3633
     0.6299   0.6299   0.6299   0.6299   0.7688   0.7688   0.7688   0.7688
     6.4469   6.4469   6.4470   6.4471   6.8136   6.8136   6.8137   6.8137
     7.0089   7.0089   7.0090   7.0090   7.2487   7.2487   7.2487   7.2488
     7.2643   7.2643   7.2643   7.2644   7.4844   7.4844   7.4844   7.4844
     7.5690   7.5690   7.5690   7.5691   7.8984   7.8984   7.8985   7.8985
     7.9081   7.9081   7.9081   7.9081   8.0508   8.0508   8.0508   8.0508
     8.1182   8.1183   8.1183   8.1183   8.5527   8.5527   8.5527   8.5527
     9.3738   9.3738   9.3739   9.3739   9.4405   9.4405   9.4405   9.4405
     9.5376   9.5376   9.5377   9.5377   9.6848   9.6848   9.6848   9.6848
     9.7375   9.7375   9.7375   9.7375   9.8633   9.8633   9.8635   9.8635
    13.2882  13.2882  13.2882  13.2883  13.4263  13.4263  13.4264  13.4264
    13.5825  13.5825  13.5826  13.5826  13.7252  13.7253  13.7253  13.7253
    13.9919  13.9919  13.9919  13.9919  14.0398  14.0398  14.0398  14.0398
    15.5182  15.5182  15.5182  15.5182  16.3420  16.3420  16.3421  16.3421
    16.4141  16.4141  16.4142  16.4142  17.0646  17.0646  17.0646  17.0646

          k = 0.3750 0.3750 0.0000 ( 34340 PWs)   bands (ev):

   -46.1082 -46.1078 -46.1078 -46.1074 -46.1073 -46.1069 -46.1069 -46.1066
   -22.4417 -22.4405 -22.4405 -22.4393 -22.3943 -22.3935 -22.3935 -22.3927
   -22.3720 -22.3720 -22.3712 -22.3705 -22.3694 -22.3694 -22.3687 -22.3683
   -22.3518 -22.3511 -22.3505 -22.3505 -22.3495 -22.3491 -22.3485 -22.3485
   -14.3885 -14.3472 -14.3472 -14.3123 -14.2992 -14.2702 -14.2702 -14.2427
    -6.5702  -6.5702  -6.5445  -6.4728  -6.4045  -6.1869  -6.1869  -5.9710
    -5.8316  -5.8183  -5.8183  -5.8137  -5.8136  -5.8015  -5.7913  -5.7742
    -5.7656  -5.7305  -5.7185  -5.7047  -5.7047  -5.6888  -5.6888  -5.6410
    -0.1074   0.0726   0.1067   0.1068   0.2279   0.2581   0.3009   0.3009
     0.3238   0.3534   0.3760   0.3761   0.4675   0.4950   0.5224   0.5224
     0.5351   0.5352   0.5618   0.6202   0.6220   0.6267   0.6540   0.6540
     6.2114   6.2454   6.2454   6.2799   6.5797   6.7832   6.7832   6.7862
     6.7862   6.8735   7.0028   7.0467   7.0617   7.0617   7.0619   7.1466
     7.2577   7.2674   7.4448   7.4448   7.5009   7.5068   7.5505   7.5505
     7.6754   7.7415   7.7415   7.7579   7.8058   7.8058   7.8721   7.8721
     7.8945   7.9248   7.9489   7.9988   8.0215   8.2192   8.2581   8.2582
     8.2701   8.2701   8.5050   8.5764   8.5780   8.5780   8.6178   8.7624
     9.1479   9.1479   9.2266   9.2371   9.2920   9.3938   9.4773   9.4799
     9.4997   9.4997   9.5104   9.5104   9.5485   9.5485   9.7396   9.7803
     9.7848   9.7848   9.8687   9.8692   9.9434   9.9434  10.0019  10.0202
    12.8414  12.9565  12.9565  13.0369  13.1586  13.3108  13.4340  13.5269
    13.5269  13.6109  13.6109  13.6217  13.7699  13.7699  13.8791  14.0334
    14.0721  14.0937  14.1055  14.1055  14.2266  14.2267  14.3011  14.3235
    14.9502  15.0021  15.0021  15.1317  15.7192  15.7701  16.1381  16.1381
    16.4110  16.4110  16.5707  16.6462  16.9375  17.0772  17.0873  17.1965

          k = 0.3750 0.3750 0.1236 ( 34346 PWs)   bands (ev):

   -46.1082 -46.1078 -46.1078 -46.1074 -46.1074 -46.1070 -46.1070 -46.1066
   -22.4399 -22.4387 -22.4387 -22.4376 -22.3961 -22.3953 -22.3953 -22.3945
   -22.3719 -22.3719 -22.3711 -22.3704 -22.3695 -22.3695 -22.3688 -22.3684
   -22.3517 -22.3511 -22.3504 -22.3504 -22.3496 -22.3492 -22.3485 -22.3485
   -14.3852 -14.3443 -14.3443 -14.3097 -14.3027 -14.2732 -14.2732 -14.2454
    -6.5541  -6.5541  -6.5324  -6.4552  -6.4015  -6.1964  -6.1964  -5.9930
    -5.8372  -5.8237  -5.8237  -5.8127  -5.8127  -5.7967  -5.7886  -5.7858
    -5.7611  -5.7323  -5.7213  -5.7075  -5.7075  -5.6899  -5.6898  -5.6460
    -0.0913   0.0539   0.1177   0.1178   0.2329   0.2787   0.2788   0.3070
     0.3080   0.3489   0.3643   0.3643   0.4303   0.4540   0.4688   0.4790
     0.4790   0.5584   0.5584   0.6605   0.6681   0.6819   0.6987   0.6987
     6.2614   6.2943   6.2943   6.3317   6.5709   6.7718   6.7718   6.7874
     6.7874   6.8654   7.0124   7.0467   7.0607   7.0822   7.0822   7.1499
     7.2345   7.2879   7.4196   7.4197   7.5118   7.5424   7.5692   7.5692
     7.6699   7.6835   7.6835   7.7645   7.8605   7.8605   7.8678   7.8776
     7.8776   7.8951   7.9571   7.9887   7.9995   8.1870   8.1870   8.2274
     8.2587   8.2587   8.4470   8.5233   8.5759   8.5759   8.5929   8.7342
     9.1998   9.1998   9.2250   9.2768   9.3275   9.4061   9.4566   9.4566
     9.4801   9.4801   9.4905   9.5011   9.5947   9.5947   9.7056   9.7705
     9.7705   9.7765   9.8492   9.8509   9.9325   9.9325   9.9960  10.0127
    12.8888  13.0023  13.0023  13.0630  13.1676  13.3048  13.4683  13.5423
    13.5423  13.6187  13.6187  13.6405  13.7630  13.7630  13.8876  13.9850
    14.0263  14.0606  14.0606  14.0842  14.1893  14.1893  14.2644  14.2883
    15.0637  15.1116  15.1116  15.2507  15.7224  15.7686  16.1384  16.1384
    16.4173  16.4173  16.6265  16.6829  16.9479  17.0283  17.0750  17.2381

          k = 0.3750 0.3750 0.2473 ( 34359 PWs)   bands (ev):

   -46.1081 -46.1077 -46.1077 -46.1075 -46.1073 -46.1071 -46.1071 -46.1067
   -22.4348 -22.4336 -22.4336 -22.4326 -22.4013 -22.4004 -22.4004 -22.3996
   -22.3716 -22.3716 -22.3708 -22.3702 -22.3698 -22.3698 -22.3690 -22.3687
   -22.3515 -22.3508 -22.3502 -22.3502 -22.3498 -22.3494 -22.3488 -22.3488
   -14.3757 -14.3361 -14.3361 -14.3125 -14.3022 -14.2817 -14.2816 -14.2531
    -6.5081  -6.5081  -6.4997  -6.4047  -6.3964  -6.2279  -6.2279  -6.0528
    -5.8510  -5.8327  -5.8327  -5.8151  -5.8120  -5.8120  -5.7853  -5.7809
    -5.7481  -5.7378  -5.7294  -5.7135  -5.7135  -5.6943  -5.6943  -5.6600
    -0.0454   0.0386   0.1490   0.1490   0.2445   0.2445   0.2471   0.2593
     0.3302   0.3303   0.3359   0.3394   0.3734   0.3915   0.3937   0.3938
     0.4129   0.6319   0.6319   0.7170   0.7255   0.7314   0.7514   0.7515
     6.3821   6.4154   6.4154   6.4724   6.5506   6.7317   6.7317   6.8245
     6.8245   6.8772   7.0469   7.0574   7.0575   7.1381   7.1381   7.1403
     7.1649   7.3452   7.3452   7.3587   7.5276   7.6190   7.6190   7.6248
     7.6248   7.6532   7.6553   7.7386   7.7615   7.8920   7.8920   7.8974
     7.8974   7.8975   7.9462   7.9644   7.9823   8.0643   8.0643   8.2174
     8.2270   8.2270   8.3229   8.3381   8.4851   8.4851   8.5329   8.6326
     9.2545   9.3343   9.3343   9.3756   9.4182   9.4182   9.4208   9.4383
     9.4446   9.4446   9.5274   9.5496   9.6415   9.6415   9.6523   9.7360
     9.7360   9.7626   9.7860   9.8014   9.8960   9.8960   9.9788   9.9932
    13.0160  13.1292  13.1292  13.1432  13.1973  13.2871  13.5628  13.5875
    13.5875  13.6432  13.6432  13.6959  13.7416  13.7416  13.8514  13.8968
    13.9122  13.9368  13.9368  14.0555  14.0878  14.0878  14.1664  14.1916
    15.3663  15.3976  15.3976  15.5730  15.7302  15.7642  16.1336  16.1336
    16.4429  16.4429  16.7912  16.7950  16.8532  16.9742  17.0679  17.2112

          k = 0.3750 0.3750 0.3709 ( 34364 PWs)   bands (ev):

   -46.1079 -46.1076 -46.1075 -46.1075 -46.1072 -46.1072 -46.1071 -46.1068
   -22.4272 -22.4260 -22.4260 -22.4250 -22.4090 -22.4081 -22.4081 -22.4072
   -22.3712 -22.3712 -22.3704 -22.3702 -22.3702 -22.3698 -22.3695 -22.3690
   -22.3511 -22.3505 -22.3502 -22.3499 -22.3499 -22.3497 -22.3491 -22.3491
   -14.3613 -14.3272 -14.3238 -14.3237 -14.2943 -14.2943 -14.2911 -14.2644
    -6.4568  -6.4395  -6.4395  -6.3988  -6.3276  -6.2846  -6.2846  -6.1380
    -5.8645  -5.8473  -5.8339  -5.8339  -5.8159  -5.8159  -5.7717  -5.7692
    -5.7466  -5.7413  -5.7284  -5.7162  -5.7162  -5.7025  -5.7025  -5.6808
     0.0237   0.0584   0.1885   0.1956   0.1956   0.2169   0.2303   0.2304
     0.2681   0.2817   0.2817   0.3162   0.3201   0.3202   0.3345   0.3445
     0.5292   0.6987   0.7045   0.7046   0.7725   0.7725   0.7742   0.7772
     6.4821   6.5313   6.5343   6.5343   6.6586   6.6756   6.6756   6.9437
     6.9437   6.9845   7.0024   7.0479   7.0536   7.1694   7.1820   7.2319
     7.2319   7.2390   7.2390   7.4431   7.5434   7.5434   7.5549   7.5639
     7.6254   7.6839   7.6840   7.7033   7.8171   7.8414   7.8414   7.8996
     7.9040   7.9357   7.9357   7.9378   7.9922   7.9922   8.0269   8.0762
     8.1536   8.1915   8.1915   8.1967   8.3217   8.3217   8.4689   8.4928
     9.3709   9.4029   9.4029   9.4074   9.4074   9.4552   9.4745   9.5405
     9.5424   9.5424   9.5827   9.5968   9.6317   9.6625   9.6625   9.6765
     9.7014   9.7014   9.7269   9.7308   9.8247   9.8247   9.9592   9.9700
    13.1567  13.2590  13.2786  13.2846  13.3122  13.3122  13.6483  13.6483
    13.6634  13.6906  13.6906  13.6983  13.6983  13.7000  13.7052  13.7752
    13.7752  13.7849  13.9493  13.9494  13.9498  13.9950  14.0359  14.0698
    15.7400  15.7464  15.7464  15.7577  15.7726  16.0166  16.1049  16.1049
    16.5178  16.5178  16.5691  16.9100  17.0036  17.0036  17.0056  17.0546

          k = 0.3750 0.3750-0.4946 ( 34374 PWs)   bands (ev):

   -46.1078 -46.1078 -46.1074 -46.1074 -46.1074 -46.1074 -46.1070 -46.1070
   -22.4181 -22.4181 -22.4171 -22.4171 -22.4171 -22.4171 -22.4161 -22.4161
   -22.3707 -22.3707 -22.3707 -22.3707 -22.3699 -22.3699 -22.3694 -22.3694
   -22.3507 -22.3506 -22.3501 -22.3501 -22.3495 -22.3495 -22.3495 -22.3495
   -14.3444 -14.3443 -14.3091 -14.3091 -14.3090 -14.3090 -14.2778 -14.2778
    -6.4191  -6.4189  -6.3600  -6.3600  -6.3599  -6.3599  -6.2344  -6.2343
    -5.8658  -5.8657  -5.8257  -5.8257  -5.8256  -5.8256  -5.7583  -5.7582
    -5.7554  -5.7553  -5.7116  -5.7116  -5.7115  -5.7115  -5.7049  -5.7047
     0.1057   0.1058   0.1193   0.1193   0.2396   0.2396   0.2396   0.2396
     0.2582   0.2582   0.2582   0.2582   0.2923   0.2924   0.3242   0.3243
     0.6312   0.6312   0.7555   0.7555   0.7555   0.7555   0.7928   0.7928
     6.5164   6.5166   6.6124   6.6124   6.6125   6.6125   6.8404   6.8405
     7.0501   7.0502   7.1073   7.1073   7.1073   7.1073   7.1372   7.1373
     7.3557   7.3557   7.3851   7.3851   7.3852   7.3852   7.5606   7.5607
     7.5900   7.5901   7.7545   7.7545   7.7546   7.7546   7.9169   7.9169
     7.9179   7.9180   7.9729   7.9730   7.9730   7.9730   8.0023   8.0024
     8.0965   8.0966   8.2054   8.2054   8.2055   8.2055   8.4374   8.4375
     9.4098   9.4098   9.4098   9.4098   9.4874   9.4875   9.5286   9.5286
     9.6233   9.6233   9.6517   9.6517   9.6531   9.6532   9.6587   9.6587
     9.6588   9.6588   9.7200   9.7200   9.7200   9.7200   9.9549   9.9550
    13.2206  13.2207  13.4602  13.4602  13.4837  13.4837  13.5203  13.5203
    13.5203  13.5204  13.6969  13.6969  13.6969  13.6970  13.8087  13.8087
    13.8088  13.8088  13.8579  13.8579  13.9019  13.9020  13.9975  13.9976
    15.7495  15.7495  16.0016  16.0016  16.0016  16.0016  16.1955  16.1956
    16.4897  16.4899  16.7095  16.7095  16.7095  16.7095  17.0337  17.0337

          k = 0.3750-0.5000 0.0000 ( 34326 PWs)   bands (ev):

   -46.1080 -46.1080 -46.1076 -46.1076 -46.1071 -46.1071 -46.1067 -46.1067
   -22.4411 -22.4411 -22.4399 -22.4399 -22.3939 -22.3939 -22.3931 -22.3931
   -22.3714 -22.3714 -22.3690 -22.3690 -22.3618 -22.3618 -22.3607 -22.3607
   -22.3594 -22.3594 -22.3585 -22.3585 -22.3510 -22.3510 -22.3489 -22.3489
   -14.3680 -14.3679 -14.3298 -14.3298 -14.2848 -14.2847 -14.2565 -14.2565
    -6.5501  -6.5501  -6.5166  -6.5166  -6.2993  -6.2993  -6.0820  -6.0819
    -5.8168  -5.8168  -5.8097  -5.8097  -5.7958  -5.7958  -5.7854  -5.7854
    -5.7627  -5.7626  -5.7279  -5.7279  -5.7012  -5.7012  -5.6635  -5.6635
    -0.0135  -0.0135   0.1542   0.1542   0.1853   0.1853   0.3409   0.3409
     0.3562   0.3562   0.3963   0.3963   0.3988   0.3988   0.5009   0.5009
     0.5655   0.5655   0.5865   0.5865   0.6289   0.6289   0.6467   0.6467
     6.2359   6.2359   6.2693   6.2693   6.7012   6.7012   6.8669   6.8669
     6.8920   6.8920   7.0405   7.0405   7.1196   7.1196   7.2331   7.2331
     7.2983   7.2984   7.3301   7.3301   7.4387   7.4387   7.5176   7.5176
     7.5451   7.5452   7.7874   7.7874   7.8726   7.8726   7.8889   7.8889
     7.9169   7.9169   7.9861   7.9861   8.0992   8.0992   8.1283   8.1283
     8.3704   8.3704   8.4188   8.4188   8.5319   8.5319   8.6159   8.6159
     9.2136   9.2136   9.2294   9.2294   9.3783   9.3784   9.4269   9.4269
     9.4992   9.4992   9.6151   9.6151   9.6340   9.6340   9.7280   9.7280
     9.7363   9.7363   9.8401   9.8402   9.9233   9.9233   9.9512   9.9512
    12.9207  12.9207  13.2107  13.2107  13.2555  13.2556  13.3755  13.3755
    13.5405  13.5406  13.5529  13.5529  13.7288  13.7288  13.9280  13.9280
    14.0741  14.0741  14.1326  14.1326  14.1980  14.1980  14.2713  14.2713
    14.9923  14.9923  15.0943  15.0943  15.9886  15.9886  16.1096  16.1096
    16.5878  16.5878  16.7511  16.7511  16.8724  16.8724  17.0962  17.1006

          k = 0.3750-0.5000 0.1236 ( 34338 PWs)   bands (ev):

   -46.1080 -46.1080 -46.1076 -46.1076 -46.1072 -46.1072 -46.1068 -46.1068
   -22.4393 -22.4393 -22.4381 -22.4381 -22.3957 -22.3957 -22.3949 -22.3949
   -22.3714 -22.3714 -22.3691 -22.3691 -22.3617 -22.3617 -22.3606 -22.3606
   -22.3595 -22.3595 -22.3586 -22.3586 -22.3509 -22.3509 -22.3490 -22.3490
   -14.3649 -14.3648 -14.3271 -14.3271 -14.2880 -14.2880 -14.2594 -14.2593
    -6.5359  -6.5359  -6.4997  -6.4997  -6.3010  -6.3010  -6.0956  -6.0956
    -5.8189  -5.8189  -5.8114  -5.8114  -5.8054  -5.8054  -5.7832  -5.7832
    -5.7630  -5.7630  -5.7297  -5.7297  -5.7038  -5.7038  -5.6671  -5.6671
     0.0000   0.0000   0.1622   0.1622   0.1637   0.1637   0.3265   0.3266
     0.3488   0.3488   0.3656   0.3656   0.4434   0.4434   0.4521   0.4521
     0.4784   0.4784   0.6250   0.6250   0.6908   0.6908   0.6942   0.6942
     6.2860   6.2860   6.3196   6.3196   6.6876   6.6876   6.8579   6.8579
     6.8985   6.8985   7.0156   7.0157   7.1318   7.1318   7.2240   7.2240
     7.3177   7.3177   7.3588   7.3588   7.4257   7.4257   7.5336   7.5336
     7.5420   7.5420   7.7974   7.7974   7.8012   7.8012   7.8908   7.8909
     7.9231   7.9231   8.0336   8.0336   8.0800   8.0800   8.0986   8.0986
     8.3111   8.3111   8.3970   8.3970   8.4963   8.4963   8.5952   8.5952
     9.2641   9.2641   9.2671   9.2671   9.3614   9.3614   9.4193   9.4193
     9.5306   9.5306   9.5849   9.5850   9.6219   9.6219   9.7367   9.7367
     9.7368   9.7368   9.8240   9.8240   9.9127   9.9127   9.9404   9.9404
    12.9662  12.9662  13.2492  13.2492  13.2763  13.2763  13.3840  13.3840
    13.5339  13.5339  13.5713  13.5713  13.7373  13.7373  13.9195  13.9196
    14.0276  14.0276  14.0900  14.0900  14.1569  14.1569  14.2348  14.2348
    15.1043  15.1043  15.2111  15.2111  15.9910  15.9910  16.1115  16.1115
    16.5921  16.5921  16.7503  16.7504  16.9206  16.9207  17.1224  17.1241

          k = 0.3750-0.5000 0.2473 ( 34376 PWs)   bands (ev):

   -46.1079 -46.1079 -46.1075 -46.1075 -46.1073 -46.1073 -46.1069 -46.1069
   -22.4342 -22.4342 -22.4331 -22.4331 -22.4008 -22.4008 -22.4000 -22.4000
   -22.3711 -22.3711 -22.3693 -22.3693 -22.3614 -22.3614 -22.3604 -22.3604
   -22.3597 -22.3597 -22.3588 -22.3588 -22.3507 -22.3507 -22.3492 -22.3492
   -14.3560 -14.3560 -14.3193 -14.3192 -14.2972 -14.2971 -14.2674 -14.2674
    -6.4962  -6.4962  -6.4515  -6.4515  -6.3099  -6.3099  -6.1380  -6.1379
    -5.8273  -5.8273  -5.8270  -5.8270  -5.8121  -5.8121  -5.7796  -5.7796
    -5.7607  -5.7607  -5.7320  -5.7320  -5.7116  -5.7116  -5.6777  -5.6777
     0.0386   0.0386   0.1372   0.1372   0.1847   0.1847   0.2854   0.2854
     0.3165   0.3165   0.3276   0.3276   0.3643   0.3643   0.3759   0.3759
     0.5361   0.5361   0.6956   0.6956   0.7460   0.7460   0.7531   0.7531
     6.4084   6.4084   6.4508   6.4508   6.6522   6.6522   6.8689   6.8689
     6.9395   6.9395   6.9455   6.9455   7.1557   7.1557   7.1992   7.1992
     7.3605   7.3605   7.4059   7.4059   7.4368   7.4368   7.4949   7.4950
     7.6190   7.6191   7.6853   7.6853   7.8092   7.8092   7.8986   7.8986
     7.9433   7.9433   8.0306   8.0306   8.0328   8.0328   8.0691   8.0691
     8.1887   8.1887   8.3406   8.3406   8.3530   8.3530   8.4906   8.4906
     9.3369   9.3369   9.3754   9.3754   9.3986   9.3986   9.4267   9.4267
     9.5479   9.5479   9.5841   9.5842   9.5990   9.5990   9.7334   9.7334
     9.7427   9.7427   9.7816   9.7816   9.8850   9.8850   9.9073   9.9073
    13.0919  13.0919  13.3390  13.3390  13.3556  13.3556  13.4105  13.4105
    13.5144  13.5144  13.6258  13.6258  13.7619  13.7619  13.8938  13.8938
    13.8995  13.8995  13.9717  13.9717  14.0454  14.0454  14.1349  14.1349
    15.3991  15.3991  15.5254  15.5254  15.9958  15.9958  16.1215  16.1215
    16.5979  16.5979  16.7489  16.7489  17.0309  17.0309  17.2370  17.2379

          k = 0.3750-0.5000 0.3709 ( 34392 PWs)   bands (ev):

   -46.1077 -46.1077 -46.1074 -46.1074 -46.1073 -46.1073 -46.1070 -46.1070
   -22.4266 -22.4266 -22.4255 -22.4255 -22.4085 -22.4085 -22.4076 -22.4076
   -22.3707 -22.3707 -22.3697 -22.3697 -22.3610 -22.3610 -22.3601 -22.3601
   -22.3600 -22.3600 -22.3592 -22.3592 -22.3503 -22.3503 -22.3495 -22.3495
   -14.3426 -14.3426 -14.3108 -14.3108 -14.3075 -14.3075 -14.2794 -14.2794
    -6.4399  -6.4399  -6.3787  -6.3787  -6.3350  -6.3350  -6.2072  -6.2072
    -5.8462  -5.8461  -5.8404  -5.8404  -5.8059  -5.8059  -5.7827  -5.7827
    -5.7520  -5.7520  -5.7267  -5.7267  -5.7240  -5.7240  -5.6937  -5.6936
     0.0955   0.0955   0.1400   0.1400   0.2183   0.2183   0.2236   0.2236
     0.2641   0.2641   0.2851   0.2851   0.2963   0.2963   0.3148   0.3148
     0.6335   0.6335   0.7519   0.7519   0.7573   0.7573   0.7905   0.7905
     6.5173   6.5173   6.6045   6.6045   6.6097   6.6097   6.8455   6.8455
     6.9715   6.9715   7.0596   7.0596   7.1648   7.1648   7.1905   7.1905
     7.3716   7.3716   7.4110   7.4110   7.4139   7.4139   7.5434   7.5434
     7.5694   7.5694   7.7446   7.7446   7.7709   7.7709   7.9135   7.9135
     7.9618   7.9618   7.9798   7.9798   7.9825   7.9825   8.0499   8.0499
     8.0760   8.0760   8.1357   8.1357   8.2736   8.2736   8.3228   8.3228
     9.4120   9.4120   9.4550   9.4550   9.4629   9.4629   9.5276   9.5276
     9.5659   9.5659   9.5752   9.5752   9.6275   9.6275   9.7150   9.7150
     9.7224   9.7224   9.7287   9.7287   9.8521   9.8521   9.8593   9.8593
    13.2689  13.2689  13.4250  13.4250  13.4766  13.4767  13.4819  13.4819
    13.5096  13.5097  13.7143  13.7143  13.7182  13.7182  13.8010  13.8010
    13.8035  13.8035  13.8386  13.8386  13.9025  13.9025  13.9985  13.9985
    15.7595  15.7595  15.9496  15.9496  15.9946  15.9946  16.1727  16.1728
    16.5721  16.5722  16.7473  16.7473  16.7513  16.7514  16.9748  16.9748

          k = 0.3750-0.5000-0.4946 ( 34384 PWs)   bands (ev):

   -46.1076 -46.1076 -46.1076 -46.1076 -46.1072 -46.1072 -46.1072 -46.1072
   -22.4176 -22.4176 -22.4176 -22.4176 -22.4166 -22.4166 -22.4166 -22.4166
   -22.3702 -22.3702 -22.3702 -22.3702 -22.3606 -22.3606 -22.3606 -22.3606
   -22.3596 -22.3596 -22.3596 -22.3596 -22.3499 -22.3499 -22.3499 -22.3499
   -14.3268 -14.3268 -14.3267 -14.3267 -14.2935 -14.2935 -14.2935 -14.2934
    -6.3811  -6.3811  -6.3810  -6.3810  -6.2926  -6.2925  -6.2924  -6.2924
    -5.8502  -5.8502  -5.8501  -5.8501  -5.7940  -5.7940  -5.7940  -5.7939
    -5.7386  -5.7386  -5.7385  -5.7384  -5.7118  -5.7118  -5.7117  -5.7117
     0.1577   0.1577   0.1577   0.1577   0.1856   0.1856   0.1857   0.1857
     0.2579   0.2579   0.2579   0.2579   0.2832   0.2832   0.2833   0.2833
     0.7112   0.7112   0.7112   0.7112   0.7918   0.7918   0.7919   0.7919
     6.5703   6.5703   6.5704   6.5704   6.7331   6.7331   6.7332   6.7332
     7.1067   7.1067   7.1067   7.1067   7.2527   7.2527   7.2528   7.2528
     7.2754   7.2754   7.2754   7.2755   7.4744   7.4744   7.4744   7.4744
     7.6651   7.6651   7.6651   7.6651   7.8986   7.8986   7.8987   7.8987
     7.9199   7.9200   7.9200   7.9200   7.9999   7.9999   7.9999   7.9999
     8.0409   8.0410   8.0410   8.0410   8.2388   8.2388   8.2388   8.2388
     9.4794   9.4794   9.4794   9.4794   9.5024   9.5024   9.5024   9.5024
     9.6358   9.6358   9.6358   9.6358   9.6506   9.6506   9.6506   9.6506
     9.6936   9.6936   9.6936   9.6936   9.8348   9.8348   9.8349   9.8349
    13.4245  13.4245  13.4245  13.4246  13.5277  13.5277  13.5278  13.5278
    13.6237  13.6237  13.6238  13.6238  13.6866  13.6866  13.6866  13.6867
    13.8162  13.8162  13.8163  13.8163  13.8684  13.8685  13.8685  13.8685
    15.9592  15.9592  15.9593  15.9593  16.3646  16.3647  16.3648  16.3648
    16.4032  16.4033  16.4034  16.4034  16.7860  16.7860  16.7860  16.7860

          k =-0.5000-0.5000 0.0000 ( 34312 PWs)   bands (ev):

   -46.1078 -46.1078 -46.1078 -46.1078 -46.1069 -46.1069 -46.1069 -46.1069
   -22.4405 -22.4405 -22.4405 -22.4405 -22.3935 -22.3935 -22.3935 -22.3935
   -22.3616 -22.3616 -22.3616 -22.3616 -22.3608 -22.3608 -22.3608 -22.3608
   -22.3591 -22.3591 -22.3591 -22.3591 -22.3587 -22.3587 -22.3587 -22.3587
   -14.3490 -14.3490 -14.3490 -14.3490 -14.2707 -14.2707 -14.2707 -14.2707
    -6.5262  -6.5262  -6.5262  -6.5262  -6.1941  -6.1941  -6.1941  -6.1941
    -5.8023  -5.8023  -5.8023  -5.8023  -5.7788  -5.7788  -5.7788  -5.7788
    -5.7761  -5.7761  -5.7761  -5.7761  -5.6803  -5.6803  -5.6803  -5.6803
     0.0557   0.0557   0.0558   0.0558   0.2892   0.2892   0.2892   0.2892
     0.3389   0.3389   0.3389   0.3389   0.5049   0.5049   0.5050   0.5050
     0.5342   0.5342   0.5342   0.5342   0.6466   0.6466   0.6466   0.6466
     6.2602   6.2602   6.2602   6.2602   6.8937   6.8937   6.8937   6.8937
     6.9109   6.9109   6.9109   6.9109   7.3031   7.3031   7.3031   7.3031
     7.3163   7.3163   7.3163   7.3163   7.3696   7.3697   7.3697   7.3697
     7.6957   7.6957   7.6957   7.6958   7.8490   7.8490   7.8490   7.8490
     7.9068   7.9068   7.9068   7.9068   8.2213   8.2213   8.2213   8.2213
     8.2419   8.2419   8.2419   8.2419   8.5212   8.5212   8.5212   8.5212
     9.2562   9.2562   9.2562   9.2562   9.4840   9.4840   9.4840   9.4840
     9.5179   9.5179   9.5179   9.5179   9.6882   9.6882   9.6882   9.6882
     9.7768   9.7768   9.7768   9.7768   9.8987   9.8987   9.8987   9.8987
    13.1226  13.1226  13.1226  13.1226  13.3419  13.3419  13.3419  13.3419
    13.5374  13.5374  13.5374  13.5374  13.7319  13.7319  13.7319  13.7320
    14.1463  14.1463  14.1463  14.1463  14.1811  14.1811  14.1811  14.1811
    15.0671  15.0671  15.0671  15.0671  16.3606  16.3606  16.3606  16.3606
    16.4420  16.4420  16.4420  16.4420  17.1349  17.3270  17.3273  17.3284

          k =-0.5000-0.5000 0.1236 ( 34352 PWs)   bands (ev):

   -46.1078 -46.1078 -46.1078 -46.1078 -46.1070 -46.1070 -46.1070 -46.1070
   -22.4387 -22.4387 -22.4387 -22.4387 -22.3953 -22.3953 -22.3953 -22.3953
   -22.3615 -22.3615 -22.3615 -22.3615 -22.3608 -22.3608 -22.3608 -22.3608
   -22.3592 -22.3592 -22.3592 -22.3592 -22.3588 -22.3588 -22.3588 -22.3588
   -14.3461 -14.3460 -14.3460 -14.3460 -14.2738 -14.2737 -14.2737 -14.2737
    -6.5106  -6.5106  -6.5106  -6.5106  -6.2000  -6.2000  -6.2000  -6.2000
    -5.8088  -5.8088  -5.8088  -5.8088  -5.7807  -5.7807  -5.7807  -5.7807
    -5.7752  -5.7752  -5.7752  -5.7752  -5.6842  -5.6842  -5.6842  -5.6842
     0.0666   0.0666   0.0666   0.0666   0.2626   0.2627   0.2627   0.2627
     0.3282   0.3282   0.3282   0.3282   0.4656   0.4656   0.4656   0.4656
     0.5474   0.5474   0.5474   0.5474   0.7021   0.7021   0.7021   0.7021
     6.3105   6.3105   6.3105   6.3105   6.8711   6.8711   6.8711   6.8711
     6.9043   6.9044   6.9044   6.9044   7.3046   7.3046   7.3046   7.3046
     7.3628   7.3628   7.3628   7.3629   7.3665   7.3666   7.3666   7.3666
     7.6392   7.6392   7.6392   7.6393   7.8871   7.8872   7.8872   7.8872
     7.9103   7.9103   7.9103   7.9103   8.1971   8.1971   8.1971   8.1971
     8.2091   8.2091   8.2091   8.2091   8.4843   8.4843   8.4843   8.4843
     9.3014   9.3014   9.3014   9.3014   9.4588   9.4588   9.4588   9.4589
     9.5267   9.5267   9.5267   9.5267   9.6876   9.6876   9.6876   9.6877
     9.7785   9.7785   9.7785   9.7785   9.8854   9.8854   9.8854   9.8854
    13.1635  13.1635  13.1635  13.1635  13.3620  13.3620  13.3620  13.3620
    13.5462  13.5462  13.5462  13.5462  13.7242  13.7242  13.7242  13.7242
    14.1031  14.1031  14.1031  14.1031  14.1403  14.1403  14.1403  14.1403
    15.1838  15.1838  15.1838  15.1838  16.3656  16.3656  16.3656  16.3656
    16.4402  16.4402  16.4402  16.4402  17.2674  17.2682  17.2685  17.2687

          k =-0.5000-0.5000 0.2473 ( 34388 PWs)   bands (ev):

   -46.1077 -46.1077 -46.1077 -46.1077 -46.1071 -46.1071 -46.1071 -46.1071
   -22.4337 -22.4337 -22.4337 -22.4337 -22.4004 -22.4004 -22.4004 -22.4004
   -22.3613 -22.3613 -22.3613 -22.3613 -22.3605 -22.3605 -22.3605 -22.3605
   -22.3595 -22.3595 -22.3595 -22.3595 -22.3590 -22.3590 -22.3590 -22.3590
   -14.3377 -14.3377 -14.3377 -14.3377 -14.2824 -14.2823 -14.2823 -14.2823
    -6.4666  -6.4666  -6.4666  -6.4666  -6.2216  -6.2216  -6.2216  -6.2215
    -5.8224  -5.8224  -5.8224  -5.8224  -5.7933  -5.7933  -5.7933  -5.7933
    -5.7648  -5.7648  -5.7648  -5.7648  -5.6952  -5.6952  -5.6952  -5.6952
     0.0975   0.0975   0.0975   0.0975   0.2235   0.2235   0.2235   0.2235
     0.2977   0.2977   0.2977   0.2977   0.3657   0.3657   0.3657   0.3657
     0.6314   0.6314   0.6315   0.6315   0.7639   0.7639   0.7639   0.7639
     6.4376   6.4376   6.4376   6.4376   6.8105   6.8105   6.8105   6.8105
     6.9219   6.9219   6.9219   6.9219   7.3093   7.3093   7.3093   7.3093
     7.3577   7.3578   7.3578   7.3578   7.4805   7.4805   7.4805   7.4806
     7.5474   7.5474   7.5474   7.5474   7.9221   7.9221   7.9221   7.9221
     7.9224   7.9224   7.9224   7.9224   8.1337   8.1337   8.1337   8.1337
     8.1339   8.1340   8.1340   8.1340   8.3442   8.3442   8.3442   8.3442
     9.4071   9.4071   9.4071   9.4071   9.4427   9.4427   9.4427   9.4427
     9.5508   9.5508   9.5508   9.5508   9.6780   9.6780   9.6780   9.6780
     9.7795   9.7795   9.7795   9.7795   9.8494   9.8494   9.8494   9.8494
    13.2765  13.2765  13.2765  13.2765  13.4229  13.4229  13.4229  13.4229
    13.5718  13.5718  13.5718  13.5718  13.7012  13.7012  13.7012  13.7012
    13.9865  13.9865  13.9865  13.9866  14.0261  14.0261  14.0261  14.0261
    15.4980  15.4980  15.4980  15.4980  16.3786  16.3786  16.3786  16.3786
    16.4345  16.4345  16.4345  16.4345  17.0866  17.0866  17.0866  17.0867

          k =-0.5000-0.5000 0.3709 ( 34432 PWs)   bands (ev):

   -46.1075 -46.1075 -46.1075 -46.1075 -46.1072 -46.1072 -46.1072 -46.1072
   -22.4261 -22.4261 -22.4261 -22.4261 -22.4081 -22.4081 -22.4081 -22.4081
   -22.3609 -22.3609 -22.3609 -22.3609 -22.3602 -22.3602 -22.3602 -22.3602
   -22.3599 -22.3599 -22.3599 -22.3599 -22.3594 -22.3594 -22.3594 -22.3594
   -14.3252 -14.3251 -14.3251 -14.3251 -14.2952 -14.2952 -14.2951 -14.2951
    -6.4020  -6.4020  -6.4020  -6.4020  -6.2653  -6.2653  -6.2653  -6.2653
    -5.8302  -5.8302  -5.8302  -5.8301  -5.8102  -5.8102  -5.8102  -5.8101
    -5.7491  -5.7491  -5.7491  -5.7491  -5.7115  -5.7114  -5.7114  -5.7114
     0.1436   0.1436   0.1436   0.1436   0.2078   0.2078   0.2078   0.2078
     0.2519   0.2519   0.2520   0.2520   0.2813   0.2813   0.2813   0.2813
     0.7134   0.7134   0.7134   0.7134   0.7889   0.7889   0.7889   0.7889
     6.5676   6.5676   6.5676   6.5676   6.7327   6.7327   6.7327   6.7327
     7.0355   7.0355   7.0355   7.0355   7.3181   7.3181   7.3181   7.3181
     7.3448   7.3449   7.3449   7.3449   7.4276   7.4276   7.4276   7.4276
     7.6431   7.6431   7.6431   7.6431   7.9401   7.9401   7.9401   7.9401
     7.9473   7.9473   7.9473   7.9473   8.0536   8.0536   8.0536   8.0536
     8.0541   8.0541   8.0541   8.0541   8.1037   8.1037   8.1037   8.1038
     9.4940   9.4940   9.4940   9.4940   9.5172   9.5172   9.5172   9.5172
     9.5800   9.5800   9.5800   9.5801   9.6435   9.6435   9.6435   9.6435
     9.7733   9.7733   9.7733   9.7733   9.8036   9.8036   9.8036   9.8036
    13.4372  13.4372  13.4372  13.4372  13.5253  13.5253  13.5254  13.5254
    13.6137  13.6137  13.6137  13.6137  13.6627  13.6627  13.6627  13.6628
    13.8286  13.8286  13.8286  13.8286  13.8616  13.8616  13.8616  13.8616
    15.9263  15.9264  15.9264  15.9264  16.3952  16.3952  16.3952  16.3952
    16.4248  16.4248  16.4248  16.4248  16.7829  16.7829  16.7829  16.7829

          k =-0.5000-0.5000-0.4946 ( 34432 PWs)   bands (ev):

   -46.1074 -46.1074 -46.1074 -46.1074 -46.1074 -46.1074 -46.1074 -46.1074
   -22.4171 -22.4171 -22.4171 -22.4171 -22.4171 -22.4171 -22.4171 -22.4171
   -22.3604 -22.3604 -22.3604 -22.3604 -22.3604 -22.3604 -22.3604 -22.3604
   -22.3598 -22.3598 -22.3598 -22.3598 -22.3598 -22.3598 -22.3598 -22.3598
   -14.3103 -14.3103 -14.3102 -14.3102 -14.3102 -14.3101 -14.3101 -14.3101
    -6.3297  -6.3297  -6.3297  -6.3297  -6.3296  -6.3296  -6.3296  -6.3296
    -5.8250  -5.8250  -5.8250  -5.8250  -5.8249  -5.8249  -5.8249  -5.8249
    -5.7305  -5.7305  -5.7305  -5.7305  -5.7304  -5.7303  -5.7303  -5.7303
     0.1978   0.1978   0.1978   0.1978   0.1979   0.1979   0.1979   0.1979
     0.2266   0.2266   0.2267   0.2267   0.2267   0.2267   0.2267   0.2268
     0.7704   0.7704   0.7704   0.7704   0.7704   0.7704   0.7704   0.7704
     6.6556   6.6556   6.6556   6.6556   6.6557   6.6557   6.6557   6.6557
     7.2413   7.2413   7.2413   7.2413   7.2414   7.2414   7.2414   7.2414
     7.3305   7.3306   7.3306   7.3306   7.3306   7.3306   7.3307   7.3307
     7.8474   7.8474   7.8474   7.8474   7.8475   7.8475   7.8475   7.8475
     7.9846   7.9846   7.9846   7.9846   7.9846   7.9847   7.9847   7.9847
     7.9901   7.9901   7.9902   7.9902   7.9902   7.9902   7.9902   7.9902
     9.5766   9.5766   9.5766   9.5766   9.5767   9.5767   9.5767   9.5767
     9.5818   9.5818   9.5818   9.5818   9.5819   9.5819   9.5819   9.5819
     9.7724   9.7724   9.7724   9.7725   9.7726   9.7726   9.7726   9.7726
    13.5920  13.5920  13.5920  13.5920  13.5920  13.5921  13.5921  13.5921
    13.6654  13.6654  13.6654  13.6654  13.6655  13.6655  13.6655  13.6655
    13.6953  13.6953  13.6953  13.6953  13.6954  13.6954  13.6954  13.6954
    16.3794  16.3794  16.3794  16.3794  16.3795  16.3796  16.3796  16.3796
    16.4113  16.4113  16.4113  16.4113  16.4113  16.4114  16.4114  16.4114

     highest occupied, lowest unoccupied level (ev):    10.4080   12.2294

!    total energy              =   -5964.62504913 Ry
     total all-electron energy =   -147449.078622 Ry
     estimated scf accuracy    <          6.7E-11 Ry

     The total energy is the sum of the following terms:
     one-electron contribution =    -550.49458276 Ry
     hartree contribution      =     483.89723371 Ry
     xc contribution           =    -491.50924751 Ry
     ewald contribution        =   -1653.96634398 Ry
     one-center paw contrib.   =   -3752.55210859 Ry

     convergence has been achieved in   4 iterations

     Forces acting on atoms (cartesian axes, Ry/au):

     atom    1 type  1   force =     0.00000000    0.00000000   -0.00097645
     atom    2 type  1   force =     0.00000000    0.00000000   -0.00094587
     atom    3 type  1   force =     0.00000000    0.00000000   -0.00096552
     atom    4 type  1   force =     0.00000000    0.00000000   -0.00095207
     atom    5 type  1   force =     0.00000000    0.00000000   -0.00096552
     atom    6 type  1   force =     0.00000000    0.00000000   -0.00095207
     atom    7 type  1   force =     0.00000000    0.00000000   -0.00098089
     atom    8 type  1   force =     0.00000000    0.00000000   -0.00094379
     atom    9 type  2   force =    -0.00000080   -0.00000080    0.00023879
     atom   10 type  2   force =    -0.00000142   -0.00000142    0.00024743
     atom   11 type  2   force =    -0.00000080    0.00000080    0.00023879
     atom   12 type  2   force =    -0.00000142    0.00000142    0.00024743
     atom   13 type  2   force =     0.00000080   -0.00000080    0.00023879
     atom   14 type  2   force =     0.00000142   -0.00000142    0.00024743
     atom   15 type  2   force =     0.00000080    0.00000080    0.00023879
     atom   16 type  2   force =     0.00000142    0.00000142    0.00024743
     atom   17 type  3   force =    -0.00000143   -0.00000143   -0.00014173
     atom   18 type  3   force =    -0.00000237   -0.00000237   -0.00013304
     atom   19 type  3   force =    -0.00000143    0.00000143   -0.00014173
     atom   20 type  3   force =    -0.00000237    0.00000237   -0.00013304
     atom   21 type  3   force =     0.00000143   -0.00000143   -0.00014173
     atom   22 type  3   force =     0.00000237   -0.00000237   -0.00013304
     atom   23 type  3   force =     0.00000143    0.00000143   -0.00014173
     atom   24 type  3   force =     0.00000237    0.00000237   -0.00013304
     atom   25 type  3   force =    -0.00000189    0.00000000    0.00042142
     atom   26 type  3   force =    -0.00000557    0.00000000    0.00042620
     atom   27 type  3   force =     0.00000073    0.00000000    0.00042590
     atom   28 type  3   force =     0.00000306    0.00000000    0.00043558
     atom   29 type  3   force =     0.00000189    0.00000000    0.00042142
     atom   30 type  3   force =     0.00000557    0.00000000    0.00042620
     atom   31 type  3   force =    -0.00000073    0.00000000    0.00042590
     atom   32 type  3   force =    -0.00000306    0.00000000    0.00043558
     atom   33 type  3   force =     0.00000000   -0.00000189    0.00042142
     atom   34 type  3   force =     0.00000000   -0.00000557    0.00042620
     atom   35 type  3   force =     0.00000000    0.00000189    0.00042142
     atom   36 type  3   force =     0.00000000    0.00000557    0.00042620
     atom   37 type  3   force =     0.00000000    0.00000073    0.00042590
     atom   38 type  3   force =     0.00000000    0.00000306    0.00043558
     atom   39 type  3   force =     0.00000000   -0.00000073    0.00042590
     atom   40 type  3   force =     0.00000000   -0.00000306    0.00043558

     Total force =     0.003305     Total SCF correction =     0.000009


     Computing stress (Cartesian axis) and pressure

          total   stress  (Ry/bohr**3)                   (kbar)     P=       40.16
   0.00024368   0.00000000   0.00000000           35.85        0.00        0.00
   0.00000000   0.00024368   0.00000000            0.00       35.85        0.00
   0.00000000   0.00000000   0.00033159            0.00        0.00       48.78


     Writing all to output data dir ./tmp/70_ecut_8_kmesh_PBE.save/ :
     XML data file, charge density, pseudopotentials, collected wavefunctions

     init_run     :      2.27s CPU      5.66s WALL (       1 calls)
     electrons    :     30.58s CPU     31.73s WALL (       1 calls)
     forces       :      1.17s CPU      1.21s WALL (       1 calls)
     stress       :      3.29s CPU      3.37s WALL (       1 calls)

     Called by init_run:
     wfcinit      :      0.93s CPU      4.15s WALL (       1 calls)
     potinit      :      0.17s CPU      0.21s WALL (       1 calls)
     hinit0       :      0.76s CPU      0.85s WALL (       1 calls)

     Called by electrons:
     c_bands      :     26.84s CPU     27.47s WALL (       5 calls)
     sum_band     :      3.23s CPU      3.33s WALL (       5 calls)
     v_of_rho     :      0.15s CPU      0.17s WALL (       5 calls)
     newd         :      0.18s CPU      0.19s WALL (       5 calls)
     PAW_pot      :      0.23s CPU      0.24s WALL (       5 calls)
     mix_rho      :      0.01s CPU      0.01s WALL (       5 calls)

     Called by c_bands:
     init_us_2    :      0.65s CPU      0.66s WALL (     120 calls)
     cegterg      :     24.83s CPU     25.43s WALL (      50 calls)

     Called by *egterg:
     cdiaghg      :      3.12s CPU      3.24s WALL (     181 calls)
     h_psi        :     13.07s CPU     13.33s WALL (     201 calls)
     s_psi        :      1.81s CPU      1.82s WALL (     201 calls)
     g_psi        :      0.02s CPU      0.02s WALL (     151 calls)

     Called by h_psi:
     h_psi:calbec :      2.38s CPU      2.45s WALL (     201 calls)
     vloc_psi     :      8.83s CPU      8.93s WALL (     201 calls)
                                        0.00s GPU  (     201 calls)
     add_vuspsi   :      1.79s CPU      1.81s WALL (     201 calls)

     General routines
     calbec       :      6.54s CPU      6.74s WALL (     421 calls)
     fft          :      0.81s CPU      0.87s WALL (      89 calls)
     ffts         :      0.08s CPU      0.09s WALL (      10 calls)
     fftw         :     10.14s CPU     10.26s WALL (   55920 calls)
     interpolate  :      0.09s CPU      0.09s WALL (       5 calls)

     Parallel routines

     PWSCF        :     38.94s CPU     45.72s WALL


   This run was terminated on:   0:16: 7  21May2026            

=------------------------------------------------------------------------------=
   JOB DONE.
=------------------------------------------------------------------------------=
