
     Program PWSCF v.7.5 starts on 21May2026 at  0:12:14 

     This program is part of the open-source Quantum ESPRESSO suite
     for quantum simulation of materials; please cite
         "P. Giannozzi et al., J. Phys.:Condens. Matter 21 395502 (2009);
         "P. Giannozzi et al., J. Phys.:Condens. Matter 29 465901 (2017);
         "P. Giannozzi et al., J. Chem. Phys. 152 154105 (2020);
          URL http://www.quantum-espresso.org", 
     in publications or presentations arising from this work. More details at
     http://www.quantum-espresso.org/quote

     Parallel version (MPI & OpenMP), running on     192 processor cores
     Number of MPI processes:               192
     Threads/MPI process:                     1

     MPI processes distributed on     1 nodes
     402291 MiB available memory on the printing compute node when the environment starts

     Waiting for input...
     Reading input from standard input

     Current dimensions of program PWSCF are:
     Max number of different atomic species (ntypx) = 10
     Max number of k-points (npk) =  40000
     Max angular momentum in pseudopotentials (lmaxx) =  4
     file Ba.pbe-spn-kjpaw_psl.1.0.0.UPF: wavefunction(s)  5S 6S renormalized
     file Ti.pbe-spn-kjpaw_psl.1.0.0.UPF: wavefunction(s)  3S 3P 3D renormalized
     file O.pbe-n-kjpaw_psl.1.0.0.UPF: wavefunction(s)  2S 2P renormalized

     IMPORTANT: XC functional enforced from input :
     Exchange-correlation= PBE
                           (   1   4   3   4   0   0   0)
     Any further DFT definition will be discarded
     Please, verify this is what you really want

     Found identity + ( -0.5000 -0.5000  0.0000) symmetry
     This is a supercell, fractional translations are disabled

     K-points division:     npool     =       8
     R & G space division:  proc/nbgrp/npool/nimage =      24
     Subspace diagonalization in iterative solution of the eigenvalue problem:
     one sub-group per band group will be used
     ELPA distributed-memory algorithm (size of sub-group:  2*  2 procs)


     Parallelization info
     --------------------
     sticks:   dense  smooth     PW     G-vecs:    dense   smooth      PW
     Min         181      90     25                 9081     3214     484
     Max         182      91     27                 9084     3217     487
     Sum        4349    2177    613               217983    77173   11641

     Using Slab Decomposition



     bravais-lattice index     =            6
     lattice parameter (alat)  =      15.0876  a.u.
     unit-cell volume          =    3472.3239 (a.u.)^3
     number of atoms/cell      =           40
     number of atomic types    =            3
     number of electrons       =       320.00
     number of Kohn-Sham states=          200
     kinetic-energy cutoff     =      30.0000  Ry
     charge density cutoff     =     240.0000  Ry
     scf convergence threshold =      1.0E-10
     mixing beta               =       0.3000
     number of iterations used =           16  plain     mixing
     Exchange-correlation= PBE
                           (   1   4   3   4   0   0   0)

     celldm(1)=  15.087600  celldm(2)=   0.000000  celldm(3)=   1.011020
     celldm(4)=   0.000000  celldm(5)=   0.000000  celldm(6)=   0.000000

     crystal axes: (cart. coord. in units of alat)
               a(1) = (   1.000000   0.000000   0.000000 )  
               a(2) = (   0.000000   1.000000   0.000000 )  
               a(3) = (   0.000000   0.000000   1.011020 )  

     reciprocal axes: (cart. coord. in units 2 pi/alat)
               b(1) = (  1.000000  0.000000  0.000000 )  
               b(2) = (  0.000000  1.000000  0.000000 )  
               b(3) = (  0.000000  0.000000  0.989100 )  


     PseudoPot. # 1 for Ba read from file:
     /home/kylay/scratch/BTO/pseuds/Ba.pbe-spn-kjpaw_psl.1.0.0.UPF
     MD5 check sum: 7cfe25f1fe7574a4710541d5a11d6531
     Pseudo is Projector augmented-wave + core cor, Zval = 10.0
     Generated using &quot;atomic&quot; code by A. Dal Corso  v.6.2.2
     Shape of augmentation charge: PSQ
     Using radial grid of 1251 points,  7 beta functions with: 
                l(1) =   0
                l(2) =   0
                l(3) =   0
                l(4) =   1
                l(5) =   1
                l(6) =   2
                l(7) =   2
     Q(r) pseudized with 0 coefficients 


     PseudoPot. # 2 for Ti read from file:
     /home/kylay/scratch/BTO/pseuds/Ti.pbe-spn-kjpaw_psl.1.0.0.UPF
     MD5 check sum: 01f69b0d8ba4438b2e03ac6ea4af1c0b
     Pseudo is Projector augmented-wave + core cor, Zval = 12.0
     Generated using &quot;atomic&quot; code by A. Dal Corso  v.6.2.2
     Shape of augmentation charge: PSQ
     Using radial grid of 1177 points,  6 beta functions with: 
                l(1) =   0
                l(2) =   0
                l(3) =   1
                l(4) =   1
                l(5) =   2
                l(6) =   2
     Q(r) pseudized with 0 coefficients 


     PseudoPot. # 3 for O  read from file:
     /home/kylay/scratch/BTO/pseuds/O.pbe-n-kjpaw_psl.1.0.0.UPF
     MD5 check sum: e99d9cef9b487d1ca56f5b95ecd0fd7a
     Pseudo is Projector augmented-wave + core cor, Zval =  6.0
     Generated using &quot;atomic&quot; code by A. Dal Corso  v.6.3
     Shape of augmentation charge: PSQ
     Using radial grid of 1095 points,  4 beta functions with: 
                l(1) =   0
                l(2) =   0
                l(3) =   1
                l(4) =   1
     Q(r) pseudized with 0 coefficients 


     atomic species   valence    mass     pseudopotential
     Ba               10.00   137.32700     Ba( 1.00)
     Ti               12.00    47.86700     Ti( 1.00)
     O                 6.00    15.99900     O ( 1.00)

      8 Sym. Ops. (no inversion) found



   Cartesian axes

     site n.     atom                  positions (alat units)
         1        Ba     tau(   1) = (   0.0000000   0.0000000  -0.0010787  )
         2        Ba     tau(   2) = (   0.0000000   0.0000000   0.5044220  )
         3        Ba     tau(   3) = (   0.0000000   0.5000000  -0.0010832  )
         4        Ba     tau(   4) = (   0.0000000   0.5000000   0.5044235  )
         5        Ba     tau(   5) = (   0.5000000   0.0000000  -0.0010832  )
         6        Ba     tau(   6) = (   0.5000000   0.0000000   0.5044235  )
         7        Ba     tau(   7) = (   0.5000000   0.5000000  -0.0010766  )
         8        Ba     tau(   8) = (   0.5000000   0.5000000   0.5044202  )
         9        Ti     tau(   9) = (   0.2500002   0.2500002   0.2436990  )
        10        Ti     tau(  10) = (   0.2500007   0.2500007   0.7492042  )
        11        Ti     tau(  11) = (   0.2500002   0.7499998   0.2436990  )
        12        Ti     tau(  12) = (   0.2500007   0.7499993   0.7492042  )
        13        Ti     tau(  13) = (   0.7499998   0.2500002   0.2436990  )
        14        Ti     tau(  14) = (   0.7499993   0.2500007   0.7492042  )
        15        Ti     tau(  15) = (   0.7499998   0.7499998   0.2436990  )
        16        Ti     tau(  16) = (   0.7499993   0.7499993   0.7492042  )
        17        O      tau(  17) = (   0.2500011   0.2500011   0.0113903  )
        18        O      tau(  18) = (   0.2500007   0.2500007   0.5168954  )
        19        O      tau(  19) = (   0.2500011   0.7499989   0.0113903  )
        20        O      tau(  20) = (   0.2500007   0.7499993   0.5168954  )
        21        O      tau(  21) = (   0.7499989   0.2500011   0.0113903  )
        22        O      tau(  22) = (   0.7499993   0.2500007   0.5168954  )
        23        O      tau(  23) = (   0.7499989   0.7499989   0.0113903  )
        24        O      tau(  24) = (   0.7499993   0.7499993   0.5168954  )
        25        O      tau(  25) = (   0.2500005   0.0000000   0.2592128  )
        26        O      tau(  26) = (   0.2500020   0.0000000   0.7647195  )
        27        O      tau(  27) = (   0.2499999   0.5000000   0.2592107  )
        28        O      tau(  28) = (   0.2499998   0.5000000   0.7647148  )
        29        O      tau(  29) = (   0.7499995   0.0000000   0.2592128  )
        30        O      tau(  30) = (   0.7499980   0.0000000   0.7647195  )
        31        O      tau(  31) = (   0.7500001   0.5000000   0.2592107  )
        32        O      tau(  32) = (   0.7500002   0.5000000   0.7647148  )
        33        O      tau(  33) = (   0.0000000   0.2500005   0.2592128  )
        34        O      tau(  34) = (   0.0000000   0.2500020   0.7647195  )
        35        O      tau(  35) = (   0.0000000   0.7499995   0.2592128  )
        36        O      tau(  36) = (   0.0000000   0.7499980   0.7647195  )
        37        O      tau(  37) = (   0.5000000   0.2499999   0.2592107  )
        38        O      tau(  38) = (   0.5000000   0.2499998   0.7647148  )
        39        O      tau(  39) = (   0.5000000   0.7500001   0.2592107  )
        40        O      tau(  40) = (   0.5000000   0.7500002   0.7647148  )

     number of k points=    75
                       cart. coord. in units 2pi/alat
        k(    1) = (   0.0000000   0.0000000   0.0000000), wk =   0.0039062
        k(    2) = (   0.0000000   0.0000000   0.1236375), wk =   0.0078125
        k(    3) = (   0.0000000   0.0000000   0.2472750), wk =   0.0078125
        k(    4) = (   0.0000000   0.0000000   0.3709125), wk =   0.0078125
        k(    5) = (   0.0000000   0.0000000  -0.4945501), wk =   0.0039062
        k(    6) = (   0.0000000   0.1250000   0.0000000), wk =   0.0156250
        k(    7) = (   0.0000000   0.1250000   0.1236375), wk =   0.0312500
        k(    8) = (   0.0000000   0.1250000   0.2472750), wk =   0.0312500
        k(    9) = (   0.0000000   0.1250000   0.3709125), wk =   0.0312500
        k(   10) = (   0.0000000   0.1250000  -0.4945501), wk =   0.0156250
        k(   11) = (   0.0000000   0.2500000   0.0000000), wk =   0.0156250
        k(   12) = (   0.0000000   0.2500000   0.1236375), wk =   0.0312500
        k(   13) = (   0.0000000   0.2500000   0.2472750), wk =   0.0312500
        k(   14) = (   0.0000000   0.2500000   0.3709125), wk =   0.0312500
        k(   15) = (   0.0000000   0.2500000  -0.4945501), wk =   0.0156250
        k(   16) = (   0.0000000   0.3750000   0.0000000), wk =   0.0156250
        k(   17) = (   0.0000000   0.3750000   0.1236375), wk =   0.0312500
        k(   18) = (   0.0000000   0.3750000   0.2472750), wk =   0.0312500
        k(   19) = (   0.0000000   0.3750000   0.3709125), wk =   0.0312500
        k(   20) = (   0.0000000   0.3750000  -0.4945501), wk =   0.0156250
        k(   21) = (   0.0000000  -0.5000000   0.0000000), wk =   0.0078125
        k(   22) = (   0.0000000  -0.5000000   0.1236375), wk =   0.0156250
        k(   23) = (   0.0000000  -0.5000000   0.2472750), wk =   0.0156250
        k(   24) = (   0.0000000  -0.5000000   0.3709125), wk =   0.0156250
        k(   25) = (   0.0000000  -0.5000000  -0.4945501), wk =   0.0078125
        k(   26) = (   0.1250000   0.1250000   0.0000000), wk =   0.0156250
        k(   27) = (   0.1250000   0.1250000   0.1236375), wk =   0.0312500
        k(   28) = (   0.1250000   0.1250000   0.2472750), wk =   0.0312500
        k(   29) = (   0.1250000   0.1250000   0.3709125), wk =   0.0312500
        k(   30) = (   0.1250000   0.1250000  -0.4945501), wk =   0.0156250
        k(   31) = (   0.1250000   0.2500000   0.0000000), wk =   0.0312500
        k(   32) = (   0.1250000   0.2500000   0.1236375), wk =   0.0625000
        k(   33) = (   0.1250000   0.2500000   0.2472750), wk =   0.0625000
        k(   34) = (   0.1250000   0.2500000   0.3709125), wk =   0.0625000
        k(   35) = (   0.1250000   0.2500000  -0.4945501), wk =   0.0312500
        k(   36) = (   0.1250000   0.3750000   0.0000000), wk =   0.0312500
        k(   37) = (   0.1250000   0.3750000   0.1236375), wk =   0.0625000
        k(   38) = (   0.1250000   0.3750000   0.2472750), wk =   0.0625000
        k(   39) = (   0.1250000   0.3750000   0.3709125), wk =   0.0625000
        k(   40) = (   0.1250000   0.3750000  -0.4945501), wk =   0.0312500
        k(   41) = (   0.1250000  -0.5000000   0.0000000), wk =   0.0156250
        k(   42) = (   0.1250000  -0.5000000   0.1236375), wk =   0.0312500
        k(   43) = (   0.1250000  -0.5000000   0.2472750), wk =   0.0312500
        k(   44) = (   0.1250000  -0.5000000   0.3709125), wk =   0.0312500
        k(   45) = (   0.1250000  -0.5000000  -0.4945501), wk =   0.0156250
        k(   46) = (   0.2500000   0.2500000   0.0000000), wk =   0.0156250
        k(   47) = (   0.2500000   0.2500000   0.1236375), wk =   0.0312500
        k(   48) = (   0.2500000   0.2500000   0.2472750), wk =   0.0312500
        k(   49) = (   0.2500000   0.2500000   0.3709125), wk =   0.0312500
        k(   50) = (   0.2500000   0.2500000  -0.4945501), wk =   0.0156250
        k(   51) = (   0.2500000   0.3750000   0.0000000), wk =   0.0312500
        k(   52) = (   0.2500000   0.3750000   0.1236375), wk =   0.0625000
        k(   53) = (   0.2500000   0.3750000   0.2472750), wk =   0.0625000
        k(   54) = (   0.2500000   0.3750000   0.3709125), wk =   0.0625000
        k(   55) = (   0.2500000   0.3750000  -0.4945501), wk =   0.0312500
        k(   56) = (   0.2500000  -0.5000000   0.0000000), wk =   0.0156250
        k(   57) = (   0.2500000  -0.5000000   0.1236375), wk =   0.0312500
        k(   58) = (   0.2500000  -0.5000000   0.2472750), wk =   0.0312500
        k(   59) = (   0.2500000  -0.5000000   0.3709125), wk =   0.0312500
        k(   60) = (   0.2500000  -0.5000000  -0.4945501), wk =   0.0156250
        k(   61) = (   0.3750000   0.3750000   0.0000000), wk =   0.0156250
        k(   62) = (   0.3750000   0.3750000   0.1236375), wk =   0.0312500
        k(   63) = (   0.3750000   0.3750000   0.2472750), wk =   0.0312500
        k(   64) = (   0.3750000   0.3750000   0.3709125), wk =   0.0312500
        k(   65) = (   0.3750000   0.3750000  -0.4945501), wk =   0.0156250
        k(   66) = (   0.3750000  -0.5000000   0.0000000), wk =   0.0156250
        k(   67) = (   0.3750000  -0.5000000   0.1236375), wk =   0.0312500
        k(   68) = (   0.3750000  -0.5000000   0.2472750), wk =   0.0312500
        k(   69) = (   0.3750000  -0.5000000   0.3709125), wk =   0.0312500
        k(   70) = (   0.3750000  -0.5000000  -0.4945501), wk =   0.0156250
        k(   71) = (  -0.5000000  -0.5000000   0.0000000), wk =   0.0039062
        k(   72) = (  -0.5000000  -0.5000000   0.1236375), wk =   0.0078125
        k(   73) = (  -0.5000000  -0.5000000   0.2472750), wk =   0.0078125
        k(   74) = (  -0.5000000  -0.5000000   0.3709125), wk =   0.0078125
        k(   75) = (  -0.5000000  -0.5000000  -0.4945501), wk =   0.0039062

     Dense  grid:   217983 G-vectors     FFT dimensions: (  75,  75,  75)

     Smooth grid:    77173 G-vectors     FFT dimensions: (  54,  54,  54)

     Estimated max dynamical RAM per process >      40.14 MB

     Estimated total dynamical RAM >       6.80 GB

     Check: negative core charge=   -0.000018

     The initial density is read from file :
     ./tmp/30_ecut_8_kmesh_PBE.save/charge-density

     Starting wfcs from file
     Checking if some PAW data can be deallocated... 

     total cpu time spent up to now is        3.8 secs

     per-process dynamical memory:   107.6 Mb

     Self-consistent Calculation

     iteration #  1     ecut=    30.00 Ry     beta= 0.30
     Davidson diagonalization with overlap
     ethr =  1.00E-05,  avg # of iterations =  1.0

     Threshold (ethr) on eigenvalues was too large:
     Diagonalizing with lowered threshold

     Davidson diagonalization with overlap
     ethr =  2.56E-13,  avg # of iterations =  4.2

     total cpu time spent up to now is        8.9 secs

     total energy              =   -5961.38160204 Ry
     estimated scf accuracy    <          1.2E-09 Ry

     iteration #  2     ecut=    30.00 Ry     beta= 0.30
     Davidson diagonalization with overlap
     ethr =  3.75E-13,  avg # of iterations =  3.8

     total cpu time spent up to now is       11.9 secs

     total energy              =   -5961.38160204 Ry
     estimated scf accuracy    <          1.4E-10 Ry

     iteration #  3     ecut=    30.00 Ry     beta= 0.30
     Davidson diagonalization with overlap
     ethr =  1.00E-13,  avg # of iterations =  2.1

     total cpu time spent up to now is       14.3 secs

     End of self-consistent calculation

          k = 0.0000 0.0000 0.0000 (  9707 PWs)   bands (ev):

   -46.5203 -46.5197 -46.5192 -46.5192 -46.5175 -46.5175 -46.5163 -46.5159
   -22.8085 -22.8073 -22.8073 -22.8019 -22.7666 -22.7653 -22.7653 -22.7620
   -22.7606 -22.7606 -22.7576 -22.7576 -22.7558 -22.7558 -22.7547 -22.7547
   -22.7115 -22.7115 -22.7114 -22.7114 -22.7104 -22.7104 -22.7066 -22.7066
   -14.3481 -14.2323 -14.2228 -14.2227 -14.1508 -14.1508 -14.1428 -14.0817
    -7.0005  -7.0005  -6.9553  -6.7718  -6.4993  -6.3995  -6.3995  -6.1616
    -6.1498  -6.1498  -6.1061  -6.1061  -6.0759  -6.0467  -6.0033  -6.0033
    -5.9997  -5.9997  -5.9937  -5.9263  -5.8482  -5.8482  -5.7853  -5.7853
    -0.2621  -0.2621  -0.2019   0.3784   0.3784   0.3953   0.3953   0.4490
     0.4490   0.4636   0.4748   0.4748   0.6320   0.6320   0.6361   0.6361
     0.6540   0.6540   0.8387   0.8387   0.8471   0.8524   0.8524   0.8822
     5.9289   6.0670   6.0670   6.0808   6.3282   6.3282   6.3431   6.3431
     6.3968   6.3972   6.5143   6.5332   6.5884   6.5884   6.6002   7.5785
     7.5785   7.5895   7.5895   7.6147   7.6147   7.6432   7.6432   7.6975
     7.6975   7.7808   7.7808   7.9952   7.9952   8.0014   8.1395   8.1432
     8.1432   8.1718   8.1719   8.4447   8.4447   8.4999   8.5340   8.5340
     8.5714   8.6074   8.6074   8.6630   8.7064   8.7064   8.7851   8.7851
     9.0904   9.0904   9.2809   9.3638   9.3638   9.4979   9.4979   9.5308
     9.5308   9.5472   9.5472   9.5893   9.5893   9.7335   9.7335   9.9774
    10.0885  10.0885  10.3105  10.3106  10.3448  10.3448  10.4575  10.4836
    12.4393  12.5735  12.7801  12.7801  12.8830  12.8830  14.1980  14.1980
    14.2920  14.2920  14.2925  14.2925  14.3037  14.3037  14.3091  14.3091
    14.3240  14.3240  14.6263  14.6263  14.6672  14.7487  14.7894  14.7894
    14.7962  14.9067  15.0239  15.0289  15.0289  15.4087  15.4542  15.5504
    15.5896  15.5896  16.7812  16.7812  16.8039  16.9817  17.1388  17.4693

          k = 0.0000 0.0000 0.1236 (  9627 PWs)   bands (ev):

   -46.5199 -46.5180 -46.5174 -46.5174 -46.5167 -46.5167 -46.5165 -46.5163
   -22.8055 -22.8037 -22.8029 -22.8029 -22.7666 -22.7646 -22.7643 -22.7643
   -22.7566 -22.7566 -22.7563 -22.7563 -22.7558 -22.7558 -22.7541 -22.7541
   -22.7100 -22.7100 -22.7076 -22.7076 -22.7073 -22.7073 -22.7067 -22.7067
   -14.3438 -14.2368 -14.2200 -14.2200 -14.1536 -14.1536 -14.1405 -14.0841
    -6.9821  -6.9821  -6.9432  -6.7703  -6.4818  -6.4358  -6.4358  -6.1622
    -6.1351  -6.1351  -6.1031  -6.1031  -6.0748  -6.0469  -6.0146  -5.9947
    -5.9946  -5.9942  -5.9942  -5.9415  -5.8545  -5.8545  -5.7930  -5.7930
    -0.2397  -0.2397  -0.1688   0.3525   0.3525   0.4105   0.4105   0.4548
     0.4548   0.4802   0.4806   0.4806   0.6262   0.6262   0.6274   0.6274
     0.6614   0.6614   0.7976   0.8207   0.8207   0.8444   0.8444   0.8666
     5.9446   6.0757   6.1289   6.1289   6.3787   6.3787   6.3871   6.3871
     6.4704   6.4762   6.5130   6.5415   6.6107   6.6374   6.6374   7.5834
     7.5834   7.6425   7.6425   7.6733   7.6733   7.7053   7.7053   7.7162
     7.7162   7.8215   7.8215   7.9460   7.9826   7.9826   7.9941   7.9941
     8.0723   8.1327   8.1327   8.4917   8.4917   8.5341   8.5776   8.5851
     8.6075   8.6075   8.6204   8.6204   8.7294   8.7294   9.0003   9.0003
     9.0479   9.0479   9.2460   9.3361   9.3361   9.4719   9.4719   9.5214
     9.5214   9.5481   9.5481   9.5660   9.5660   9.7465   9.7465   9.9430
    10.0779  10.0779  10.2715  10.2715  10.2935  10.2936  10.4713  10.4791
    12.4464  12.6252  12.8579  12.8579  12.9970  12.9970  14.2582  14.2582
    14.2595  14.2595  14.2914  14.2914  14.3058  14.3058  14.3512  14.3512
    14.3535  14.3535  14.6711  14.6711  14.7226  14.7494  14.8131  14.8956
    14.8956  14.9857  14.9857  15.0144  15.0240  15.4847  15.5510  15.6072
    15.6072  15.6244  16.7564  16.8965  16.8965  16.9792  17.2387  17.4224

          k = 0.0000 0.0000 0.2473 (  9623 PWs)   bands (ev):

   -46.5191 -46.5181 -46.5176 -46.5176 -46.5175 -46.5175 -46.5162 -46.5149
   -22.8007 -22.8007 -22.7992 -22.7940 -22.7710 -22.7695 -22.7694 -22.7694
   -22.7577 -22.7577 -22.7565 -22.7565 -22.7538 -22.7538 -22.7538 -22.7538
   -22.7084 -22.7084 -22.7082 -22.7082 -22.7080 -22.7080 -22.7070 -22.7070
   -14.3316 -14.2497 -14.2123 -14.2123 -14.1615 -14.1615 -14.1339 -14.0908
    -6.9294  -6.9294  -6.9098  -6.7705  -6.5228  -6.5228  -6.4301  -6.1600
    -6.1110  -6.1110  -6.0977  -6.0977  -6.0723  -6.0715  -6.0501  -5.9842
    -5.9785  -5.9785  -5.9709  -5.9709  -5.8713  -5.8713  -5.8164  -5.8164
    -0.1717  -0.1717  -0.0722   0.2792   0.2792   0.4547   0.4547   0.4714
     0.4714   0.4976   0.4976   0.5265   0.6032   0.6032   0.6084   0.6084
     0.6625   0.6817   0.6817   0.7687   0.7687   0.8217   0.8218   0.8218
     6.0139   6.0778   6.1769   6.1769   6.3592   6.3592   6.4866   6.4866
     6.5436   6.5500   6.6629   6.6692   6.7409   6.7409   6.8093   7.5839
     7.5839   7.6147   7.6147   7.6344   7.6344   7.6418   7.6418   7.7723
     7.7723   7.7753   7.7753   7.7941   7.8636   7.9038   7.9038   8.0117
     8.0117   8.0941   8.0941   8.2421   8.5060   8.5060   8.5222   8.5222
     8.6954   8.7055   8.7362   8.7362   8.7889   8.7889   8.9455   8.9455
     9.1194   9.2333   9.2333   9.3294   9.3294   9.3321   9.3321   9.4413
     9.4413   9.4439   9.4439   9.5798   9.5798   9.7548   9.7699   9.7699
    10.0983  10.0983  10.1731  10.1731  10.2060  10.2060  10.4788  10.5170
    12.4954  12.5932  13.0619  13.0619  13.1237  13.1237  14.1359  14.1359
    14.1392  14.1392  14.2393  14.2393  14.2521  14.2521  14.3559  14.3559
    14.4129  14.4129  14.5675  14.5675  14.7224  14.7601  14.8418  14.9692
    14.9692  14.9702  15.0926  15.0926  15.3064  15.5671  15.5671  15.6988
    15.8400  15.8751  16.6334  16.9900  17.0392  17.0392  17.1989  17.5303

          k = 0.0000 0.0000 0.3709 (  9646 PWs)   bands (ev):

   -46.5208 -46.5194 -46.5171 -46.5171 -46.5169 -46.5169 -46.5165 -46.5156
   -22.7954 -22.7931 -22.7931 -22.7889 -22.7825 -22.7745 -22.7745 -22.7745
   -22.7566 -22.7566 -22.7563 -22.7563 -22.7561 -22.7561 -22.7548 -22.7548
   -22.7113 -22.7113 -22.7102 -22.7102 -22.7078 -22.7077 -22.7047 -22.7047
   -14.3131 -14.2688 -14.2008 -14.2008 -14.1733 -14.1733 -14.1242 -14.1008
    -6.8638  -6.8471  -6.8471  -6.7847  -6.6315  -6.6315  -6.3503  -6.1573
    -6.1429  -6.0945  -6.0945  -6.0913  -6.0913  -6.0676  -6.0557  -6.0430
    -5.9550  -5.9550  -5.9350  -5.9350  -5.8969  -5.8969  -5.8514  -5.8514
    -0.0721  -0.0721   0.0798   0.1712   0.1712   0.4738   0.4977   0.4977
     0.5217   0.5217   0.5231   0.5231   0.5693   0.5693   0.5819   0.5819
     0.5929   0.6931   0.6931   0.7128   0.7128   0.7537   0.7886   0.7886
     6.0334   6.0555   6.2594   6.2594   6.3321   6.3321   6.5384   6.5498
     6.7030   6.7030   6.8971   6.9475   6.9592   6.9592   7.0877   7.2915
     7.2915   7.4740   7.4740   7.4798   7.5700   7.6310   7.6310   7.6437
     7.6437   7.8366   7.8366   7.8600   7.8600   7.8621   7.9780   7.9780
     8.0171   8.0171   8.0614   8.0614   8.3679   8.3679   8.5671   8.5671
     8.7635   8.7843   8.7843   8.8840   8.8840   8.8853   8.9068   8.9068
     8.9968   9.1101   9.1101   9.2900   9.2900   9.2971   9.2971   9.3342
     9.3342   9.4260   9.6539   9.6539   9.6548   9.6548   9.8273   9.8273
     9.9691   9.9691  10.0026  10.0026  10.0605  10.0605  10.4642  10.4949
    12.4868  12.5501  13.2517  13.2517  13.3717  13.3717  13.8637  13.8637
    13.9255  13.9255  14.2457  14.2457  14.2604  14.2604  14.4032  14.4032
    14.5112  14.5112  14.5304  14.5304  14.7095  14.7106  14.7861  14.7861
    14.7903  14.8894  15.3080  15.3080  15.5473  15.5473  15.6047  16.0236
    16.1763  16.3070  16.3550  16.8250  16.9368  17.0757  17.3265  17.3265

          k = 0.0000 0.0000-0.4946 (  9674 PWs)   bands (ev):

   -46.5202 -46.5200 -46.5176 -46.5176 -46.5174 -46.5174 -46.5163 -46.5162
   -22.7904 -22.7901 -22.7847 -22.7847 -22.7844 -22.7844 -22.7831 -22.7828
   -22.7564 -22.7564 -22.7564 -22.7564 -22.7557 -22.7557 -22.7557 -22.7557
   -22.7101 -22.7101 -22.7101 -22.7101 -22.7077 -22.7077 -22.7077 -22.7077
   -14.2911 -14.2910 -14.1872 -14.1871 -14.1871 -14.1870 -14.1125 -14.1124
    -6.8176  -6.8175  -6.7444  -6.7444  -6.7443  -6.7443  -6.2554  -6.2553
    -6.1016  -6.1015  -6.0894  -6.0894  -6.0893  -6.0893  -6.0616  -6.0616
    -5.9264  -5.9264  -5.9263  -5.9263  -5.8932  -5.8932  -5.8931  -5.8931
     0.0479   0.0479   0.0480   0.0480   0.2690   0.2691   0.5316   0.5316
     0.5317   0.5317   0.5516   0.5516   0.5517   0.5517   0.6063   0.6063
     0.6064   0.6064   0.6734   0.6736   0.7501   0.7501   0.7502   0.7502
     6.0502   6.0502   6.2966   6.2966   6.2967   6.2967   6.5436   6.5436
     6.9754   6.9754   6.9755   6.9755   7.1734   7.1736   7.2188   7.2188
     7.2190   7.2190   7.2650   7.2651   7.4398   7.4400   7.6215   7.6215
     7.6216   7.6216   7.9254   7.9254   7.9255   7.9255   7.9348   7.9348
     7.9349   7.9349   8.1993   8.1993   8.1994   8.1994   8.6752   8.6752
     8.6753   8.6753   8.8462   8.8463   8.9749   8.9750   8.9750   8.9750
     9.0961   9.0961   9.0961   9.0961   9.1349   9.1349   9.2598   9.2598
     9.2599   9.2599   9.8078   9.8078   9.8079   9.8079   9.8780   9.8780
     9.8781   9.8781   9.9041   9.9041   9.9041   9.9041  10.4789  10.4790
    12.5190  12.5190  13.5616  13.5616  13.5617  13.5617  13.6233  13.6233
    13.6234  13.6234  14.2446  14.2446  14.2446  14.2446  14.4406  14.4407
    14.4407  14.4407  14.6475  14.6475  14.6476  14.6476  14.7304  14.7304
    14.8380  14.8380  15.4501  15.4501  15.4503  15.4503  15.9727  15.9730
    16.4063  16.4066  16.6037  16.6038  16.6941  16.6943  17.6619  17.6619

          k = 0.0000 0.1250 0.0000 (  9641 PWs)   bands (ev):

   -46.5199 -46.5190 -46.5184 -46.5181 -46.5170 -46.5168 -46.5164 -46.5146
   -22.8098 -22.8066 -22.8058 -22.8014 -22.7647 -22.7646 -22.7640 -22.7598
   -22.7584 -22.7562 -22.7561 -22.7559 -22.7550 -22.7547 -22.7540 -22.7484
   -22.7125 -22.7103 -22.7102 -22.7098 -22.7098 -22.7095 -22.7071 -22.7069
   -14.3435 -14.2293 -14.2276 -14.2197 -14.1540 -14.1482 -14.1459 -14.0844
    -6.9877  -6.9831  -6.9369  -6.7730  -6.5207  -6.4258  -6.3800  -6.1586
    -6.1439  -6.1414  -6.1071  -6.1008  -6.0744  -6.0427  -6.0024  -5.9999
    -5.9998  -5.9976  -5.9916  -5.9346  -5.8702  -5.8542  -5.8028  -5.7928
    -0.2377  -0.2296  -0.1733   0.3683   0.3868   0.3942   0.4025   0.4223
     0.4640   0.4703   0.4814   0.4891   0.6211   0.6292   0.6315   0.6399
     0.6471   0.6537   0.7998   0.8198   0.8255   0.8389   0.8435   0.8640
     5.9809   6.0768   6.0924   6.1360   6.3642   6.3774   6.3820   6.4095
     6.4300   6.4451   6.5521   6.5693   6.5908   6.6375   6.6473   7.6088
     7.6142   7.6171   7.6404   7.6411   7.6452   7.6745   7.6761   7.7086
     7.7439   7.7856   7.8314   7.9459   8.0126   8.0468   8.0720   8.1069
     8.1097   8.1339   8.1352   8.2224   8.2890   8.4180   8.5536   8.5977
     8.6141   8.6347   8.7046   8.7425   8.7618   8.8081   8.8966   9.0129
     9.0300   9.0557   9.2195   9.2592   9.3875   9.4522   9.4525   9.5260
     9.5534   9.5709   9.5746   9.5856   9.6224   9.6607   9.6786   9.9238
    10.0569  10.1068  10.2858  10.3157  10.3488  10.3553  10.4470  10.4671
    12.5355  12.6997  12.7979  12.8149  12.8834  12.9449  14.1785  14.2023
    14.2573  14.2602  14.2837  14.2873  14.3093  14.3226  14.3382  14.3392
    14.3507  14.3518  14.6672  14.6759  14.6783  14.7983  14.8188  14.8196
    14.9032  14.9538  15.0151  15.0260  15.0696  15.4671  15.4867  15.5933
    15.6280  15.7533  16.7455  16.8215  16.8337  17.0242  17.2147  17.5180

          k = 0.0000 0.1250 0.1236 (  9640 PWs)   bands (ev):

   -46.5196 -46.5184 -46.5180 -46.5180 -46.5172 -46.5171 -46.5164 -46.5154
   -22.8064 -22.8041 -22.8040 -22.8026 -22.7660 -22.7650 -22.7649 -22.7645
   -22.7582 -22.7563 -22.7560 -22.7559 -22.7555 -22.7551 -22.7544 -22.7488
   -22.7119 -22.7107 -22.7103 -22.7091 -22.7087 -22.7083 -22.7070 -22.7069
   -14.3393 -14.2337 -14.2249 -14.2170 -14.1568 -14.1510 -14.1436 -14.0868
    -6.9698  -6.9649  -6.9253  -6.7706  -6.5032  -6.4556  -6.4168  -6.1601
    -6.1329  -6.1288  -6.1048  -6.0985  -6.0731  -6.0437  -6.0236  -5.9973
    -5.9920  -5.9895  -5.9868  -5.9499  -5.8736  -5.8597  -5.8107  -5.8006
    -0.2176  -0.2153  -0.1327   0.3594   0.3682   0.3840   0.4111   0.4262
     0.4678   0.4749   0.4874   0.5120   0.6045   0.6140   0.6191   0.6338
     0.6541   0.6766   0.7938   0.7968   0.8009   0.8106   0.8355   0.8514
     5.9957   6.0731   6.1359   6.1621   6.3631   6.3973   6.4394   6.4574
     6.4596   6.4959   6.5587   6.5641   6.6380   6.6454   6.6787   7.5970
     7.6127   7.6255   7.6552   7.6665   7.6866   7.6941   7.7020   7.7128
     7.7420   7.8158   7.8556   7.8947   7.9370   8.0057   8.0101   8.0267
     8.0279   8.0960   8.1243   8.1497   8.2763   8.4516   8.5604   8.6038
     8.6097   8.6309   8.6385   8.7570   8.9141   8.9167   8.9695   9.0059
     9.0151   9.0564   9.1728   9.2448   9.3517   9.4636   9.4666   9.4677
     9.4936   9.5259   9.5664   9.5691   9.5927   9.6688   9.6857   9.8786
    10.0612  10.0792  10.2616  10.2652  10.2856  10.2959  10.4357  10.4643
    12.5499  12.6905  12.8724  12.8834  12.9568  12.9891  14.1795  14.1982
    14.2405  14.2623  14.2683  14.2724  14.2809  14.2864  14.2890  14.3080
    14.3295  14.3492  14.6172  14.6811  14.6827  14.8239  14.8331  14.9109
    14.9571  14.9727  14.9992  15.0661  15.0804  15.5578  15.5610  15.5875
    15.7014  15.7703  16.8030  16.8050  16.9005  17.0394  17.2895  17.4552

          k = 0.0000 0.1250 0.2473 (  9625 PWs)   bands (ev):

   -46.5200 -46.5180 -46.5179 -46.5172 -46.5172 -46.5169 -46.5165 -46.5149
   -22.8003 -22.7994 -22.7994 -22.7967 -22.7726 -22.7693 -22.7682 -22.7679
   -22.7569 -22.7568 -22.7568 -22.7556 -22.7553 -22.7540 -22.7528 -22.7504
   -22.7120 -22.7101 -22.7094 -22.7089 -22.7082 -22.7081 -22.7070 -22.7065
   -14.3272 -14.2464 -14.2170 -14.2094 -14.1650 -14.1589 -14.1370 -14.0935
    -6.9182  -6.9119  -6.8933  -6.7689  -6.5317  -6.5047  -6.4508  -6.1596
    -6.1155  -6.1043  -6.1000  -6.0925  -6.0862  -6.0700  -6.0470  -5.9916
    -5.9821  -5.9722  -5.9709  -5.9670  -5.8855  -5.8749  -5.8331  -5.8221
    -0.1648  -0.1500  -0.0265   0.2828   0.2957   0.4291   0.4345   0.4383
     0.4771   0.5037   0.5088   0.5596   0.5658   0.5909   0.5939   0.6161
     0.6705   0.6744   0.7047   0.7483   0.7681   0.7878   0.8132   0.8152
     6.0606   6.0955   6.1903   6.2378   6.3568   6.4113   6.5279   6.5504
     6.5692   6.5785   6.6550   6.6881   6.7420   6.7836   6.8140   7.5773
     7.6068   7.6169   7.6230   7.6418   7.6620   7.6644   7.7144   7.7181
     7.7707   7.7710   7.7750   7.8172   7.8224   7.9082   7.9410   7.9963
     8.0053   8.0314   8.0853   8.2523   8.2883   8.2960   8.4872   8.5076
     8.6732   8.7270   8.7335   8.8214   8.8218   8.8943   8.9767   8.9948
     9.0793   9.1761   9.2615   9.2623   9.3275   9.3456   9.4175   9.4341
     9.4580   9.4892   9.5106   9.5271   9.5372   9.6830   9.7278   9.7387
    10.0015  10.0213  10.1526  10.1731  10.1796  10.1992  10.4406  10.4693
    12.5533  12.6755  13.0288  13.0425  13.1272  13.1711  14.1226  14.1390
    14.1414  14.1545  14.1856  14.2062  14.2668  14.2865  14.2913  14.3572
    14.3743  14.4262  14.5580  14.5798  14.7378  14.8244  14.8444  14.8458
    14.9345  15.0184  15.0967  15.2211  15.3271  15.5618  15.7263  15.7701
    15.8958  15.9154  16.6939  16.9236  17.0596  17.0624  17.2347  17.6033

          k = 0.0000 0.1250 0.3709 (  9638 PWs)   bands (ev):

   -46.5201 -46.5188 -46.5177 -46.5176 -46.5173 -46.5171 -46.5164 -46.5147
   -22.7944 -22.7923 -22.7920 -22.7886 -22.7817 -22.7754 -22.7752 -22.7744
   -22.7577 -22.7573 -22.7565 -22.7564 -22.7560 -22.7538 -22.7531 -22.7503
   -22.7118 -22.7102 -22.7100 -22.7095 -22.7094 -22.7090 -22.7080 -22.7050
   -14.3089 -14.2652 -14.2052 -14.1979 -14.1770 -14.1706 -14.1271 -14.1036
    -6.8499  -6.8384  -6.8297  -6.7786  -6.6323  -6.6139  -6.3712  -6.1747
    -6.1445  -6.1006  -6.0948  -6.0880  -6.0861  -6.0649  -6.0547  -6.0470
    -5.9594  -5.9506  -5.9406  -5.9334  -5.9062  -5.8977  -5.8661  -5.8550
    -0.0724  -0.0505   0.1246   0.1711   0.1897   0.4590   0.4678   0.4967
     0.4987   0.5000   0.5258   0.5290   0.5514   0.5642   0.5643   0.5895
     0.6217   0.6712   0.7051   0.7058   0.7306   0.7591   0.7732   0.7803
     6.0972   6.1041   6.2553   6.3033   6.3247   6.3876   6.5722   6.5851
     6.7276   6.7336   6.8886   6.9430   6.9695   6.9982   7.0927   7.2798
     7.3023   7.4639   7.4801   7.5045   7.5406   7.6212   7.6237   7.6546
     7.6643   7.7573   7.8033   7.8486   7.8757   7.9688   7.9883   7.9930
     8.0049   8.0235   8.0379   8.0509   8.2473   8.3610   8.3673   8.5356
     8.6456   8.7446   8.7548   8.8476   8.8899   8.9165   8.9619   9.0502
     9.0541   9.0842   9.1384   9.1955   9.2751   9.3328   9.3350   9.3657
     9.4027   9.4208   9.6251   9.6264   9.6426   9.6505   9.7794   9.7963
     9.9535   9.9633   9.9843  10.0119  10.0482  10.0546  10.4425  10.4823
    12.5820  12.6453  13.2822  13.2828  13.3580  13.3785  13.8756  13.8764
    13.9265  13.9266  14.1844  14.2002  14.2610  14.2630  14.3352  14.3970
    14.4620  14.4668  14.5190  14.5240  14.7482  14.7743  14.8056  14.8304
    14.8312  14.9670  15.3031  15.4342  15.5443  15.6629  15.6673  16.0846
    16.2508  16.3274  16.4124  16.8812  17.0028  17.1486  17.2046  17.3057

          k = 0.0000 0.1250-0.4946 (  9644 PWs)   bands (ev):

   -46.5194 -46.5192 -46.5178 -46.5177 -46.5176 -46.5175 -46.5156 -46.5154
   -22.7882 -22.7879 -22.7850 -22.7847 -22.7847 -22.7844 -22.7826 -22.7823
   -22.7576 -22.7575 -22.7564 -22.7564 -22.7546 -22.7545 -22.7511 -22.7511
   -22.7109 -22.7109 -22.7094 -22.7094 -22.7089 -22.7089 -22.7071 -22.7070
   -14.2872 -14.2871 -14.1912 -14.1911 -14.1844 -14.1843 -14.1154 -14.1153
    -6.8073  -6.8072  -6.7394  -6.7393  -6.7268  -6.7267  -6.2749  -6.2748
    -6.1055  -6.1054  -6.0939  -6.0939  -6.0832  -6.0831  -6.0583  -6.0583
    -5.9325  -5.9324  -5.9244  -5.9243  -5.9042  -5.9041  -5.8942  -5.8941
     0.0454   0.0455   0.0682   0.0683   0.3057   0.3058   0.4887   0.4887
     0.5080   0.5081   0.5311   0.5312   0.5590   0.5591   0.5831   0.5832
     0.6335   0.6335   0.6915   0.6916   0.7422   0.7423   0.7537   0.7538
     6.1163   6.1163   6.2910   6.2910   6.3473   6.3473   6.5842   6.5843
     6.9737   6.9738   6.9836   6.9837   7.1741   7.1743   7.2279   7.2281
     7.2496   7.2497   7.2605   7.2607   7.4318   7.4320   7.6225   7.6226
     7.6501   7.6502   7.8986   7.8987   7.9377   7.9378   7.9383   7.9383
     7.9678   7.9678   8.1566   8.1567   8.1955   8.1956   8.4945   8.4946
     8.6401   8.6402   8.8455   8.8455   8.9814   8.9815   9.0219   9.0219
     9.0411   9.0412   9.1792   9.1793   9.1973   9.1973   9.2888   9.2888
     9.2966   9.2967   9.7872   9.7873   9.8145   9.8145   9.8672   9.8673
     9.8761   9.8762   9.8764   9.8764   9.8805   9.8805  10.4672  10.4673
    12.6088  12.6088  13.5868  13.5869  13.5872  13.5872  13.6397  13.6398
    13.6525  13.6526  14.1921  14.1921  14.2609  14.2609  14.3881  14.3881
    14.4455  14.4456  14.6210  14.6211  14.6528  14.6529  14.8445  14.8446
    14.9004  14.9004  15.4430  15.4432  15.5808  15.5809  16.0611  16.0614
    16.4747  16.4749  16.6767  16.6769  16.7336  16.7339  17.5578  17.5581

          k = 0.0000 0.2500 0.0000 (  9624 PWs)   bands (ev):

   -46.5193 -46.5187 -46.5180 -46.5175 -46.5174 -46.5166 -46.5164 -46.5147
   -22.8081 -22.8078 -22.8060 -22.8015 -22.7647 -22.7639 -22.7631 -22.7609
   -22.7583 -22.7553 -22.7553 -22.7521 -22.7519 -22.7497 -22.7483 -22.7453
   -22.7173 -22.7137 -22.7136 -22.7134 -22.7091 -22.7084 -22.7083 -22.7065
   -14.3302 -14.2416 -14.2206 -14.2112 -14.1630 -14.1547 -14.1408 -14.0920
    -6.9519  -6.9331  -6.8839  -6.7816  -6.5808  -6.4968  -6.3239  -6.1500
    -6.1275  -6.1177  -6.1109  -6.0871  -6.0654  -6.0327  -6.0183  -6.0106
    -5.9953  -5.9816  -5.9677  -5.9582  -5.9331  -5.8715  -5.8516  -5.8156
    -0.1698  -0.1417  -0.0926   0.2929   0.3465   0.4110   0.4236   0.4399
     0.4882   0.5004   0.5069   0.5293   0.5912   0.6002   0.6095   0.6269
     0.6566   0.6626   0.6719   0.7657   0.7866   0.8133   0.8156   0.8182
     6.0380   6.1038   6.1779   6.2276   6.3542   6.3828   6.4359   6.5672
     6.5884   6.6113   6.6144   6.6257   6.6858   6.7693   6.7798   7.5147
     7.5942   7.6706   7.6819   7.6827   7.6910   7.7064   7.7339   7.7484
     7.7491   7.7890   7.8002   7.8109   7.8262   7.8795   7.8845   8.0083
     8.0335   8.1031   8.1072   8.2687   8.2962   8.2990   8.3413   8.6479
     8.6827   8.6886   8.7459   8.7708   8.8409   8.8604   8.8834   8.9644
     9.0206   9.1845   9.2831   9.3582   9.3969   9.4034   9.4102   9.4480
     9.5007   9.5228   9.5293   9.5726   9.6047   9.6286   9.6889   9.7226
     9.9802  10.0590  10.1995  10.2082  10.3166  10.3381  10.3594  10.3886
    12.7827  12.8285  12.8721  12.9008  12.9475  13.0626  14.0016  14.0498
    14.0615  14.1043  14.2824  14.3218  14.3222  14.3320  14.3351  14.3370
    14.3438  14.3750  14.5731  14.6340  14.7057  14.8296  14.8718  14.8900
    14.9897  15.0163  15.0830  15.1386  15.2233  15.4678  15.5578  15.7118
    15.8496  16.1063  16.5777  17.0360  17.0518  17.0761  17.2997  17.5707

          k = 0.0000 0.2500 0.1236 (  9639 PWs)   bands (ev):

   -46.5196 -46.5184 -46.5180 -46.5176 -46.5171 -46.5171 -46.5167 -46.5154
   -22.8061 -22.8036 -22.8034 -22.8024 -22.7663 -22.7654 -22.7652 -22.7644
   -22.7576 -22.7566 -22.7559 -22.7536 -22.7517 -22.7501 -22.7498 -22.7455
   -22.7175 -22.7143 -22.7139 -22.7136 -22.7093 -22.7089 -22.7087 -22.7064
   -14.3262 -14.2386 -14.2249 -14.2086 -14.1660 -14.1524 -14.1436 -14.0944
    -6.9353  -6.9148  -6.8738  -6.7770  -6.5628  -6.5134  -6.3632  -6.1527
    -6.1200  -6.1107  -6.1095  -6.0847  -6.0645  -6.0522  -6.0347  -6.0060
    -5.9887  -5.9750  -5.9725  -5.9642  -5.9255  -5.8755  -5.8587  -5.8217
    -0.1496  -0.1488  -0.0351   0.3094   0.3454   0.3803   0.4146   0.4224
     0.4735   0.5061   0.5242   0.5589   0.5618   0.5816   0.5958   0.6337
     0.6561   0.6670   0.6992   0.7458   0.7813   0.7830   0.8086   0.8106
     6.0639   6.1401   6.1723   6.2671   6.3436   6.4400   6.4876   6.6047
     6.6089   6.6133   6.6282   6.6438   6.6796   6.7651   6.8204   7.5224
     7.5593   7.6676   7.6776   7.6882   7.6905   7.6951   7.6963   7.7283
     7.7306   7.7509   7.8253   7.8300   7.8421   7.8490   7.9019   7.9969
     8.0272   8.0446   8.1035   8.1224   8.1777   8.3199   8.3432   8.6137
     8.6342   8.7189   8.7232   8.7986   8.8618   8.9179   8.9494   8.9708
     9.0244   9.2095   9.2761   9.3551   9.3795   9.3971   9.3979   9.4209
     9.5236   9.5355   9.5490   9.5637   9.5684   9.6088   9.6518   9.6710
     9.9324  10.0154  10.1453  10.1936  10.2773  10.2848  10.3469  10.3492
    12.7819  12.8806  12.9015  12.9405  12.9886  13.1047  14.0116  14.0455
    14.0789  14.1056  14.2643  14.2808  14.2871  14.2970  14.3352  14.3355
    14.3400  14.3433  14.5328  14.6317  14.7007  14.8759  14.8917  14.9090
    14.9158  14.9746  15.0677  15.2417  15.2772  15.5645  15.5665  15.7822
    15.9225  16.1074  16.6279  16.9913  17.1007  17.1369  17.3350  17.5689

          k = 0.0000 0.2500 0.2473 (  9627 PWs)   bands (ev):

   -46.5201 -46.5182 -46.5179 -46.5174 -46.5169 -46.5168 -46.5167 -46.5150
   -22.7999 -22.7993 -22.7983 -22.7965 -22.7732 -22.7689 -22.7686 -22.7682
   -22.7571 -22.7567 -22.7561 -22.7523 -22.7517 -22.7492 -22.7492 -22.7460
   -22.7176 -22.7154 -22.7147 -22.7130 -22.7099 -22.7086 -22.7083 -22.7056
   -14.3145 -14.2370 -14.2303 -14.2011 -14.1747 -14.1513 -14.1456 -14.1013
    -6.8875  -6.8617  -6.8466  -6.7678  -6.5628  -6.5102  -6.4530  -6.1562
    -6.1282  -6.1202  -6.1063  -6.0849  -6.0782  -6.0615  -6.0416  -6.0093
    -5.9925  -5.9738  -5.9564  -5.9539  -5.9223  -5.8857  -5.8783  -5.8390
    -0.1225  -0.0860   0.0818   0.2959   0.3446   0.3472   0.3566   0.4267
     0.4641   0.4990   0.5227   0.5566   0.5605   0.5665   0.6112   0.6380
     0.6535   0.6907   0.6911   0.6926   0.7309   0.7622   0.7888   0.7930
     6.1411   6.1808   6.1937   6.3419   6.3594   6.5840   6.6198   6.6226
     6.6756   6.6860   6.7136   6.7483   6.7499   6.8509   6.9231   7.4981
     7.5357   7.5631   7.5862   7.6510   7.6526   7.6594   7.7073   7.7197
     7.7298   7.7358   7.7728   7.8565   7.8769   7.9130   7.9189   7.9498
     7.9630   8.0067   8.0100   8.0595   8.1195   8.3723   8.3808   8.4064
     8.5035   8.6270   8.8023   8.8040   8.8048   8.8527   8.9134   9.2164
     9.2287   9.2295   9.2446   9.2667   9.3374   9.4029   9.4349   9.4428
     9.4643   9.5167   9.5183   9.5302   9.5770   9.5807   9.5911   9.6387
     9.8814   9.9383  10.0425  10.1387  10.1700  10.1945  10.3416  10.3600
    12.7878  12.8812  13.0291  13.1123  13.1145  13.2427  14.0180  14.0419
    14.1067  14.1145  14.1309  14.1534  14.1942  14.1954  14.2893  14.3348
    14.3775  14.4142  14.4699  14.6179  14.6636  14.7508  14.8878  14.9444
    14.9768  15.0684  15.1064  15.4737  15.4811  15.5699  15.9071  15.9774
    16.1081  16.1335  16.7847  16.8591  17.1820  17.2230  17.3466  17.4307

          k = 0.0000 0.2500 0.3709 (  9626 PWs)   bands (ev):

   -46.5200 -46.5183 -46.5181 -46.5175 -46.5168 -46.5167 -46.5162 -46.5154
   -22.7936 -22.7920 -22.7917 -22.7900 -22.7805 -22.7766 -22.7760 -22.7740
   -22.7579 -22.7563 -22.7553 -22.7533 -22.7517 -22.7492 -22.7481 -22.7471
   -22.7178 -22.7154 -22.7148 -22.7132 -22.7098 -22.7082 -22.7077 -22.7048
   -14.2970 -14.2551 -14.2177 -14.1898 -14.1876 -14.1628 -14.1355 -14.1115
    -6.8151  -6.8113  -6.7794  -6.7656  -6.6384  -6.5628  -6.4294  -6.2257
    -6.1479  -6.1144  -6.1044  -6.0716  -6.0707  -6.0694  -6.0559  -6.0382
    -5.9727  -5.9554  -5.9383  -5.9321  -5.9288  -5.9054  -5.9015  -5.8654
    -0.0507   0.0088   0.1792   0.2305   0.2422   0.3607   0.4296   0.4386
     0.4441   0.4714   0.5161   0.5243   0.5484   0.5549   0.6100   0.6109
     0.6207   0.6678   0.6837   0.7211   0.7267   0.7453   0.7569   0.7636
     6.1804   6.1841   6.2544   6.3051   6.4470   6.5416   6.6848   6.6968
     6.8099   6.8349   6.8625   6.9675   6.9768   7.0733   7.1087   7.2535
     7.3362   7.4399   7.4498   7.4612   7.6135   7.6276   7.6402   7.6447
     7.6766   7.7298   7.7508   7.8281   7.8530   7.9199   7.9852   8.0107
     8.0114   8.0355   8.0477   8.0939   8.0978   8.1235   8.3569   8.4342
     8.4396   8.4870   8.6615   8.7020   8.9022   8.9238   9.0065   9.0850
     9.1768   9.2330   9.2592   9.2746   9.3484   9.3492   9.3578   9.4228
     9.4648   9.4964   9.5454   9.5869   9.6212   9.6773   9.6913   9.7264
     9.8105   9.8583   9.8734  10.0025  10.0592  10.0671  10.3508  10.3633
    12.7921  12.8625  13.2865  13.3287  13.3563  13.4772  13.8794  13.9033
    13.9218  13.9983  14.0326  14.0666  14.1523  14.2831  14.3337  14.3355
    14.3497  14.3991  14.5102  14.5710  14.6154  14.7244  14.7633  14.8800
    15.0145  15.0509  15.2955  15.5285  15.7441  15.8146  16.0454  16.2684
    16.3702  16.4675  16.5856  17.0176  17.0615  17.1360  17.3598  17.3646

          k = 0.0000 0.2500-0.4946 (  9650 PWs)   bands (ev):

   -46.5190 -46.5188 -46.5183 -46.5181 -46.5173 -46.5171 -46.5163 -46.5161
   -22.7877 -22.7875 -22.7859 -22.7856 -22.7848 -22.7845 -22.7829 -22.7827
   -22.7568 -22.7568 -22.7554 -22.7554 -22.7519 -22.7519 -22.7482 -22.7481
   -22.7163 -22.7163 -22.7136 -22.7136 -22.7075 -22.7075 -22.7075 -22.7075
   -14.2762 -14.2761 -14.2027 -14.2027 -14.1764 -14.1763 -14.1236 -14.1235
    -6.7805  -6.7804  -6.7279  -6.7278  -6.6763  -6.6762  -6.3308  -6.3307
    -6.1181  -6.1180  -6.1075  -6.1074  -6.0660  -6.0659  -6.0480  -6.0479
    -5.9510  -5.9509  -5.9330  -5.9329  -5.9201  -5.9200  -5.8968  -5.8967
     0.0555   0.0555   0.1242   0.1243   0.3909   0.3910   0.3940   0.3940
     0.4746   0.4746   0.4932   0.4932   0.5182   0.5182   0.5797   0.5798
     0.6769   0.6769   0.7198   0.7199   0.7204   0.7205   0.7410   0.7410
     6.1768   6.1768   6.2859   6.2859   6.4860   6.4860   6.6921   6.6921
     7.0170   7.0171   7.0457   7.0458   7.1304   7.1306   7.2071   7.2071
     7.2388   7.2391   7.3469   7.3470   7.3927   7.3929   7.6324   7.6325
     7.7280   7.7281   7.7310   7.7310   7.9500   7.9500   7.9573   7.9573
     8.0318   8.0319   8.0843   8.0843   8.1924   8.1925   8.2734   8.2735
     8.5500   8.5501   8.5837   8.5837   8.9608   8.9608   9.0442   9.0442
     9.1009   9.1009   9.2852   9.2852   9.3436   9.3437   9.3447   9.3447
     9.4116   9.4117   9.6819   9.6819   9.7550   9.7551   9.7979   9.7979
     9.8044   9.8044   9.8498   9.8498   9.8769   9.8769  10.3574  10.3575
    12.8368  12.8368  13.5949  13.5950  13.6146  13.6147  13.6178  13.6179
    13.7251  13.7252  14.0250  14.0250  14.2157  14.2157  14.3286  14.3286
    14.4540  14.4541  14.4718  14.4719  14.6168  14.6169  14.7760  14.7761
    15.0467  15.0467  15.4283  15.4285  15.9411  15.9413  16.2094  16.2097
    16.6312  16.6314  16.8012  16.8015  16.8931  16.8933  17.4058  17.4061

          k = 0.0000 0.3750 0.0000 (  9638 PWs)   bands (ev):

   -46.5193 -46.5182 -46.5179 -46.5172 -46.5172 -46.5172 -46.5164 -46.5160
   -22.8084 -22.8067 -22.8042 -22.8029 -22.7648 -22.7630 -22.7626 -22.7626
   -22.7572 -22.7559 -22.7556 -22.7549 -22.7431 -22.7411 -22.7409 -22.7405
   -22.7249 -22.7235 -22.7229 -22.7223 -22.7084 -22.7084 -22.7079 -22.7048
   -14.3102 -14.2622 -14.2075 -14.1984 -14.1764 -14.1678 -14.1297 -14.1033
    -6.9013  -6.8566  -6.8060  -6.8022  -6.6670  -6.5945  -6.2386  -6.1379
    -6.1169  -6.1024  -6.0816  -6.0677  -6.0491  -6.0388  -6.0255  -6.0221
    -6.0210  -5.9961  -5.9929  -5.9572  -5.9325  -5.9186  -5.8978  -5.8501
    -0.0675  -0.0249   0.0508   0.1826   0.2348   0.4495   0.4577   0.4585
     0.5103   0.5152   0.5284   0.5479   0.5520   0.5732   0.5812   0.5887
     0.5970   0.6866   0.6970   0.7034   0.7283   0.7391   0.7813   0.7813
     6.0844   6.1168   6.2385   6.2973   6.3253   6.3669   6.5908   6.6058
     6.6196   6.7471   6.8833   6.9221   6.9224   6.9969   7.0421   7.1970
     7.3778   7.4330   7.5351   7.5717   7.5740   7.6433   7.6783   7.6801
     7.7018   7.7444   7.8547   7.8837   7.8977   7.9383   7.9450   7.9789
     7.9956   8.0054   8.0388   8.0552   8.1979   8.2215   8.4208   8.6865
     8.7023   8.8021   8.8260   8.8555   8.8720   8.8731   8.8780   8.9933
     8.9957   9.0592   9.1883   9.2382   9.3308   9.3387   9.3864   9.4077
     9.4557   9.4749   9.5550   9.6103   9.7069   9.7307   9.7446   9.7896
     9.8187   9.9489  10.0188  10.0624  10.1354  10.2099  10.3178  10.3425
    12.8096  12.8731  13.1228  13.1672  13.1773  13.2487  13.7565  13.8097
    13.8360  13.8522  14.3174  14.3176  14.3393  14.3405  14.3432  14.3491
    14.4513  14.4610  14.4640  14.5099  14.7325  14.7669  14.7902  14.8615
    14.8630  14.8878  15.2779  15.3091  15.4230  15.5270  15.6233  16.0613
    16.1942  16.3820  16.5362  16.9334  17.0864  17.1035  17.3204  17.4412

          k = 0.0000 0.3750 0.1236 (  9644 PWs)   bands (ev):

   -46.5192 -46.5189 -46.5184 -46.5172 -46.5170 -46.5168 -46.5165 -46.5159
   -22.8062 -22.8043 -22.8037 -22.8020 -22.7662 -22.7661 -22.7643 -22.7624
   -22.7568 -22.7568 -22.7566 -22.7545 -22.7439 -22.7412 -22.7405 -22.7399
   -22.7251 -22.7235 -22.7225 -22.7219 -22.7098 -22.7094 -22.7083 -22.7044
   -14.3064 -14.2591 -14.2116 -14.1958 -14.1797 -14.1654 -14.1324 -14.1058
    -6.8869  -6.8383  -6.7979  -6.7951  -6.6484  -6.5999  -6.2828  -6.1403
    -6.1171  -6.1069  -6.0919  -6.0819  -6.0646  -6.0392  -6.0284  -6.0213
    -6.0004  -5.9911  -5.9894  -5.9529  -5.9308  -5.9245  -5.8989  -5.8537
    -0.0473  -0.0428   0.1110   0.1999   0.2265   0.4142   0.4497   0.4865
     0.4868   0.4948   0.5109   0.5347   0.5365   0.5627   0.5915   0.6035
     0.6167   0.6658   0.6902   0.7223   0.7354   0.7441   0.7664   0.7739
     6.1052   6.1304   6.2453   6.3243   6.3618   6.4118   6.6203   6.6328
     6.6730   6.7898   6.8661   6.9094   6.9114   7.0013   7.0761   7.2254
     7.3584   7.4456   7.5113   7.5473   7.5940   7.6220   7.6839   7.6993
     7.7031   7.7670   7.7947   7.8285   7.9187   7.9522   7.9531   7.9771
     7.9842   8.0064   8.0290   8.0378   8.1439   8.1891   8.2730   8.6209
     8.6312   8.7229   8.8193   8.8203   8.8566   8.8612   9.0012   9.0194
     9.0786   9.1276   9.2042   9.2400   9.3398   9.3522   9.3713   9.4271
     9.4377   9.4433   9.5242   9.6350   9.6748   9.6810   9.7300   9.7685
     9.8094   9.9182   9.9876  10.0701  10.1396  10.2025  10.2767  10.3252
    12.8666  12.9013  13.1279  13.1533  13.2022  13.3126  13.7441  13.8002
    13.8263  13.8864  14.2633  14.2840  14.3047  14.3342  14.3598  14.3716
    14.4053  14.4367  14.4561  14.5295  14.7094  14.7235  14.7476  14.8861
    14.9213  14.9441  15.2654  15.4206  15.5411  15.5791  15.6666  16.1223
    16.2626  16.4138  16.5348  16.9644  17.1453  17.1767  17.2549  17.4131

          k = 0.0000 0.3750 0.2473 (  9633 PWs)   bands (ev):

   -46.5195 -46.5187 -46.5180 -46.5172 -46.5169 -46.5167 -46.5165 -46.5159
   -22.8007 -22.7997 -22.7981 -22.7967 -22.7727 -22.7712 -22.7688 -22.7673
   -22.7568 -22.7558 -22.7554 -22.7550 -22.7438 -22.7414 -22.7410 -22.7402
   -22.7248 -22.7233 -22.7221 -22.7209 -22.7089 -22.7082 -22.7073 -22.7061
   -14.2955 -14.2499 -14.2229 -14.1892 -14.1885 -14.1585 -14.1399 -14.1129
    -6.8460  -6.7850  -6.7777  -6.7770  -6.6198  -6.5956  -6.3756  -6.1975
    -6.1461  -6.1169  -6.1117  -6.0568  -6.0563  -6.0544  -6.0393  -6.0114
    -6.0101  -5.9830  -5.9691  -5.9403  -5.9391  -5.9267  -5.9022  -5.8644
    -0.0373   0.0114   0.2200   0.2268   0.2507   0.3240   0.4195   0.4298
     0.4383   0.4691   0.5103   0.5234   0.5520   0.5532   0.6071   0.6228
     0.6316   0.6640   0.6715   0.7156   0.7410   0.7434   0.7525   0.7530
     6.1714   6.1974   6.2432   6.3107   6.4686   6.5721   6.7459   6.7562
     6.7659   6.8274   6.8837   6.9039   6.9475   7.0146   7.1422   7.2866
     7.2927   7.4397   7.4544   7.4780   7.5834   7.6344   7.6725   7.6874
     7.6945   7.7842   7.7875   7.7999   7.8368   7.9531   7.9609   7.9856
     8.0006   8.0053   8.0071   8.0242   8.0624   8.1190   8.2349   8.4270
     8.4678   8.5282   8.6805   8.7051   8.9041   8.9243   9.0537   9.0840
     9.1967   9.2084   9.2711   9.3331   9.3570   9.3668   9.3788   9.3901
     9.4282   9.4658   9.4867   9.6027   9.6532   9.7110   9.7122   9.7450
     9.7499   9.8720   9.8818  10.0399  10.1017  10.1957  10.2078  10.2327
    12.9926  13.0908  13.1618  13.1680  13.2929  13.4726  13.7728  13.8013
    13.8378  13.9372  14.1278  14.1381  14.1406  14.2853  14.3223  14.3617
    14.3985  14.4044  14.4366  14.5669  14.6129  14.6856  14.7090  14.8454
    15.0657  15.0932  15.2774  15.5061  15.7386  15.8208  15.9163  16.2935
    16.4739  16.5580  16.5764  17.0793  17.1179  17.2587  17.3952  17.5244

          k = 0.0000 0.3750 0.3709 (  9624 PWs)   bands (ev):

   -46.5191 -46.5183 -46.5180 -46.5173 -46.5170 -46.5168 -46.5165 -46.5160
   -22.7938 -22.7927 -22.7925 -22.7908 -22.7793 -22.7775 -22.7754 -22.7752
   -22.7563 -22.7563 -22.7554 -22.7548 -22.7425 -22.7420 -22.7403 -22.7398
   -22.7244 -22.7242 -22.7221 -22.7213 -22.7082 -22.7079 -22.7065 -22.7058
   -14.2791 -14.2398 -14.2361 -14.2033 -14.1774 -14.1512 -14.1481 -14.1234
    -6.7861  -6.7574  -6.7568  -6.7027  -6.6600  -6.5138  -6.4862  -6.3031
    -6.1467  -6.1234  -6.1191  -6.0970  -6.0472  -6.0411  -6.0359  -6.0208
    -5.9941  -5.9763  -5.9673  -5.9558  -5.9221  -5.9206  -5.9073  -5.8810
     0.0111   0.1012   0.2092   0.2345   0.3220   0.3286   0.3462   0.3638
     0.4379   0.4576   0.4822   0.4832   0.5209   0.5787   0.6254   0.6279
     0.6433   0.6520   0.6764   0.7070   0.7224   0.7317   0.7376   0.7527
     6.2188   6.2402   6.2421   6.3020   6.6124   6.7981   6.8012   6.8991
     6.9215   6.9237   6.9751   6.9798   7.0220   7.0930   7.1891   7.3121
     7.3160   7.3210   7.3929   7.4054   7.4313   7.5401   7.5771   7.5991
     7.6316   7.7893   7.8366   7.8449   7.8472   7.8614   7.9570   7.9865
     7.9948   8.0048   8.0295   8.0474   8.0711   8.2202   8.2360   8.2362
     8.2957   8.3969   8.4700   8.5563   8.9320   8.9445   8.9879   9.1190
     9.1259   9.3017   9.3201   9.3526   9.3603   9.3622   9.4525   9.4677
     9.4825   9.4937   9.5548   9.5798   9.6605   9.6838   9.7070   9.7263
     9.7527   9.7622   9.8403   9.9815   9.9880  10.0471  10.1913  10.2035
    13.1162  13.1530  13.3303  13.3366  13.4679  13.6573  13.7755  13.8037
    13.9052  13.9053  13.9313  13.9324  14.0871  14.0981  14.1671  14.3783
    14.4131  14.4494  14.4628  14.4822  14.5936  14.6101  14.6683  14.7694
    15.1700  15.2516  15.2973  15.4834  16.0887  16.1098  16.3801  16.5381
    16.5510  16.8111  16.8310  16.8548  17.1779  17.2070  17.2549  17.5299

          k = 0.0000 0.3750-0.4946 (  9604 PWs)   bands (ev):

   -46.5186 -46.5184 -46.5175 -46.5174 -46.5167 -46.5166 -46.5161 -46.5160
   -22.7864 -22.7861 -22.7849 -22.7846 -22.7832 -22.7830 -22.7823 -22.7820
   -22.7562 -22.7562 -22.7546 -22.7546 -22.7419 -22.7419 -22.7408 -22.7408
   -22.7239 -22.7239 -22.7215 -22.7215 -22.7074 -22.7073 -22.7058 -22.7058
   -14.2596 -14.2595 -14.2198 -14.2197 -14.1644 -14.1643 -14.1358 -14.1357
    -6.7482  -6.7481  -6.7192  -6.7191  -6.5992  -6.5990  -6.4124  -6.4123
    -6.1312  -6.1311  -6.1237  -6.1236  -6.0401  -6.0400  -6.0291  -6.0290
    -5.9778  -5.9777  -5.9686  -5.9685  -5.9138  -5.9137  -5.9012  -5.9011
     0.0978   0.0978   0.2096   0.2097   0.2779   0.2780   0.4230   0.4231
     0.4529   0.4529   0.4627   0.4628   0.5030   0.5030   0.6108   0.6109
     0.6869   0.6869   0.6920   0.6920   0.7142   0.7142   0.7378   0.7378
     6.2415   6.2415   6.2797   6.2797   6.7203   6.7204   6.9228   6.9228
     7.0702   7.0703   7.0715   7.0715   7.1480   7.1482   7.1804   7.1804
     7.2453   7.2455   7.3580   7.3582   7.5022   7.5023   7.5250   7.5251
     7.5419   7.5420   7.8460   7.8461   7.9516   7.9517   7.9703   7.9704
     8.0232   8.0232   8.0310   8.0311   8.1093   8.1093   8.2334   8.2335
     8.3445   8.3445   8.4164   8.4165   8.9424   8.9424   9.0004   9.0004
     9.2447   9.2447   9.3512   9.3512   9.4071   9.4071   9.4145   9.4145
     9.5748   9.5748   9.5815   9.5815   9.6813   9.6814   9.8023   9.8024
     9.8257   9.8257   9.8349   9.8349   9.8914   9.8914  10.1832  10.1834
    13.1441  13.1441  13.6195  13.6196  13.6213  13.6214  13.6877  13.6878
    13.8200  13.8200  13.8779  13.8780  14.0428  14.0429  14.2778  14.2779
    14.4065  14.4065  14.5241  14.5241  14.5902  14.5903  14.6851  14.6852
    15.2345  15.2346  15.4255  15.4257  16.4049  16.4051  16.4860  16.4862
    16.8540  16.8543  16.8665  16.8666  17.1895  17.1897  17.2401  17.2402

          k = 0.0000-0.5000 0.0000 (  9646 PWs)   bands (ev):

   -46.5194 -46.5194 -46.5175 -46.5175 -46.5166 -46.5166 -46.5165 -46.5165
   -22.8064 -22.8064 -22.8045 -22.8045 -22.7641 -22.7641 -22.7637 -22.7637
   -22.7566 -22.7566 -22.7561 -22.7561 -22.7363 -22.7363 -22.7325 -22.7325
   -22.7315 -22.7315 -22.7298 -22.7298 -22.7095 -22.7095 -22.7044 -22.7044
   -14.2864 -14.2864 -14.1920 -14.1920 -14.1832 -14.1832 -14.1166 -14.1165
    -6.8487  -6.8487  -6.7639  -6.7639  -6.7015  -6.7014  -6.1364  -6.1363
    -6.1262  -6.1262  -6.0718  -6.0718  -6.0458  -6.0457  -6.0392  -6.0392
    -6.0034  -6.0034  -5.9872  -5.9871  -5.9279  -5.9279  -5.8910  -5.8910
     0.0558   0.0559   0.1046   0.1046   0.2443   0.2443   0.4983   0.4983
     0.5011   0.5011   0.5477   0.5477   0.5621   0.5621   0.5967   0.5967
     0.6547   0.6548   0.6580   0.6580   0.7387   0.7388   0.7417   0.7417
     6.0918   6.0918   6.2888   6.2888   6.3502   6.3502   6.5933   6.5933
     6.9160   6.9160   7.0403   7.0404   7.1875   7.1877   7.1947   7.1948
     7.2232   7.2232   7.3328   7.3329   7.3477   7.3478   7.6621   7.6622
     7.7479   7.7479   7.9390   7.9390   7.9420   7.9420   7.9616   7.9616
     7.9730   7.9731   8.0550   8.0550   8.0784   8.0784   8.5481   8.5482
     8.7523   8.7524   8.8211   8.8211   8.9389   8.9389   9.0245   9.0245
     9.0637   9.0637   9.1780   9.1780   9.1874   9.1875   9.3524   9.3524
     9.3594   9.3594   9.6768   9.6769   9.8154   9.8154   9.8584   9.8585
     9.8668   9.8668   9.9454   9.9455   9.9900   9.9900  10.3290  10.3290
    12.8302  12.8302  13.4232  13.4233  13.4666  13.4666  13.5269  13.5269
    13.5313  13.5313  14.3332  14.3332  14.3662  14.3662  14.4286  14.4286
    14.4391  14.4391  14.5818  14.5818  14.5935  14.5935  14.8258  14.8258
    14.8698  14.8698  15.3810  15.3811  15.4717  15.4717  16.0107  16.0108
    16.4888  16.4888  16.6199  16.6199  16.9347  16.9349  17.7322  17.7323

          k = 0.0000-0.5000 0.1236 (  9666 PWs)   bands (ev):

   -46.5199 -46.5199 -46.5173 -46.5173 -46.5170 -46.5170 -46.5167 -46.5167
   -22.8058 -22.8058 -22.8042 -22.8042 -22.7674 -22.7674 -22.7627 -22.7627
   -22.7567 -22.7567 -22.7565 -22.7565 -22.7364 -22.7364 -22.7319 -22.7319
   -22.7312 -22.7312 -22.7309 -22.7309 -22.7103 -22.7103 -22.7057 -22.7057
   -14.2829 -14.2829 -14.1957 -14.1957 -14.1807 -14.1806 -14.1191 -14.1191
    -6.8371  -6.8371  -6.7452  -6.7452  -6.6993  -6.6993  -6.1901  -6.1900
    -6.1276  -6.1276  -6.0553  -6.0553  -6.0425  -6.0425  -6.0421  -6.0420
    -5.9996  -5.9995  -5.9906  -5.9905  -5.9263  -5.9263  -5.8919  -5.8919
     0.0742   0.0742   0.0890   0.0890   0.2918   0.2918   0.4593   0.4593
     0.4897   0.4897   0.5264   0.5264   0.5683   0.5683   0.5746   0.5746
     0.6682   0.6683   0.6775   0.6775   0.7316   0.7316   0.7454   0.7454
     6.1159   6.1159   6.2912   6.2912   6.3859   6.3860   6.6152   6.6152
     6.9278   6.9278   7.0474   7.0475   7.1726   7.1727   7.2038   7.2040
     7.2157   7.2157   7.3336   7.3337   7.3517   7.3518   7.6922   7.6923
     7.7592   7.7593   7.8670   7.8670   7.9220   7.9221   7.9546   7.9546
     7.9703   7.9704   8.0547   8.0547   8.0674   8.0674   8.4215   8.4216
     8.7040   8.7040   8.7795   8.7795   8.9999   8.9999   9.0327   9.0327
     9.1037   9.1037   9.1811   9.1811   9.2019   9.2019   9.3588   9.3588
     9.3697   9.3698   9.6510   9.6510   9.7911   9.7911   9.8132   9.8133
     9.8705   9.8705   9.9411   9.9411  10.0053  10.0054  10.2803  10.2803
    12.8673  12.8673  13.4207  13.4207  13.4748  13.4748  13.5205  13.5206
    13.5895  13.5895  14.2817  14.2817  14.3309  14.3309  14.3575  14.3575
    14.4554  14.4554  14.5267  14.5268  14.5737  14.5737  14.7777  14.7777
    14.9234  14.9234  15.4437  15.4437  15.5417  15.5417  16.0460  16.0461
    16.5372  16.5372  16.6921  16.6921  16.9652  16.9653  17.6707  17.6708

          k = 0.0000-0.5000 0.2473 (  9624 PWs)   bands (ev):

   -46.5187 -46.5187 -46.5175 -46.5175 -46.5168 -46.5168 -46.5164 -46.5164
   -22.8002 -22.8002 -22.7972 -22.7972 -22.7711 -22.7711 -22.7679 -22.7679
   -22.7564 -22.7564 -22.7554 -22.7554 -22.7332 -22.7332 -22.7322 -22.7322
   -22.7318 -22.7318 -22.7309 -22.7309 -22.7080 -22.7080 -22.7063 -22.7063
   -14.2728 -14.2728 -14.2061 -14.2061 -14.1735 -14.1735 -14.1265 -14.1264
    -6.8054  -6.8054  -6.6962  -6.6962  -6.6921  -6.6921  -6.2852  -6.2851
    -6.1309  -6.1309  -6.0871  -6.0871  -6.0327  -6.0326  -6.0150  -6.0150
    -5.9975  -5.9974  -5.9972  -5.9971  -5.9212  -5.9212  -5.8953  -5.8953
     0.0829   0.0829   0.1297   0.1297   0.3692   0.3692   0.3906   0.3906
     0.4679   0.4679   0.4906   0.4906   0.5116   0.5116   0.5871   0.5871
     0.6966   0.6966   0.7100   0.7100   0.7117   0.7118   0.7345   0.7346
     6.1945   6.1945   6.2843   6.2843   6.5330   6.5330   6.7656   6.7656
     7.0084   7.0084   7.0709   7.0710   7.1645   7.1647   7.1931   7.1932
     7.2162   7.2163   7.3202   7.3204   7.4266   7.4267   7.6836   7.6836
     7.7256   7.7256   7.8085   7.8085   7.9405   7.9405   7.9850   7.9851
     8.0198   8.0198   8.0215   8.0216   8.0851   8.0851   8.2353   8.2354
     8.5608   8.5608   8.6005   8.6006   8.9840   8.9840   9.0707   9.0707
     9.2287   9.2287   9.2500   9.2500   9.3018   9.3018   9.3372   9.3372
     9.4085   9.4085   9.6058   9.6059   9.7248   9.7249   9.7718   9.7718
     9.8904   9.8904   9.9325   9.9326   9.9833   9.9833  10.2115  10.2115
    13.0587  13.0587  13.4763  13.4763  13.5033  13.5033  13.5670  13.5670
    13.7048  13.7048  14.1335  14.1335  14.1920  14.1920  14.3785  14.3785
    14.4303  14.4303  14.4663  14.4663  14.5712  14.5712  14.7716  14.7716
    15.1029  15.1029  15.4231  15.4231  15.8625  15.8625  16.2395  16.2395
    16.6852  16.6852  16.9109  16.9109  17.0045  17.0046  17.4780  17.4781

          k = 0.0000-0.5000 0.3709 (  9618 PWs)   bands (ev):

   -46.5183 -46.5183 -46.5174 -46.5174 -46.5172 -46.5172 -46.5164 -46.5164
   -22.7931 -22.7931 -22.7915 -22.7915 -22.7778 -22.7778 -22.7761 -22.7761
   -22.7563 -22.7563 -22.7546 -22.7546 -22.7328 -22.7328 -22.7325 -22.7325
   -22.7322 -22.7322 -22.7320 -22.7320 -22.7070 -22.7070 -22.7054 -22.7054
   -14.2577 -14.2577 -14.2216 -14.2216 -14.1628 -14.1628 -14.1373 -14.1373
    -6.7633  -6.7633  -6.7018  -6.7018  -6.6099  -6.6098  -6.3948  -6.3947
    -6.1357  -6.1357  -6.1176  -6.1176  -6.0206  -6.0205  -6.0058  -6.0057
    -6.0023  -6.0022  -5.9989  -5.9989  -5.9145  -5.9145  -5.9005  -5.9005
     0.1105   0.1105   0.2128   0.2128   0.2657   0.2657   0.4194   0.4194
     0.4516   0.4516   0.4621   0.4621   0.5036   0.5036   0.6149   0.6149
     0.6825   0.6825   0.6890   0.6890   0.7226   0.7226   0.7316   0.7316
     6.2418   6.2418   6.2742   6.2742   6.7383   6.7384   6.9718   6.9718
     7.0835   7.0836   7.0909   7.0910   7.1277   7.1278   7.1811   7.1811
     7.2041   7.2042   7.2921   7.2923   7.4984   7.4984   7.5446   7.5447
     7.5741   7.5741   7.8899   7.8899   7.9335   7.9335   7.9806   7.9806
     7.9836   7.9837   8.0136   8.0136   8.1024   8.1024   8.1680   8.1681
     8.3358   8.3358   8.4575   8.4576   8.9418   8.9418   8.9987   8.9987
     9.3149   9.3149   9.3331   9.3331   9.3748   9.3749   9.4218   9.4218
     9.5118   9.5119   9.5472   9.5472   9.5934   9.5935   9.8200   9.8201
     9.8991   9.8992   9.9245   9.9245   9.9602   9.9602  10.0468  10.0468
    13.3075  13.3075  13.5013  13.5013  13.5114  13.5115  13.6830  13.6830
    13.8527  13.8527  13.9412  13.9412  14.0169  14.0169  14.2498  14.2498
    14.4331  14.4331  14.4980  14.4980  14.5382  14.5383  14.6777  14.6777
    15.2636  15.2637  15.3974  15.3975  16.2883  16.2883  16.5085  16.5086
    16.8929  16.8929  16.9648  16.9649  17.1937  17.1938  17.2517  17.2517

          k = 0.0000-0.5000-0.4946 (  9608 PWs)   bands (ev):

   -46.5181 -46.5181 -46.5179 -46.5179 -46.5165 -46.5165 -46.5164 -46.5164
   -22.7858 -22.7858 -22.7855 -22.7855 -22.7829 -22.7829 -22.7826 -22.7826
   -22.7555 -22.7555 -22.7555 -22.7555 -22.7325 -22.7325 -22.7325 -22.7325
   -22.7315 -22.7315 -22.7315 -22.7315 -22.7069 -22.7069 -22.7069 -22.7069
   -14.2398 -14.2398 -14.2397 -14.2397 -14.1502 -14.1502 -14.1501 -14.1501
    -6.7249  -6.7249  -6.7248  -6.7248  -6.5069  -6.5068  -6.5068  -6.5067
    -6.1341  -6.1341  -6.1340  -6.1340  -6.0093  -6.0093  -6.0093  -6.0092
    -6.0022  -6.0021  -6.0021  -6.0020  -5.9072  -5.9072  -5.9071  -5.9071
     0.1744   0.1744   0.1745   0.1745   0.3146   0.3146   0.3147   0.3147
     0.4484   0.4485   0.4485   0.4485   0.6083   0.6083   0.6083   0.6083
     0.6482   0.6483   0.6483   0.6483   0.7359   0.7359   0.7359   0.7359
     6.2636   6.2636   6.2636   6.2637   6.9381   6.9382   6.9382   6.9382
     7.1335   7.1335   7.1336   7.1336   7.1886   7.1887   7.1887   7.1888
     7.2857   7.2857   7.2858   7.2859   7.3528   7.3528   7.3529   7.3530
     7.7799   7.7799   7.7800   7.7800   7.9132   7.9132   7.9133   7.9133
     7.9829   7.9830   7.9830   7.9830   8.2030   8.2031   8.2031   8.2031
     8.3020   8.3021   8.3021   8.3021   8.9471   8.9471   8.9472   8.9472
     9.3940   9.3940   9.3940   9.3940   9.3958   9.3958   9.3959   9.3959
     9.4754   9.4754   9.4755   9.4755   9.8043   9.8043   9.8043   9.8043
     9.8742   9.8742   9.8742   9.8742   9.9577   9.9578   9.9578   9.9579
    13.4708  13.4708  13.4708  13.4708  13.6382  13.6382  13.6383  13.6383
    13.8429  13.8429  13.8430  13.8430  14.0768  14.0768  14.0769  14.0769
    14.4936  14.4936  14.4936  14.4936  14.5830  14.5830  14.5830  14.5830
    15.3564  15.3564  15.3565  15.3565  16.7160  16.7161  16.7162  16.7163
    16.8394  16.8395  16.8396  16.8397  17.1520  17.1520  17.1521  17.1522

          k = 0.1250 0.1250 0.0000 (  9635 PWs)   bands (ev):

   -46.5200 -46.5186 -46.5179 -46.5179 -46.5172 -46.5168 -46.5168 -46.5145
   -22.8086 -22.8061 -22.8061 -22.8014 -22.7653 -22.7637 -22.7637 -22.7627
   -22.7560 -22.7560 -22.7555 -22.7546 -22.7546 -22.7543 -22.7519 -22.7482
   -22.7124 -22.7119 -22.7108 -22.7101 -22.7098 -22.7098 -22.7076 -22.7076
   -14.3389 -14.2263 -14.2246 -14.2245 -14.1514 -14.1514 -14.1491 -14.0871
    -6.9708  -6.9708  -6.9185  -6.7738  -6.5394  -6.4063  -6.4063  -6.1558
    -6.1362  -6.1362  -6.1020  -6.1020  -6.0735  -6.0391  -6.0055  -6.0033
    -5.9944  -5.9944  -5.9879  -5.9423  -5.8967  -5.8559  -5.8106  -5.8106
    -0.2319  -0.1846  -0.1444   0.3742   0.3742   0.3821   0.4212   0.4374
     0.4374   0.4716   0.4764   0.5175   0.5930   0.6238   0.6238   0.6454
     0.6454   0.6624   0.7957   0.7957   0.8104   0.8104   0.8307   0.8456
     6.0169   6.1175   6.1376   6.1376   6.3867   6.4276   6.4276   6.4381
     6.4381   6.4717   6.5912   6.5931   6.6397   6.6420   6.6420   7.6179
     7.6429   7.6429   7.6434   7.6434   7.6693   7.7029   7.7029   7.7082
     7.7286   7.8243   7.8243   7.9119   7.9992   8.0059   8.0241   8.0411
     8.1046   8.1266   8.1516   8.1516   8.2616   8.3231   8.3231   8.6400
     8.6401   8.6973   8.7809   8.7809   8.8012   8.9598   8.9690   9.0042
     9.0042   9.0200   9.2568   9.2709   9.2709   9.3813   9.4531   9.5429
     9.5429   9.5467   9.5950   9.5950   9.5996   9.5996   9.6575   9.7906
    10.0525  10.0778  10.2880  10.2880  10.3207  10.3374  10.4059  10.4326
    12.6093  12.7706  12.8121  12.8283  12.9390  12.9390  14.1895  14.1895
    14.2346  14.2346  14.2352  14.2637  14.2638  14.2713  14.3037  14.3064
    14.3524  14.3524  14.6600  14.6606  14.6606  14.9184  14.9184  14.9287
    14.9303  14.9623  14.9910  15.0013  15.0341  15.4452  15.5648  15.7026
    15.7330  15.7330  16.8195  16.8195  16.8988  17.0895  17.2402  17.3555

          k = 0.1250 0.1250 0.1236 (  9628 PWs)   bands (ev):

   -46.5200 -46.5180 -46.5179 -46.5179 -46.5169 -46.5168 -46.5168 -46.5147
   -22.8056 -22.8040 -22.8040 -22.8019 -22.7671 -22.7648 -22.7648 -22.7644
   -22.7566 -22.7566 -22.7549 -22.7549 -22.7543 -22.7541 -22.7506 -22.7485
   -22.7123 -22.7121 -22.7099 -22.7099 -22.7096 -22.7096 -22.7074 -22.7073
   -14.3347 -14.2307 -14.2219 -14.2218 -14.1542 -14.1542 -14.1468 -14.0895
    -6.9529  -6.9529  -6.9073  -6.7706  -6.5214  -6.4365  -6.4365  -6.1578
    -6.1273  -6.1273  -6.1000  -6.1000  -6.0723  -6.0401  -6.0321  -5.9978
    -5.9870  -5.9869  -5.9836  -5.9574  -5.8959  -5.8618  -5.8180  -5.8180
    -0.2091  -0.1823  -0.0937   0.3574   0.3843   0.3843   0.3916   0.4450
     0.4450   0.4720   0.4761   0.5419   0.5884   0.5991   0.5991   0.6514
     0.6620   0.6620   0.7905   0.7932   0.7932   0.7978   0.7978   0.8376
     6.0368   6.1297   6.1711   6.1712   6.4239   6.4239   6.4592   6.4592
     6.4614   6.5335   6.5948   6.6110   6.6598   6.6826   6.6826   7.6190
     7.6190   7.6407   7.6524   7.6524   7.6947   7.7045   7.7045   7.7290
     7.7566   7.8504   7.8504   7.8709   7.9781   7.9864   7.9864   8.0086
     8.0307   8.0495   8.0713   8.0916   8.2937   8.3045   8.3045   8.5860
     8.6536   8.6536   8.8492   8.9132   8.9288   8.9288   8.9426   8.9684
     9.0187   9.0187   9.2545   9.2545   9.2573   9.3980   9.4895   9.4941
     9.4941   9.5567   9.5567   9.5875   9.5875   9.5928   9.6739   9.7532
    10.0371  10.0521  10.2542  10.2680  10.2681  10.2806  10.4102  10.4559
    12.6175  12.7680  12.8653  12.8903  12.9912  12.9912  14.1858  14.1858
    14.2337  14.2337  14.2658  14.2670  14.2683  14.2683  14.2866  14.2999
    14.3023  14.3023  14.6303  14.6303  14.6933  14.9255  14.9271  14.9434
    14.9710  15.0198  15.0223  15.0223  15.0679  15.5587  15.6370  15.7408
    15.7408  15.7751  16.8459  16.8459  16.8693  17.1106  17.4198  17.5039

          k = 0.1250 0.1250 0.2473 (  9620 PWs)   bands (ev):

   -46.5195 -46.5181 -46.5175 -46.5175 -46.5170 -46.5170 -46.5165 -46.5152
   -22.7996 -22.7987 -22.7987 -22.7971 -22.7720 -22.7683 -22.7683 -22.7681
   -22.7558 -22.7558 -22.7555 -22.7555 -22.7539 -22.7532 -22.7519 -22.7507
   -22.7111 -22.7110 -22.7104 -22.7100 -22.7094 -22.7094 -22.7081 -22.7081
   -14.3228 -14.2431 -14.2140 -14.2140 -14.1623 -14.1623 -14.1401 -14.0963
    -6.9012  -6.9012  -6.8769  -6.7662  -6.5135  -6.5135  -6.4690  -6.1584
    -6.1093  -6.1092  -6.0994  -6.0946  -6.0946  -6.0685  -6.0438  -5.9987
    -5.9824  -5.9713  -5.9673  -5.9673  -5.8999  -5.8789  -5.8388  -5.8388
    -0.1460  -0.1409   0.0178   0.2875   0.3093   0.4101   0.4102   0.4713
     0.4713   0.4776   0.4895   0.5603   0.5603   0.5748   0.5925   0.6210
     0.6725   0.6725   0.6796   0.7684   0.7684   0.7859   0.7859   0.8130
     6.0767   6.1405   6.2432   6.2432   6.4144   6.4144   6.5753   6.5753
     6.5932   6.5987   6.6433   6.7096   6.7906   6.7906   6.8099   7.5551
     7.5551   7.6521   7.6521   7.6620   7.6620   7.6834   7.7302   7.7302
     7.7423   7.7425   7.7707   7.7923   7.8246   7.9273   7.9273   7.9929
     8.0050   8.0204   8.0672   8.1627   8.3088   8.3088   8.3194   8.3361
     8.6965   8.6965   8.7879   8.8175   8.9292   8.9610   8.9610   9.0016
     9.1094   9.1094   9.2333   9.3345   9.3345   9.3770   9.3770   9.4677
     9.4735   9.4735   9.5444   9.5444   9.5539   9.6079   9.6556   9.7055
     9.9658  10.0232  10.1341  10.1511  10.1837  10.1837  10.4173  10.4420
    12.6496  12.7431  13.0457  13.0640  13.1563  13.1563  14.1043  14.1330
    14.1492  14.1492  14.1967  14.1967  14.2214  14.2214  14.2987  14.2987
    14.3397  14.3772  14.5707  14.5707  14.7232  14.8282  14.8386  14.9396
    14.9399  14.9401  15.2303  15.2303  15.3611  15.7180  15.7180  15.8417
    15.9045  15.9871  16.7349  16.9887  16.9887  17.1307  17.2741  17.6644

          k = 0.1250 0.1250 0.3709 (  9620 PWs)   bands (ev):

   -46.5200 -46.5186 -46.5174 -46.5174 -46.5172 -46.5172 -46.5156 -46.5149
   -22.7943 -22.7922 -22.7922 -22.7893 -22.7809 -22.7749 -22.7749 -22.7735
   -22.7558 -22.7558 -22.7557 -22.7557 -22.7522 -22.7521 -22.7515 -22.7507
   -22.7119 -22.7118 -22.7104 -22.7104 -22.7092 -22.7092 -22.7082 -22.7082
   -14.3048 -14.2617 -14.2023 -14.2023 -14.1743 -14.1743 -14.1301 -14.1064
    -6.8359  -6.8213  -6.8213  -6.7723  -6.6147  -6.6147  -6.3890  -6.1906
    -6.1455  -6.0944  -6.0944  -6.0891  -6.0891  -6.0632  -6.0549  -6.0495
    -5.9592  -5.9528  -5.9391  -5.9391  -5.9130  -5.9033  -5.8697  -5.8697
    -0.0547  -0.0492   0.1691   0.1849   0.1924   0.4419   0.4419   0.4999
     0.5085   0.5184   0.5184   0.5209   0.5209   0.5214   0.5550   0.5795
     0.6467   0.6467   0.6534   0.7528   0.7528   0.7711   0.7744   0.7744
     6.1293   6.1567   6.3010   6.3010   6.3866   6.3866   6.5916   6.6101
     6.7588   6.7588   6.8762   6.9628   6.9996   6.9996   7.0769   7.2853
     7.2853   7.4792   7.5095   7.5095   7.5367   7.6573   7.6573   7.6586
     7.6586   7.7443   7.7615   7.8255   7.9014   7.9364   7.9861   7.9944
     8.0024   8.0440   8.0440   8.0500   8.2686   8.2686   8.3108   8.4085
     8.6130   8.6583   8.7750   8.7750   8.9281   8.9281   9.0109   9.0606
     9.1059   9.1059   9.1613   9.2560   9.2560   9.3498   9.3498   9.3802
     9.4407   9.4407   9.5945   9.6439   9.6440   9.6688   9.7320   9.7796
     9.8878   9.9399   9.9634   9.9977  10.0542  10.0542  10.4354  10.4424
    12.6555  12.7190  13.2854  13.2890  13.3874  13.3874  13.8658  13.8908
    13.9272  13.9272  14.2076  14.2076  14.2249  14.2249  14.3511  14.3511
    14.4751  14.4771  14.4771  14.4896  14.7229  14.7426  14.7851  14.8849
    14.9290  14.9458  15.4492  15.4492  15.6698  15.6698  15.7053  16.1475
    16.3201  16.3584  16.4620  16.9279  17.0652  17.2123  17.2293  17.2293

          k = 0.1250 0.1250-0.4946 (  9622 PWs)   bands (ev):

   -46.5192 -46.5190 -46.5175 -46.5175 -46.5173 -46.5173 -46.5154 -46.5152
   -22.7876 -22.7874 -22.7845 -22.7845 -22.7843 -22.7843 -22.7826 -22.7824
   -22.7559 -22.7559 -22.7559 -22.7559 -22.7518 -22.7517 -22.7510 -22.7510
   -22.7115 -22.7114 -22.7100 -22.7100 -22.7082 -22.7082 -22.7081 -22.7081
   -14.2834 -14.2833 -14.1884 -14.1884 -14.1883 -14.1883 -14.1184 -14.1183
    -6.7968  -6.7968  -6.7221  -6.7221  -6.7219  -6.7219  -6.2922  -6.2920
    -6.1090  -6.1089  -6.0880  -6.0880  -6.0879  -6.0879  -6.0562  -6.0561
    -5.9321  -5.9320  -5.9315  -5.9314  -5.9052  -5.9052  -5.9051  -5.9051
     0.0626   0.0626   0.0665   0.0666   0.3432   0.3433   0.4777   0.4777
     0.4778   0.4778   0.5317   0.5318   0.5366   0.5366   0.5857   0.5857
     0.5857   0.5857   0.7155   0.7156   0.7610   0.7610   0.7610   0.7610
     6.1597   6.1597   6.3517   6.3517   6.3517   6.3517   6.6089   6.6089
     6.9975   6.9975   6.9976   6.9976   7.1585   7.1587   7.2440   7.2441
     7.2582   7.2582   7.2584   7.2584   7.4335   7.4337   7.6660   7.6660
     7.6661   7.6661   7.8572   7.8573   7.9372   7.9373   7.9479   7.9479
     7.9867   7.9867   8.1722   8.1722   8.1722   8.1722   8.4830   8.4831
     8.4959   8.4960   8.8568   8.8569   8.8569   8.8569   9.0944   9.0945
     9.1593   9.1593   9.1593   9.1593   9.1973   9.1974   9.3380   9.3380
     9.3380   9.3380   9.7546   9.7546   9.8159   9.8160   9.8211   9.8211
     9.8550   9.8550   9.8695   9.8696   9.8696   9.8696  10.4394  10.4396
    12.6893  12.6893  13.5717  13.5718  13.6159  13.6160  13.6570  13.6570
    13.6571  13.6571  14.2214  14.2214  14.2214  14.2214  14.3987  14.3987
    14.3987  14.3987  14.6046  14.6047  14.6153  14.6154  14.8383  14.8383
    14.9420  14.9420  15.5922  15.5922  15.5924  15.5924  16.1018  16.1021
    16.5321  16.5323  16.7431  16.7433  16.7761  16.7764  17.5637  17.5638

          k = 0.1250 0.2500 0.0000 (  9624 PWs)   bands (ev):

   -46.5197 -46.5182 -46.5176 -46.5175 -46.5171 -46.5170 -46.5167 -46.5148
   -22.8077 -22.8073 -22.8058 -22.8012 -22.7644 -22.7640 -22.7628 -22.7617
   -22.7567 -22.7548 -22.7546 -22.7516 -22.7506 -22.7498 -22.7493 -22.7454
   -22.7182 -22.7133 -22.7133 -22.7130 -22.7111 -22.7097 -22.7091 -22.7072
   -14.3258 -14.2383 -14.2176 -14.2159 -14.1603 -14.1581 -14.1439 -14.0947
    -6.9365  -6.9223  -6.8654  -6.7799  -6.5921  -6.4776  -6.3507  -6.1464
    -6.1213  -6.1138  -6.1060  -6.0885  -6.0667  -6.0288  -6.0223  -6.0104
    -5.9900  -5.9784  -5.9712  -5.9643  -5.9621  -5.8704  -5.8589  -5.8329
    -0.1760  -0.1032  -0.0502   0.2949   0.3626   0.3914   0.3965   0.4730
     0.4776   0.4814   0.4947   0.5512   0.5650   0.5879   0.6016   0.6227
     0.6632   0.6652   0.6899   0.7673   0.7828   0.7839   0.7940   0.8076
     6.0865   6.1461   6.2202   6.2310   6.3798   6.4074   6.4770   6.5656
     6.5970   6.6086   6.6189   6.6885   6.7006   6.7620   6.7899   7.4878
     7.5907   7.6813   7.6965   7.6966   7.7055   7.7155   7.7236   7.7530
     7.7565   7.7804   7.8074   7.8223   7.8314   7.8351   7.8802   8.0156
     8.0433   8.0670   8.0871   8.2189   8.2560   8.2914   8.3474   8.3755
     8.7188   8.7524   8.7657   8.8097   8.8245   8.8977   8.9128   8.9905
     9.0411   9.2170   9.2775   9.2854   9.3971   9.3998   9.4265   9.4317
     9.4344   9.5213   9.5750   9.5764   9.6017   9.6057   9.6509   9.6608
     9.9819  10.0499  10.1870  10.2016  10.2889  10.2971  10.3293  10.3418
    12.7936  12.8628  12.9156  12.9451  12.9685  13.0665  14.0224  14.0732
    14.0761  14.0915  14.2183  14.2685  14.2699  14.2852  14.3126  14.3527
    14.3549  14.3887  14.5849  14.5969  14.6813  14.8528  14.8845  14.9466
    14.9657  14.9893  15.1492  15.2141  15.2397  15.4491  15.7181  15.7900
    15.9162  16.1066  16.6486  17.0093  17.0744  17.1685  17.3480  17.6333

          k = 0.1250 0.2500 0.1236 (  9627 PWs)   bands (ev):

   -46.5199 -46.5183 -46.5178 -46.5176 -46.5169 -46.5169 -46.5166 -46.5150
   -22.8058 -22.8042 -22.8037 -22.8016 -22.7671 -22.7654 -22.7651 -22.7637
   -22.7559 -22.7547 -22.7538 -22.7519 -22.7505 -22.7494 -22.7487 -22.7455
   -22.7179 -22.7141 -22.7140 -22.7133 -22.7114 -22.7097 -22.7095 -22.7072
   -14.3218 -14.2354 -14.2218 -14.2132 -14.1633 -14.1557 -14.1467 -14.0972
    -6.9198  -6.9044  -6.8558  -6.7746  -6.5740  -6.4945  -6.3826  -6.1495
    -6.1157  -6.1107  -6.1046  -6.0862  -6.0656  -6.0610  -6.0307  -6.0056
    -5.9839  -5.9787  -5.9725  -5.9682  -5.9475  -5.8754  -5.8656  -5.8387
    -0.1569  -0.1125   0.0086   0.3083   0.3617   0.3717   0.3941   0.4396
     0.4747   0.4883   0.4911   0.5469   0.5562   0.5831   0.5937   0.6252
     0.6670   0.6691   0.6771   0.7665   0.7811   0.7831   0.7838   0.8006
     6.1063   6.1886   6.2159   6.2753   6.4077   6.4402   6.5260   6.5991
     6.5998   6.6410   6.6448   6.7076   6.7206   6.7670   6.8277   7.4955
     7.5639   7.6774   7.6788   7.6835   7.6873   7.7178   7.7215   7.7272
     7.7537   7.7716   7.8018   7.8211   7.8400   7.8541   7.8948   8.0021
     8.0248   8.0329   8.0487   8.1093   8.2017   8.2320   8.3579   8.3712
     8.6459   8.7439   8.7525   8.8407   8.8858   8.9157   8.9708   8.9740
     9.0390   9.2463   9.2514   9.3042   9.3785   9.3788   9.4173   9.4480
     9.4507   9.5347   9.5524   9.5546   9.5596   9.5857   9.6116   9.6614
     9.9768  10.0008  10.1415  10.1902  10.2503  10.2590  10.3342  10.3463
    12.8097  12.9027  12.9562  12.9718  12.9957  13.1000  14.0156  14.0777
    14.0873  14.1154  14.2252  14.2580  14.2764  14.2771  14.2864  14.2946
    14.2963  14.3330  14.5448  14.6071  14.6808  14.8342  14.8983  14.9416
    15.0304  15.0351  15.2109  15.2494  15.2761  15.5754  15.7196  15.8572
    15.9872  16.1149  16.6815  17.0340  17.0389  17.2170  17.3793  17.6145

          k = 0.1250 0.2500 0.2473 (  9623 PWs)   bands (ev):

   -46.5198 -46.5181 -46.5178 -46.5174 -46.5168 -46.5168 -46.5167 -46.5152
   -22.7996 -22.7989 -22.7985 -22.7969 -22.7723 -22.7696 -22.7691 -22.7686
   -22.7554 -22.7544 -22.7542 -22.7514 -22.7504 -22.7494 -22.7485 -22.7469
   -22.7178 -22.7146 -22.7145 -22.7133 -22.7110 -22.7099 -22.7098 -22.7077
   -14.3103 -14.2338 -14.2271 -14.2055 -14.1719 -14.1546 -14.1489 -14.1041
    -6.8720  -6.8525  -6.8300  -6.7633  -6.5447  -6.5215  -6.4620  -6.1538
    -6.1398  -6.1153  -6.1014  -6.0912  -6.0802  -6.0618  -6.0376  -6.0154
    -5.9921  -5.9708  -5.9596  -5.9571  -5.9365  -5.8891  -5.8839  -5.8553
    -0.1064  -0.0803   0.1264   0.3000   0.3411   0.3518   0.3712   0.4038
     0.4657   0.4974   0.4977   0.5175   0.5343   0.5435   0.6230   0.6255
     0.6401   0.6487   0.7030   0.7057   0.7718   0.7811   0.7837   0.8043
     6.1669   6.2233   6.2500   6.3624   6.3956   6.5761   6.6172   6.6425
     6.6906   6.6912   6.7020   6.7886   6.8193   6.8409   6.9274   7.4480
     7.5385   7.5554   7.6298   7.6316   7.6716   7.6771   7.6992   7.7177
     7.7218   7.7381   7.7436   7.8684   7.8703   7.9031   7.9278   7.9402
     7.9599   7.9957   8.0123   8.0264   8.1351   8.2780   8.3429   8.3826
     8.4220   8.6112   8.7298   8.7845   8.8351   8.9299   8.9651   9.1499
     9.2261   9.2616   9.2785   9.2823   9.3828   9.3859   9.4055   9.4141
     9.4631   9.4875   9.5147   9.5478   9.5547   9.5610   9.6170   9.6323
     9.8966   9.9312  10.0249  10.1394  10.1400  10.1814  10.3302  10.3408
    12.8423  12.9415  13.0630  13.1274  13.1353  13.2463  14.0288  14.0675
    14.1055  14.1119  14.1371  14.1616  14.1886  14.1905  14.2436  14.2977
    14.3145  14.3466  14.4690  14.6040  14.6390  14.7385  14.8036  14.8891
    15.1124  15.1908  15.2268  15.4769  15.5005  15.7073  15.9183  16.0468
    16.0919  16.1942  16.8187  16.8794  17.1211  17.2752  17.3918  17.4768

          k = 0.1250 0.2500 0.3709 (  9628 PWs)   bands (ev):

   -46.5196 -46.5181 -46.5181 -46.5173 -46.5171 -46.5170 -46.5163 -46.5156
   -22.7929 -22.7927 -22.7921 -22.7907 -22.7803 -22.7771 -22.7748 -22.7741
   -22.7556 -22.7553 -22.7537 -22.7517 -22.7513 -22.7493 -22.7483 -22.7478
   -22.7167 -22.7155 -22.7142 -22.7138 -22.7109 -22.7097 -22.7093 -22.7083
   -14.2930 -14.2516 -14.2146 -14.1939 -14.1847 -14.1664 -14.1387 -14.1145
    -6.7992  -6.7970  -6.7722  -6.7580  -6.6213  -6.5644  -6.4409  -6.2377
    -6.1473  -6.1089  -6.0992  -6.0766  -6.0736  -6.0727  -6.0553  -6.0382
    -5.9724  -5.9545  -5.9463  -5.9388  -5.9351  -5.9091  -5.9088  -5.8800
    -0.0326   0.0056   0.1924   0.2375   0.2732   0.3634   0.4240   0.4241
     0.4398   0.4708   0.4975   0.5142   0.5160   0.5524   0.5778   0.5798
     0.5812   0.6110   0.7065   0.7382   0.7743   0.7788   0.7806   0.7903
     6.2116   6.2356   6.3005   6.3684   6.4465   6.5309   6.7034   6.7039
     6.8237   6.8346   6.8530   6.9832   7.0052   7.0587   7.1059   7.2462
     7.3121   7.4117   7.4664   7.5191   7.5951   7.6120   7.6598   7.6706
     7.6854   7.7283   7.7513   7.8041   7.8195   7.9298   7.9799   7.9826
     8.0020   8.0251   8.0409   8.1021   8.1215   8.1365   8.2818   8.3509
     8.4471   8.4939   8.5835   8.6948   8.8270   8.8737   9.0264   9.1838
     9.2035   9.2167   9.2460   9.3020   9.3398   9.3563   9.3591   9.4088
     9.4955   9.5057   9.5333   9.6206   9.6265   9.6296   9.6836   9.7027
     9.8012   9.8573   9.8675   9.9819  10.0371  10.0389  10.3269  10.3353
    12.8731  12.9237  13.3005  13.3474  13.3673  13.4818  13.8739  13.9095
    13.9236  13.9667  14.0473  14.0701  14.1492  14.2512  14.2812  14.3262
    14.3586  14.3685  14.4607  14.5052  14.5896  14.6800  14.7069  14.8005
    15.1478  15.1811  15.4299  15.6633  15.7543  15.8230  16.0381  16.3310
    16.3831  16.5232  16.6144  17.0680  17.0743  17.1701  17.3121  17.4077

          k = 0.1250 0.2500-0.4946 (  9634 PWs)   bands (ev):

   -46.5192 -46.5190 -46.5177 -46.5175 -46.5175 -46.5173 -46.5159 -46.5157
   -22.7883 -22.7881 -22.7848 -22.7847 -22.7845 -22.7845 -22.7822 -22.7819
   -22.7555 -22.7555 -22.7521 -22.7521 -22.7503 -22.7502 -22.7479 -22.7479
   -22.7161 -22.7160 -22.7142 -22.7142 -22.7103 -22.7103 -22.7091 -22.7091
   -14.2725 -14.2724 -14.1998 -14.1997 -14.1803 -14.1802 -14.1267 -14.1266
    -6.7694  -6.7693  -6.7113  -6.7112  -6.6725  -6.6724  -6.3424  -6.3423
    -6.1195  -6.1194  -6.1016  -6.1016  -6.0713  -6.0712  -6.0473  -6.0472
    -5.9524  -5.9523  -5.9341  -5.9340  -5.9292  -5.9291  -5.9082  -5.9081
     0.0722   0.0722   0.1179   0.1180   0.3934   0.3935   0.4316   0.4316
     0.4557   0.4557   0.4898   0.4898   0.5000   0.5001   0.5429   0.5429
     0.5865   0.5866   0.7562   0.7562   0.7632   0.7632   0.7781   0.7782
     6.2345   6.2345   6.3400   6.3400   6.4951   6.4951   6.7004   6.7004
     7.0161   7.0162   7.0557   7.0558   7.1086   7.1088   7.1973   7.1974
     7.2707   7.2709   7.3579   7.3580   7.4295   7.4297   7.6490   7.6491
     7.7029   7.7030   7.7329   7.7330   7.9132   7.9133   7.9618   7.9619
     8.0385   8.0385   8.0892   8.0892   8.1678   8.1678   8.2850   8.2851
     8.4397   8.4398   8.5783   8.5783   8.8431   8.8431   9.0882   9.0882
     9.1851   9.1851   9.2636   9.2636   9.3266   9.3266   9.4034   9.4034
     9.4506   9.4506   9.6835   9.6835   9.7056   9.7056   9.7825   9.7825
     9.8011   9.8011   9.8489   9.8489   9.8760   9.8761  10.3331  10.3332
    12.9000  12.9000  13.5881  13.5882  13.6129  13.6129  13.6477  13.6478
    13.7210  13.7211  14.0514  14.0514  14.2507  14.2508  14.2595  14.2595
    14.4210  14.4211  14.4544  14.4545  14.5816  14.5817  14.7448  14.7448
    15.1714  15.1714  15.5783  15.5785  15.9424  15.9426  16.2235  16.2238
    16.6813  16.6815  16.8500  16.8502  16.9419  16.9421  17.4359  17.4361

          k = 0.1250 0.3750 0.0000 (  9640 PWs)   bands (ev):

   -46.5191 -46.5187 -46.5179 -46.5177 -46.5176 -46.5170 -46.5165 -46.5152
   -22.8080 -22.8077 -22.8050 -22.8016 -22.7640 -22.7639 -22.7633 -22.7617
   -22.7566 -22.7555 -22.7534 -22.7509 -22.7440 -22.7423 -22.7402 -22.7399
   -22.7246 -22.7230 -22.7223 -22.7222 -22.7109 -22.7106 -22.7087 -22.7087
   -14.3061 -14.2587 -14.2046 -14.2028 -14.1736 -14.1715 -14.1328 -14.1061
    -6.8885  -6.8489  -6.8005  -6.7836  -6.6701  -6.5758  -6.2659  -6.1329
    -6.1123  -6.0987  -6.0799  -6.0689  -6.0618  -6.0425  -6.0394  -6.0257
    -6.0168  -5.9966  -5.9914  -5.9542  -5.9419  -5.9255  -5.8954  -5.8661
    -0.0787   0.0028   0.1004   0.1787   0.2531   0.4203   0.4301   0.4836
     0.4996   0.5045   0.5226   0.5346   0.5422   0.5488   0.5689   0.5911
     0.6226   0.6867   0.7090   0.7131   0.7216   0.7389   0.7655   0.7737
     6.1290   6.1506   6.2895   6.2994   6.3597   6.3754   6.6156   6.6345
     6.6397   6.8029   6.8649   6.9262   6.9311   7.0015   7.0273   7.1921
     7.3670   7.4795   7.5212   7.5529   7.5771   7.6386   7.6985   7.7002
     7.7198   7.7221   7.7881   7.8607   7.8995   7.9038   7.9514   7.9825
     7.9908   8.0293   8.0472   8.0844   8.1483   8.2197   8.4128   8.4304
     8.6604   8.7485   8.7527   8.7903   8.8547   8.9072   8.9795   8.9894
     9.0210   9.1380   9.1809   9.1977   9.2844   9.3245   9.3605   9.4255
     9.4425   9.4786   9.5462   9.6029   9.7044   9.7418   9.7458   9.7604
     9.8749   9.9563  10.0419  10.0503  10.1238  10.1963  10.2968  10.3374
    12.8411  12.8780  13.1514  13.2027  13.2436  13.2445  13.7547  13.7998
    13.8352  13.8386  14.2477  14.2731  14.2940  14.3171  14.3431  14.3465
    14.4058  14.4678  14.4760  14.4779  14.7148  14.7358  14.7533  14.8950
    14.9657  14.9699  15.3068  15.4213  15.4546  15.6544  15.6691  16.1385
    16.2514  16.4250  16.5390  16.9823  17.1590  17.1645  17.3155  17.3327

          k = 0.1250 0.3750 0.1236 (  9631 PWs)   bands (ev):

   -46.5195 -46.5183 -46.5174 -46.5173 -46.5172 -46.5170 -46.5166 -46.5158
   -22.8049 -22.8041 -22.8032 -22.8026 -22.7663 -22.7654 -22.7642 -22.7631
   -22.7560 -22.7555 -22.7533 -22.7515 -22.7433 -22.7414 -22.7411 -22.7400
   -22.7252 -22.7227 -22.7218 -22.7217 -22.7114 -22.7096 -22.7088 -22.7080
   -14.3023 -14.2556 -14.2086 -14.2001 -14.1769 -14.1691 -14.1355 -14.1086
    -6.8739  -6.8308  -6.7921  -6.7768  -6.6518  -6.5813  -6.3016  -6.1358
    -6.1193  -6.1119  -6.0897  -6.0848  -6.0660  -6.0428  -6.0252  -6.0216
    -6.0053  -6.0028  -5.9870  -5.9507  -5.9408  -5.9307  -5.8979  -5.8697
    -0.0619  -0.0103   0.1564   0.1947   0.2438   0.4030   0.4182   0.4936
     0.5000   0.5028   0.5047   0.5107   0.5134   0.5540   0.5590   0.5797
     0.6416   0.6520   0.6685   0.7458   0.7537   0.7606   0.7671   0.7685
     6.1573   6.1840   6.2840   6.3591   6.3810   6.4218   6.6437   6.6441
     6.6831   6.8199   6.8565   6.9296   6.9331   6.9978   7.0691   7.2275
     7.3493   7.4965   7.4981   7.5250   7.6067   7.6228   7.7079   7.7207
     7.7256   7.7482   7.7649   7.8379   7.9156   7.9197   7.9552   7.9561
     7.9805   7.9935   8.0255   8.0943   8.1574   8.1626   8.2851   8.4355
     8.5988   8.7016   8.7075   8.7642   8.8622   8.9789   8.9958   9.0437
     9.0606   9.1837   9.2157   9.2250   9.2546   9.2978   9.3624   9.4502
     9.4506   9.4771   9.5366   9.6365   9.6631   9.7084   9.7489   9.7721
     9.8384   9.9128   9.9737  10.0588  10.1089  10.1850  10.2657  10.2872
    12.8840  12.9587  13.1487  13.2144  13.2454  13.3175  13.7749  13.8218
    13.8497  13.8772  14.2697  14.2753  14.2852  14.2893  14.3101  14.3165
    14.3877  14.4217  14.4548  14.4721  14.6808  14.7241  14.7249  14.8580
    15.0397  15.0442  15.4192  15.4255  15.5823  15.6718  15.6950  16.1966
    16.3181  16.4764  16.5526  17.0227  17.2085  17.2281  17.2958  17.3349

          k = 0.1250 0.3750 0.2473 (  9642 PWs)   bands (ev):

   -46.5194 -46.5187 -46.5177 -46.5174 -46.5172 -46.5172 -46.5170 -46.5157
   -22.8006 -22.7996 -22.7994 -22.7979 -22.7721 -22.7711 -22.7689 -22.7678
   -22.7556 -22.7553 -22.7547 -22.7510 -22.7438 -22.7419 -22.7411 -22.7401
   -22.7249 -22.7230 -22.7230 -22.7222 -22.7109 -22.7105 -22.7083 -22.7083
   -14.2915 -14.2465 -14.2198 -14.1927 -14.1863 -14.1621 -14.1432 -14.1158
    -6.8326  -6.7786  -6.7706  -6.7601  -6.6020  -6.5995  -6.3848  -6.2075
    -6.1424  -6.1120  -6.1083  -6.0631  -6.0589  -6.0554  -6.0415  -6.0117
    -6.0107  -5.9823  -5.9807  -5.9443  -5.9417  -5.9375  -5.9048  -5.8801
    -0.0251   0.0134   0.2309   0.2449   0.2708   0.3265   0.4156   0.4171
     0.4299   0.4679   0.4868   0.5171   0.5172   0.5652   0.5757   0.5783
     0.5810   0.6223   0.7046   0.7315   0.7700   0.7766   0.7778   0.7898
     6.2223   6.2441   6.2853   6.3665   6.4652   6.5705   6.7401   6.7534
     6.7786   6.8128   6.8728   6.9463   6.9575   7.0048   7.1487   7.2776
     7.2797   7.4343   7.4558   7.5103   7.5925   7.6000   7.6674   7.7004
     7.7111   7.7783   7.7881   7.8044   7.8131   7.9519   7.9553   7.9644
     7.9790   7.9859   8.0172   8.0484   8.0724   8.1475   8.1982   8.3971
     8.4414   8.4618   8.6092   8.6457   8.8730   8.9440   8.9532   9.1771
     9.1955   9.1959   9.2755   9.2917   9.2984   9.3046   9.3933   9.4299
     9.4708   9.4957   9.5223   9.5669   9.6722   9.6827   9.7177   9.7412
     9.7722   9.8539   9.8765  10.0344  10.0893  10.1666  10.1734  10.2246
    13.0440  13.1057  13.1783  13.2310  13.3128  13.4549  13.7734  13.8362
    13.8436  13.9374  14.1215  14.1395  14.1427  14.2644  14.2861  14.3279
    14.3313  14.3361  14.3810  14.5039  14.5902  14.6468  14.6907  14.7870
    15.1939  15.2147  15.4194  15.6626  15.7343  15.8381  15.9113  16.3635
    16.5234  16.5666  16.6014  17.1293  17.1360  17.2974  17.3823  17.4286

          k = 0.1250 0.3750 0.3709 (  9621 PWs)   bands (ev):

   -46.5191 -46.5181 -46.5178 -46.5174 -46.5170 -46.5168 -46.5168 -46.5156
   -22.7930 -22.7930 -22.7921 -22.7908 -22.7794 -22.7767 -22.7754 -22.7751
   -22.7549 -22.7547 -22.7541 -22.7512 -22.7430 -22.7418 -22.7411 -22.7394
   -22.7244 -22.7227 -22.7221 -22.7213 -22.7103 -22.7099 -22.7090 -22.7084
   -14.2753 -14.2365 -14.2329 -14.2003 -14.1814 -14.1546 -14.1515 -14.1265
    -6.7720  -6.7472  -6.7423  -6.6979  -6.6434  -6.5185  -6.4887  -6.3107
    -6.1443  -6.1196  -6.1143  -6.0964  -6.0504  -6.0488  -6.0371  -6.0205
    -5.9954  -5.9759  -5.9753  -5.9593  -5.9321  -5.9290  -5.9148  -5.8955
     0.0267   0.0947   0.2191   0.2449   0.3108   0.3151   0.3506   0.4055
     0.4208   0.4534   0.4693   0.4725   0.4937   0.5330   0.5752   0.5804
     0.5843   0.6538   0.6576   0.7533   0.7624   0.7870   0.7927   0.7995
     6.2780   6.2953   6.2974   6.3504   6.6042   6.7773   6.7959   6.8995
     6.9034   6.9243   6.9256   7.0488   7.0594   7.0786   7.1632   7.2741
     7.2957   7.3674   7.3805   7.3877   7.4965   7.5703   7.5937   7.6193
     7.6239   7.7327   7.7723   7.8078   7.8949   7.9343   7.9367   7.9661
     7.9949   8.0030   8.0366   8.0431   8.0639   8.2188   8.2303   8.2583
     8.2600   8.3147   8.4692   8.4816   8.8500   8.8660   8.9421   9.0434
     9.2114   9.3045   9.3393   9.3451   9.3739   9.4263   9.4359   9.4771
     9.5007   9.5110   9.5741   9.5858   9.6837   9.6998   9.7131   9.7332
     9.7437   9.7643   9.8427   9.9837   9.9837  10.0262  10.1726  10.1906
    13.1523  13.2232  13.3421  13.3634  13.4781  13.6499  13.7926  13.8046
    13.8957  13.9376  13.9377  13.9390  14.0842  14.0852  14.1817  14.3266
    14.3704  14.3861  14.4379  14.4514  14.5559  14.5625  14.6401  14.7053
    15.3119  15.3986  15.4128  15.6287  16.0994  16.1059  16.3833  16.5341
    16.6090  16.8430  16.8490  16.8685  17.2058  17.2565  17.3018  17.4721

          k = 0.1250 0.3750-0.4946 (  9630 PWs)   bands (ev):

   -46.5187 -46.5186 -46.5177 -46.5175 -46.5169 -46.5168 -46.5167 -46.5165
   -22.7862 -22.7860 -22.7845 -22.7843 -22.7840 -22.7837 -22.7831 -22.7828
   -22.7548 -22.7547 -22.7536 -22.7535 -22.7420 -22.7419 -22.7419 -22.7419
   -22.7245 -22.7244 -22.7212 -22.7212 -22.7101 -22.7101 -22.7091 -22.7091
   -14.2560 -14.2559 -14.2167 -14.2166 -14.1681 -14.1680 -14.1391 -14.1390
    -6.7360  -6.7359  -6.7040  -6.7039  -6.5975  -6.5974  -6.4185  -6.4184
    -6.1300  -6.1299  -6.1191  -6.1190  -6.0454  -6.0453  -6.0297  -6.0296
    -5.9816  -5.9815  -5.9700  -5.9700  -5.9248  -5.9247  -5.9130  -5.9129
     0.1109   0.1110   0.1988   0.1989   0.2851   0.2851   0.4026   0.4027
     0.4394   0.4394   0.4550   0.4551   0.5395   0.5395   0.5551   0.5551
     0.5802   0.5803   0.7225   0.7226   0.7868   0.7868   0.7945   0.7946
     6.2852   6.2852   6.3244   6.3244   6.7155   6.7155   6.9076   6.9076
     7.0486   7.0487   7.0525   7.0525   7.1478   7.1480   7.1616   7.1617
     7.2928   7.2930   7.4005   7.4007   7.4836   7.4837   7.5213   7.5214
     7.5584   7.5585   7.8357   7.8358   7.8648   7.8648   7.9704   7.9704
     8.0227   8.0228   8.0813   8.0814   8.0858   8.0858   8.1984   8.1985
     8.3426   8.3426   8.3538   8.3539   8.8334   8.8334   8.9526   8.9526
     9.2711   9.2711   9.3630   9.3630   9.4057   9.4057   9.4585   9.4585
     9.5729   9.5729   9.5838   9.5838   9.6935   9.6936   9.7849   9.7849
     9.7977   9.7977   9.8283   9.8283   9.8848   9.8849  10.1653  10.1654
    13.1783  13.1783  13.6195  13.6195  13.6293  13.6293  13.6997  13.6998
    13.8264  13.8264  13.8607  13.8608  14.0507  14.0508  14.2528  14.2529
    14.3535  14.3536  14.4582  14.4582  14.5346  14.5346  14.6035  14.6035
    15.3541  15.3542  15.5557  15.5558  16.4025  16.4027  16.4876  16.4878
    16.8513  16.8516  16.9174  16.9176  17.1969  17.1971  17.2667  17.2668

          k = 0.1250-0.5000 0.0000 (  9644 PWs)   bands (ev):

   -46.5190 -46.5190 -46.5176 -46.5176 -46.5172 -46.5172 -46.5161 -46.5161
   -22.8064 -22.8064 -22.8052 -22.8052 -22.7645 -22.7645 -22.7632 -22.7632
   -22.7559 -22.7559 -22.7522 -22.7522 -22.7348 -22.7348 -22.7316 -22.7316
   -22.7310 -22.7310 -22.7309 -22.7309 -22.7106 -22.7106 -22.7088 -22.7088
   -14.2825 -14.2825 -14.1892 -14.1892 -14.1872 -14.1872 -14.1195 -14.1195
    -6.8392  -6.8392  -6.7606  -6.7605  -6.6828  -6.6828  -6.1637  -6.1636
    -6.1209  -6.1209  -6.0713  -6.0713  -6.0464  -6.0463  -6.0398  -6.0398
    -5.9997  -5.9996  -5.9930  -5.9929  -5.9252  -5.9252  -5.9046  -5.9046
     0.0462   0.0462   0.1268   0.1268   0.2855   0.2855   0.4592   0.4592
     0.4783   0.4783   0.5321   0.5321   0.5560   0.5560   0.6210   0.6210
     0.6320   0.6320   0.6831   0.6831   0.7349   0.7350   0.7424   0.7424
     6.1403   6.1403   6.3401   6.3401   6.3444   6.3445   6.6120   6.6120
     6.9104   6.9104   7.0603   7.0603   7.1855   7.1856   7.2117   7.2117
     7.2270   7.2271   7.3316   7.3317   7.3509   7.3511   7.6936   7.6937
     7.7077   7.7078   7.8926   7.8926   7.9412   7.9412   7.9534   7.9535
     8.0272   8.0272   8.0297   8.0297   8.0912   8.0912   8.5438   8.5439
     8.5897   8.5897   8.7728   8.7728   9.0192   9.0192   9.0349   9.0349
     9.0728   9.0728   9.1142   9.1142   9.1375   9.1375   9.3662   9.3662
     9.3951   9.3951   9.7048   9.7048   9.8427   9.8427   9.8446   9.8447
     9.8596   9.8596   9.9306   9.9307   9.9969   9.9970  10.3027  10.3027
    12.8481  12.8481  13.4585  13.4585  13.4828  13.4828  13.5391  13.5391
    13.5497  13.5497  14.2650  14.2650  14.3427  14.3427  14.3782  14.3782
    14.4304  14.4304  14.5518  14.5518  14.5969  14.5969  14.7922  14.7922
    14.9779  14.9779  15.3991  15.3991  15.5791  15.5791  16.0810  16.0811
    16.5636  16.5636  16.6748  16.6748  16.9806  16.9807  17.6880  17.6881

          k = 0.1250-0.5000 0.1236 (  9642 PWs)   bands (ev):

   -46.5189 -46.5189 -46.5176 -46.5176 -46.5172 -46.5172 -46.5163 -46.5163
   -22.8051 -22.8051 -22.8037 -22.8037 -22.7661 -22.7661 -22.7635 -22.7635
   -22.7556 -22.7556 -22.7524 -22.7524 -22.7344 -22.7344 -22.7322 -22.7322
   -22.7314 -22.7314 -22.7313 -22.7313 -22.7100 -22.7100 -22.7092 -22.7092
   -14.2791 -14.2791 -14.1928 -14.1928 -14.1847 -14.1847 -14.1221 -14.1221
    -6.8273  -6.8273  -6.7423  -6.7422  -6.6809  -6.6809  -6.2070  -6.2069
    -6.1221  -6.1221  -6.0547  -6.0547  -6.0505  -6.0505  -6.0431  -6.0430
    -5.9969  -5.9968  -5.9958  -5.9957  -5.9245  -5.9245  -5.9058  -5.9058
     0.0627   0.0627   0.1136   0.1136   0.3314   0.3314   0.4488   0.4488
     0.4547   0.4547   0.5266   0.5266   0.5397   0.5397   0.5780   0.5780
     0.6219   0.6220   0.7079   0.7079   0.7523   0.7523   0.7548   0.7548
     6.1772   6.1772   6.3394   6.3394   6.3880   6.3880   6.6423   6.6423
     6.9265   6.9265   7.0684   7.0684   7.1788   7.1790   7.1952   7.1952
     7.2262   7.2264   7.3465   7.3466   7.3564   7.3565   7.7155   7.7156
     7.7221   7.7222   7.8549   7.8549   7.9282   7.9282   7.9500   7.9500
     8.0330   8.0330   8.0331   8.0331   8.0766   8.0766   8.4434   8.4435
     8.5585   8.5586   8.7308   8.7308   8.9897   8.9897   9.0820   9.0820
     9.1366   9.1367   9.1384   9.1384   9.1619   9.1619   9.3607   9.3607
     9.4019   9.4019   9.6909   9.6910   9.8019   9.8020   9.8183   9.8183
     9.8627   9.8627   9.9271   9.9272   9.9946   9.9946  10.2698  10.2698
    12.9260  12.9260  13.4712  13.4712  13.5108  13.5108  13.5451  13.5451
    13.5829  13.5829  14.2798  14.2798  14.2813  14.2813  14.3526  14.3526
    14.3843  14.3843  14.5311  14.5311  14.5613  14.5613  14.7757  14.7757
    15.0405  15.0405  15.5352  15.5352  15.5592  15.5592  16.1272  16.1272
    16.6110  16.6110  16.7443  16.7443  16.9944  16.9945  17.6415  17.6416

          k = 0.1250-0.5000 0.2473 (  9628 PWs)   bands (ev):

   -46.5189 -46.5189 -46.5178 -46.5178 -46.5169 -46.5169 -46.5160 -46.5160
   -22.8002 -22.8002 -22.7978 -22.7978 -22.7715 -22.7715 -22.7675 -22.7675
   -22.7549 -22.7549 -22.7520 -22.7520 -22.7337 -22.7337 -22.7330 -22.7330
   -22.7316 -22.7316 -22.7309 -22.7309 -22.7106 -22.7106 -22.7090 -22.7090
   -14.2692 -14.2691 -14.2031 -14.2031 -14.1774 -14.1774 -14.1295 -14.1295
    -6.7950  -6.7950  -6.6898  -6.6897  -6.6790  -6.6789  -6.2943  -6.2942
    -6.1264  -6.1264  -6.0857  -6.0857  -6.0342  -6.0341  -6.0259  -6.0259
    -6.0017  -6.0016  -5.9957  -5.9956  -5.9234  -5.9233  -5.9091  -5.9091
     0.0935   0.0935   0.1273   0.1273   0.3705   0.3705   0.4296   0.4296
     0.4443   0.4443   0.4876   0.4877   0.4964   0.4964   0.5440   0.5440
     0.6031   0.6031   0.7503   0.7503   0.7561   0.7561   0.7784   0.7784
     6.2502   6.2503   6.3383   6.3384   6.5243   6.5243   6.7594   6.7594
     7.0012   7.0012   7.0611   7.0612   7.1277   7.1279   7.1791   7.1791
     7.2459   7.2460   7.3641   7.3642   7.4145   7.4146   7.6931   7.6931
     7.7025   7.7026   7.7904   7.7904   7.9068   7.9069   7.9842   7.9842
     8.0319   8.0319   8.0525   8.0525   8.0697   8.0697   8.2572   8.2573
     8.4929   8.4929   8.5549   8.5549   8.9267   8.9267   9.0220   9.0220
     9.2196   9.2197   9.2587   9.2587   9.2981   9.2981   9.3774   9.3774
     9.4460   9.4460   9.6276   9.6276   9.7209   9.7209   9.7601   9.7601
     9.8686   9.8686   9.9327   9.9328   9.9803   9.9803  10.1843  10.1843
    13.0858  13.0858  13.4711  13.4711  13.5300  13.5300  13.5729  13.5729
    13.6947  13.6947  14.1331  14.1331  14.2005  14.2005  14.3367  14.3367
    14.4140  14.4140  14.4246  14.4246  14.5406  14.5406  14.7210  14.7210
    15.2157  15.2157  15.5638  15.5638  15.8733  15.8734  16.2709  16.2710
    16.7434  16.7434  16.9493  16.9493  17.0468  17.0469  17.4739  17.4740

          k = 0.1250-0.5000 0.3709 (  9638 PWs)   bands (ev):

   -46.5187 -46.5187 -46.5176 -46.5176 -46.5171 -46.5171 -46.5167 -46.5167
   -22.7929 -22.7929 -22.7916 -22.7916 -22.7778 -22.7778 -22.7759 -22.7759
   -22.7545 -22.7545 -22.7539 -22.7539 -22.7336 -22.7336 -22.7321 -22.7321
   -22.7321 -22.7321 -22.7320 -22.7320 -22.7108 -22.7108 -22.7086 -22.7086
   -14.2542 -14.2542 -14.2185 -14.2185 -14.1665 -14.1665 -14.1406 -14.1406
    -6.7515  -6.7515  -6.6861  -6.6860  -6.6088  -6.6088  -6.3994  -6.3994
    -6.1318  -6.1318  -6.1152  -6.1152  -6.0230  -6.0229  -6.0138  -6.0137
    -6.0052  -6.0051  -5.9988  -5.9987  -5.9220  -5.9220  -5.9141  -5.9141
     0.1236   0.1236   0.2018   0.2018   0.2730   0.2730   0.4003   0.4003
     0.4360   0.4361   0.4549   0.4549   0.5404   0.5404   0.5547   0.5547
     0.5850   0.5850   0.7191   0.7191   0.7837   0.7837   0.7965   0.7965
     6.2856   6.2856   6.3266   6.3266   6.7242   6.7242   6.9561   6.9561
     7.0388   7.0390   7.0634   7.0634   7.1234   7.1235   7.1527   7.1527
     7.2611   7.2612   7.3494   7.3496   7.4791   7.4792   7.5516   7.5516
     7.5796   7.5796   7.8584   7.8584   7.8783   7.8783   7.9941   7.9941
     7.9999   8.0000   8.0721   8.0722   8.0861   8.0861   8.1441   8.1441
     8.3158   8.3159   8.3764   8.3764   8.8750   8.8750   8.9170   8.9170
     9.3006   9.3006   9.3557   9.3557   9.3847   9.3847   9.4812   9.4812
     9.5360   9.5360   9.5616   9.5616   9.5950   9.5950   9.8043   9.8043
     9.8875   9.8875   9.9039   9.9039   9.9584   9.9584  10.0395  10.0395
    13.3136  13.3137  13.4986  13.4986  13.5283  13.5283  13.6860  13.6860
    13.8526  13.8527  13.9087  13.9087  14.0327  14.0327  14.2480  14.2481
    14.3812  14.3812  14.4412  14.4412  14.4811  14.4812  14.6160  14.6160
    15.3772  15.3772  15.5494  15.5495  16.2958  16.2959  16.5126  16.5127
    16.9453  16.9453  16.9680  16.9681  17.2102  17.2103  17.2753  17.2755

          k = 0.1250-0.5000-0.4946 (  9604 PWs)   bands (ev):

   -46.5179 -46.5179 -46.5178 -46.5178 -46.5166 -46.5166 -46.5164 -46.5164
   -22.7851 -22.7851 -22.7849 -22.7849 -22.7828 -22.7828 -22.7825 -22.7825
   -22.7536 -22.7536 -22.7536 -22.7536 -22.7328 -22.7328 -22.7328 -22.7328
   -22.7315 -22.7315 -22.7315 -22.7315 -22.7086 -22.7086 -22.7085 -22.7085
   -14.2365 -14.2364 -14.2364 -14.2364 -14.1537 -14.1536 -14.1536 -14.1536
    -6.7111  -6.7110  -6.7110  -6.7109  -6.5082  -6.5081  -6.5080  -6.5080
    -6.1309  -6.1309  -6.1308  -6.1308  -6.0140  -6.0139  -6.0139  -6.0138
    -6.0033  -6.0032  -6.0032  -6.0031  -5.9188  -5.9188  -5.9187  -5.9187
     0.1851   0.1851   0.1851   0.1851   0.2985   0.2985   0.2985   0.2986
     0.4378   0.4378   0.4379   0.4379   0.5687   0.5688   0.5688   0.5688
     0.6431   0.6431   0.6431   0.6432   0.7996   0.7996   0.7996   0.7996
     6.3138   6.3138   6.3138   6.3138   6.9102   6.9103   6.9103   6.9103
     7.0633   7.0633   7.0633   7.0634   7.2601   7.2602   7.2602   7.2602
     7.2829   7.2829   7.2830   7.2831   7.3980   7.3981   7.3981   7.3982
     7.7251   7.7251   7.7252   7.7252   7.9469   7.9469   7.9470   7.9470
     7.9955   7.9956   7.9956   7.9956   8.1821   8.1821   8.1821   8.1821
     8.2610   8.2611   8.2611   8.2612   8.8722   8.8722   8.8723   8.8723
     9.3781   9.3781   9.3781   9.3781   9.4907   9.4907   9.4908   9.4908
     9.4913   9.4913   9.4913   9.4913   9.7992   9.7992   9.7992   9.7992
     9.8610   9.8610   9.8610   9.8610   9.9624   9.9624   9.9625   9.9626
    13.4932  13.4932  13.4932  13.4932  13.6612  13.6612  13.6613  13.6613
    13.8543  13.8543  13.8543  13.8544  14.0625  14.0626  14.0626  14.0626
    14.4512  14.4512  14.4512  14.4512  14.5265  14.5265  14.5266  14.5266
    15.5022  15.5022  15.5023  15.5023  16.7268  16.7269  16.7271  16.7272
    16.8556  16.8557  16.8559  16.8560  17.1995  17.1995  17.1997  17.1997

          k = 0.2500 0.2500 0.0000 (  9623 PWs)   bands (ev):

   -46.5198 -46.5177 -46.5177 -46.5176 -46.5169 -46.5167 -46.5167 -46.5154
   -22.8072 -22.8062 -22.8062 -22.8021 -22.7642 -22.7625 -22.7625 -22.7620
   -22.7515 -22.7515 -22.7503 -22.7488 -22.7488 -22.7487 -22.7474 -22.7448
   -22.7186 -22.7174 -22.7144 -22.7141 -22.7138 -22.7138 -22.7126 -22.7126
   -14.3132 -14.2291 -14.2291 -14.2091 -14.1677 -14.1527 -14.1527 -14.1025
    -6.8928  -6.8928  -6.8119  -6.7788  -6.6260  -6.4224  -6.4224  -6.1341
    -6.1029  -6.1029  -6.0920  -6.0920  -6.0664  -6.0410  -6.0253  -6.0181
    -6.0119  -5.9821  -5.9764  -5.9745  -5.9745  -5.8798  -5.8798  -5.8782
    -0.1443  -0.0340   0.0607   0.3031   0.3031   0.3933   0.4093   0.4093
     0.4624   0.4845   0.5131   0.5312   0.5565   0.5565   0.6188   0.6408
     0.6408   0.6873   0.6873   0.7193   0.7407   0.7652   0.7652   0.7852
     6.1502   6.2450   6.2450   6.3103   6.3744   6.5820   6.5820   6.5969
     6.5969   6.7329   6.7558   6.7700   6.7863   6.8373   6.8373   7.3696
     7.6108   7.6158   7.6158   7.6373   7.6952   7.7054   7.7213   7.7213
     7.7647   7.7780   7.7780   7.8593   7.8744   7.8744   7.9424   7.9424
     7.9566   8.0160   8.0319   8.0522   8.1248   8.3368   8.3368   8.4686
     8.4687   8.6344   8.7586   8.7586   8.7729   8.8080   9.0828   9.0828
     9.1688   9.1737   9.2238   9.2416   9.3142   9.3347   9.4161   9.4980
     9.4980   9.5193   9.5204   9.5204   9.5887   9.5887   9.6682   9.6682
     9.9767  10.0219  10.1448  10.1693  10.1976  10.1976  10.2640  10.2941
    12.8413  13.0045  13.0180  13.0509  13.0509  13.1482  14.0409  14.0643
    14.0643  14.1000  14.1000  14.1347  14.1606  14.1606  14.3081  14.3434
    14.3864  14.3864  14.4857  14.6289  14.6290  14.7663  14.8064  14.8905
    15.1066  15.1666  15.1666  15.4081  15.4709  15.4750  16.0163  16.1016
    16.1016  16.1083  16.8511  16.8511  17.1738  17.3833  17.4657  17.4740

          k = 0.2500 0.2500 0.1236 (  9638 PWs)   bands (ev):

   -46.5198 -46.5181 -46.5181 -46.5175 -46.5169 -46.5169 -46.5168 -46.5157
   -22.8053 -22.8043 -22.8043 -22.8015 -22.7662 -22.7653 -22.7653 -22.7633
   -22.7514 -22.7513 -22.7497 -22.7495 -22.7495 -22.7484 -22.7483 -22.7463
   -22.7183 -22.7174 -22.7149 -22.7148 -22.7140 -22.7138 -22.7132 -22.7132
   -14.3094 -14.2263 -14.2262 -14.2132 -14.1652 -14.1557 -14.1557 -14.1050
    -6.8761  -6.8761  -6.8038  -6.7719  -6.6080  -6.4406  -6.4406  -6.1382
    -6.1036  -6.1036  -6.0948  -6.0908  -6.0908  -6.0646  -6.0198  -6.0072
    -5.9961  -5.9930  -5.9749  -5.9706  -5.9706  -5.8852  -5.8852  -5.8839
    -0.1254  -0.0463   0.1178   0.3125   0.3125   0.3720   0.4048   0.4048
     0.4632   0.4839   0.4858   0.4939   0.5388   0.5389   0.6177   0.6178
     0.6513   0.6624   0.7025   0.7025   0.7760   0.7834   0.7834   0.7861
     6.1838   6.2757   6.2757   6.3129   6.4309   6.5720   6.5720   6.6187
     6.6187   6.7320   6.7675   6.7741   6.7933   6.8625   6.8625   7.3761
     7.5717   7.5717   7.6112   7.6488   7.6777   7.7133   7.7133   7.7290
     7.7290   7.7437   7.7679   7.8784   7.8858   7.8858   7.9328   7.9328
     7.9532   8.0004   8.0159   8.0179   8.1403   8.2354   8.2354   8.4721
     8.4722   8.6140   8.6712   8.7267   8.8284   8.8284   9.1076   9.1139
     9.1139   9.2062   9.2348   9.2759   9.2859   9.3997   9.4459   9.4623
     9.4623   9.4797   9.4797   9.5473   9.6146   9.6146   9.6296   9.6296
     9.9289   9.9468  10.0926  10.1312  10.1837  10.1837  10.2594  10.2860
    12.9081  13.0362  13.0441  13.0888  13.0888  13.1524  14.0586  14.0586
    14.0763  14.1010  14.1010  14.1565  14.1565  14.1654  14.2676  14.2862
    14.3295  14.3295  14.4928  14.5835  14.5835  14.7267  14.7921  14.8333
    15.2145  15.2416  15.2416  15.4113  15.4940  15.6084  16.0769  16.1004
    16.1004  16.1763  16.8616  16.8616  17.1269  17.4008  17.5106  17.5111

          k = 0.2500 0.2500 0.2473 (  9634 PWs)   bands (ev):

   -46.5193 -46.5182 -46.5182 -46.5176 -46.5169 -46.5169 -46.5166 -46.5158
   -22.7991 -22.7990 -22.7990 -22.7973 -22.7712 -22.7700 -22.7700 -22.7681
   -22.7517 -22.7517 -22.7494 -22.7494 -22.7486 -22.7484 -22.7481 -22.7467
   -22.7173 -22.7159 -22.7156 -22.7156 -22.7146 -22.7145 -22.7137 -22.7137
   -14.2983 -14.2247 -14.2181 -14.2181 -14.1641 -14.1641 -14.1583 -14.1122
    -6.8277  -6.8277  -6.7826  -6.7548  -6.5560  -6.4934  -6.4934  -6.1766
    -6.1455  -6.1010  -6.1010  -6.0868  -6.0868  -6.0593  -6.0332  -6.0250
    -5.9930  -5.9717  -5.9708  -5.9619  -5.9619  -5.8997  -5.8997  -5.8989
    -0.0692  -0.0347   0.2344   0.3112   0.3379   0.3379   0.3768   0.4026
     0.4026   0.4662   0.4715   0.4818   0.4936   0.4936   0.5738   0.5738
     0.5945   0.7115   0.7334   0.7385   0.7385   0.8092   0.8092   0.8210
     6.2523   6.3322   6.3644   6.3644   6.5454   6.5454   6.5980   6.7104
     6.7104   6.7622   6.7681   6.8419   6.8816   6.9484   6.9484   7.4168
     7.4410   7.4410   7.5551   7.5603   7.6949   7.6949   7.6955   7.7166
     7.7166   7.7712   7.8479   7.8479   7.8774   7.8932   7.9086   7.9372
     7.9457   7.9457   7.9892   7.9911   8.1601   8.1601   8.1845   8.4241
     8.4942   8.4942   8.5539   8.5817   8.7757   8.7757   9.0205   9.1906
     9.2750   9.2759   9.2759   9.3096   9.3511   9.3743   9.3743   9.4551
     9.4551   9.5004   9.5325   9.5556   9.5556   9.5782   9.6299   9.6299
     9.8653   9.9056   9.9903  10.0624  10.1256  10.1256  10.2571  10.2774
    12.9908  13.1200  13.1521  13.1729  13.2314  13.2314  14.0534  14.0534
    14.1132  14.1151  14.1151  14.1260  14.1260  14.1355  14.1561  14.1979
    14.1979  14.2305  14.4922  14.4922  14.5393  14.6774  14.7338  14.7448
    15.4318  15.4716  15.4827  15.4827  15.5187  15.9511  16.0842  16.0842
    16.2505  16.3746  16.9404  16.9404  16.9873  17.4104  17.5217  17.6124

          k = 0.2500 0.2500 0.3709 (  9641 PWs)   bands (ev):

   -46.5190 -46.5181 -46.5179 -46.5179 -46.5175 -46.5175 -46.5164 -46.5160
   -22.7933 -22.7931 -22.7931 -22.7905 -22.7795 -22.7767 -22.7767 -22.7750
   -22.7509 -22.7509 -22.7502 -22.7502 -22.7487 -22.7484 -22.7476 -22.7470
   -22.7167 -22.7159 -22.7150 -22.7149 -22.7149 -22.7146 -22.7146 -22.7146
   -14.2817 -14.2418 -14.2059 -14.2058 -14.1766 -14.1766 -14.1478 -14.1229
    -6.7571  -6.7539  -6.7539  -6.7399  -6.5726  -6.5726  -6.4764  -6.2746
    -6.1444  -6.0934  -6.0934  -6.0839  -6.0839  -6.0812  -6.0513  -6.0329
    -5.9719  -5.9658  -5.9628  -5.9516  -5.9516  -5.9213  -5.9190  -5.9190
     0.0155   0.0221   0.2218   0.2444   0.3668   0.3669   0.3758   0.4228
     0.4229   0.4412   0.4412   0.4690   0.4701   0.4783   0.5230   0.5231
     0.5341   0.6451   0.7694   0.7779   0.7779   0.8189   0.8189   0.8299
     6.3118   6.3447   6.4261   6.4261   6.5119   6.5119   6.7601   6.7716
     6.8123   6.8589   6.8589   7.0250   7.0409   7.1188   7.1188   7.2497
     7.2497   7.3296   7.4641   7.4909   7.5989   7.5989   7.6959   7.7167
     7.7167   7.7524   7.7524   7.7527   7.7543   7.8985   7.9440   7.9749
     7.9958   8.0112   8.0112   8.0469   8.1382   8.1382   8.1507   8.2454
     8.4215   8.4325   8.5243   8.5243   8.6577   8.6577   8.9783   9.0639
     9.3135   9.3135   9.3240   9.3545   9.3545   9.3675   9.4541   9.4659
     9.4659   9.5813   9.5813   9.5997   9.6460   9.6464   9.6547   9.6547
     9.7855   9.8283   9.8327   9.9370  10.0048  10.0048  10.2460  10.2617
    13.0474  13.0940  13.3616  13.3788  13.4554  13.4554  13.8611  13.9187
    13.9502  13.9502  14.0809  14.0809  14.1249  14.1249  14.1752  14.1752
    14.2837  14.3436  14.3707  14.3707  14.5541  14.5839  14.5840  14.6750
    15.4518  15.4593  15.7466  15.7466  15.8971  16.0346  16.0346  16.4106
    16.5105  16.6894  16.7080  17.1467  17.1467  17.1991  17.2612  17.5407

          k = 0.2500 0.2500-0.4946 (  9628 PWs)   bands (ev):

   -46.5187 -46.5185 -46.5175 -46.5175 -46.5173 -46.5173 -46.5163 -46.5161
   -22.7868 -22.7866 -22.7842 -22.7842 -22.7840 -22.7840 -22.7829 -22.7826
   -22.7497 -22.7497 -22.7497 -22.7497 -22.7482 -22.7482 -22.7479 -22.7479
   -22.7168 -22.7168 -22.7148 -22.7148 -22.7148 -22.7148 -22.7142 -22.7142
   -14.2619 -14.2618 -14.1913 -14.1913 -14.1913 -14.1912 -14.1354 -14.1353
    -6.7397  -6.7396  -6.6645  -6.6645  -6.6644  -6.6644  -6.3787  -6.3785
    -6.1230  -6.1229  -6.0858  -6.0858  -6.0857  -6.0857  -6.0421  -6.0420
    -5.9621  -5.9621  -5.9470  -5.9469  -5.9377  -5.9377  -5.9376  -5.9376
     0.1176   0.1177   0.1195   0.1195   0.3980   0.3980   0.3981   0.3981
     0.4694   0.4694   0.4694   0.4695   0.4742   0.4742   0.4905   0.4906
     0.5197   0.5197   0.8075   0.8075   0.8076   0.8076   0.8117   0.8117
     6.3429   6.3430   6.4807   6.4807   6.4808   6.4808   6.7601   6.7601
     7.0568   7.0568   7.0569   7.0569   7.0724   7.0726   7.1558   7.1558
     7.3669   7.3670   7.3671   7.3671   7.4839   7.4840   7.6106   7.6107
     7.7305   7.7305   7.7306   7.7306   7.8326   7.8327   7.9681   7.9682
     8.0358   8.0358   8.1011   8.1011   8.1011   8.1011   8.2465   8.2465
     8.3133   8.3134   8.5694   8.5694   8.5694   8.5694   8.9814   8.9814
     9.3177   9.3177   9.3177   9.3177   9.3482   9.3482   9.5260   9.5260
     9.5260   9.5260   9.6444   9.6444   9.7140   9.7141   9.7322   9.7323
     9.7785   9.7786   9.8563   9.8563   9.8563   9.8563  10.2423  10.2424
    13.0807  13.0808  13.6047  13.6048  13.6572  13.6573  13.7084  13.7084
    13.7084  13.7085  14.1068  14.1068  14.1068  14.1068  14.2797  14.2798
    14.2798  14.2798  14.4132  14.4132  14.4434  14.4435  14.6343  14.6343
    15.4437  15.4438  15.9262  15.9262  15.9263  15.9263  16.3189  16.3192
    16.8396  16.8398  16.8956  16.8959  17.0936  17.0938  17.4505  17.4506

          k = 0.2500 0.3750 0.0000 (  9634 PWs)   bands (ev):

   -46.5192 -46.5183 -46.5177 -46.5174 -46.5170 -46.5170 -46.5170 -46.5157
   -22.8077 -22.8061 -22.8058 -22.8030 -22.7641 -22.7637 -22.7627 -22.7624
   -22.7506 -22.7489 -22.7484 -22.7474 -22.7436 -22.7418 -22.7406 -22.7393
   -22.7247 -22.7232 -22.7230 -22.7213 -22.7167 -22.7151 -22.7138 -22.7133
   -14.2942 -14.2487 -14.2152 -14.1963 -14.1819 -14.1658 -14.1413 -14.1141
    -6.8530  -6.8281  -6.7886  -6.7298  -6.6823  -6.5211  -6.3385  -6.1303
    -6.1173  -6.0980  -6.0867  -6.0751  -6.0717  -6.0512  -6.0478  -6.0249
    -6.0101  -6.0022  -5.9774  -5.9668  -5.9517  -5.9440  -5.9097  -5.8983
    -0.0667   0.0656   0.1792   0.2115   0.3038   0.3245   0.4111   0.4186
     0.4652   0.4806   0.5000   0.5190   0.5411   0.5452   0.5975   0.6095
     0.6592   0.6684   0.6724   0.7124   0.7298   0.7351   0.7499   0.7525
     6.2096   6.2413   6.3013   6.3684   6.4410   6.5436   6.6780   6.7036
     6.7239   6.8284   6.9079   6.9607   6.9925   7.0125   7.0448   7.1555
     7.3902   7.4378   7.4683   7.5577   7.5958   7.6178   7.6441   7.6653
     7.6928   7.7674   7.7811   7.8544   7.8601   7.9067   7.9388   7.9838
     7.9882   8.0383   8.0725   8.0851   8.1297   8.1898   8.2626   8.4102
     8.5141   8.5944   8.6675   8.6797   8.7312   8.7751   8.9405   9.0448
     9.1216   9.1337   9.2058   9.2370   9.2674   9.3912   9.3984   9.4686
     9.4938   9.5140   9.5980   9.6097   9.6472   9.6829   9.7580   9.8031
     9.8598   9.9082  10.0007  10.0190  10.0463  10.1717  10.1940  10.2241
    12.9299  13.0138  13.2029  13.2400  13.2509  13.3899  13.7927  13.8166
    13.8347  13.9442  14.0863  14.0954  14.1435  14.2569  14.3442  14.3692
    14.3887  14.3916  14.4436  14.5067  14.5954  14.6768  14.7178  14.8033
    15.1550  15.1601  15.3414  15.4698  15.7594  15.8209  16.0445  16.3636
    16.4187  16.5536  16.6094  17.1334  17.1618  17.3395  17.3462  17.3968

          k = 0.2500 0.3750 0.1236 (  9645 PWs)   bands (ev):

   -46.5194 -46.5187 -46.5181 -46.5173 -46.5171 -46.5170 -46.5167 -46.5159
   -22.8043 -22.8043 -22.8035 -22.8022 -22.7662 -22.7661 -22.7651 -22.7633
   -22.7516 -22.7496 -22.7486 -22.7473 -22.7439 -22.7411 -22.7399 -22.7397
   -22.7259 -22.7237 -22.7227 -22.7225 -22.7168 -22.7161 -22.7141 -22.7141
   -14.2906 -14.2456 -14.2124 -14.2001 -14.1794 -14.1690 -14.1442 -14.1168
    -6.8381  -6.8112  -6.7787  -6.7245  -6.6643  -6.5277  -6.3590  -6.1656
    -6.1213  -6.0975  -6.0850  -6.0832  -6.0698  -6.0503  -6.0323  -6.0239
    -6.0209  -6.0032  -5.9755  -5.9664  -5.9503  -5.9483  -5.9132  -5.9023
    -0.0492   0.0511   0.1929   0.2636   0.2908   0.3309   0.3910   0.4200
     0.4640   0.4683   0.4812   0.5117   0.5135   0.5373   0.5738   0.5769
     0.6070   0.6141   0.7076   0.7328   0.7707   0.7751   0.7759   0.7792
     6.2508   6.2742   6.3621   6.4188   6.4364   6.5272   6.6949   6.7337
     6.7415   6.8099   6.9186   6.9697   6.9922   7.0308   7.0776   7.1652
     7.3635   7.4217   7.4459   7.5735   7.5949   7.6085   7.6225   7.6849
     7.7067   7.7827   7.7888   7.8060   7.8391   7.9187   7.9436   7.9703
     7.9835   7.9839   8.0535   8.0983   8.1272   8.1843   8.1969   8.3036
     8.4727   8.5883   8.6003   8.6677   8.6781   8.8126   8.8932   9.0269
     9.1659   9.1771   9.2240   9.2745   9.3009   9.3745   9.4210   9.4721
     9.4789   9.5519   9.5901   9.5932   9.5981   9.7137   9.7153   9.7736
     9.8453   9.8972   9.9591  10.0139  10.0491  10.1702  10.1708  10.1954
    12.9880  13.0542  13.2183  13.2649  13.2843  13.3759  13.7891  13.8310
    13.8567  13.9250  14.0773  14.1302  14.1317  14.2568  14.2885  14.3179
    14.3205  14.4001  14.4073  14.4884  14.5882  14.6257  14.6704  14.7843
    15.2458  15.2489  15.4315  15.6109  15.7520  15.8080  16.0474  16.4131
    16.4784  16.5700  16.6325  17.1657  17.1728  17.3378  17.3689  17.3913

          k = 0.2500 0.3750 0.2473 (  9637 PWs)   bands (ev):

   -46.5190 -46.5182 -46.5175 -46.5175 -46.5173 -46.5170 -46.5168 -46.5164
   -22.7998 -22.7998 -22.7994 -22.7987 -22.7707 -22.7704 -22.7682 -22.7681
   -22.7503 -22.7490 -22.7486 -22.7483 -22.7429 -22.7421 -22.7411 -22.7404
   -22.7247 -22.7226 -22.7225 -22.7219 -22.7161 -22.7152 -22.7149 -22.7145
   -14.2802 -14.2368 -14.2110 -14.2045 -14.1782 -14.1722 -14.1523 -14.1242
    -6.7954  -6.7617  -6.7532  -6.7116  -6.6131  -6.5514  -6.4164  -6.2414
    -6.1302  -6.0990  -6.0971  -6.0784  -6.0643  -6.0572  -6.0461  -6.0122
    -6.0106  -6.0088  -5.9735  -5.9657  -5.9582  -5.9482  -5.9221  -5.9143
    -0.0005   0.0513   0.2317   0.2739   0.3329   0.3476   0.3738   0.4198
     0.4238   0.4295   0.4474   0.4579   0.4769   0.4870   0.5175   0.5244
     0.5508   0.6477   0.7688   0.7698   0.7767   0.8153   0.8224   0.8238
     6.3240   6.3602   6.4248   6.4565   6.5158   6.5572   6.7600   6.7906
     6.8014   6.8122   6.9190   6.9834   7.0331   7.0665   7.1473   7.2120
     7.2910   7.3414   7.4417   7.5055   7.6069   7.6119   7.6247   7.7471
     7.7556   7.7670   7.7790   7.7851   7.7953   7.8702   7.9507   7.9704
     7.9784   7.9796   8.0190   8.0677   8.0980   8.1350   8.2161   8.2271
     8.4171   8.4517   8.4800   8.5726   8.5991   8.7598   8.8243   8.9422
     9.2978   9.3131   9.3283   9.3532   9.3678   9.3742   9.4357   9.4949
     9.5143   9.5193   9.5591   9.5926   9.6494   9.6663   9.7430   9.7614
     9.7817   9.8563   9.8688   9.9854  10.0066  10.1011  10.1448  10.1468
    13.1375  13.2162  13.2811  13.3476  13.3756  13.4489  13.8271  13.8777
    13.9056  13.9487  14.1274  14.1397  14.1615  14.1688  14.1726  14.1943
    14.2319  14.2799  14.3503  14.3949  14.5231  14.5376  14.5754  14.6558
    15.4921  15.4969  15.7397  15.7524  15.8943  15.9449  16.0215  16.5598
    16.5805  16.6651  16.7174  17.1694  17.2233  17.2838  17.3990  17.5384

          k = 0.2500 0.3750 0.3709 (  9640 PWs)   bands (ev):

   -46.5190 -46.5179 -46.5178 -46.5175 -46.5174 -46.5172 -46.5169 -46.5167
   -22.7936 -22.7930 -22.7924 -22.7913 -22.7785 -22.7766 -22.7763 -22.7756
   -22.7498 -22.7491 -22.7491 -22.7489 -22.7425 -22.7424 -22.7414 -22.7414
   -22.7248 -22.7224 -22.7219 -22.7219 -22.7162 -22.7149 -22.7149 -22.7149
   -14.2645 -14.2271 -14.2235 -14.1927 -14.1918 -14.1644 -14.1613 -14.1353
    -6.7325  -6.7232  -6.7005  -6.6865  -6.5969  -6.5348  -6.5000  -6.3366
    -6.1360  -6.1077  -6.0997  -6.0970  -6.0682  -6.0598  -6.0385  -6.0178
    -5.9988  -5.9987  -5.9736  -5.9684  -5.9621  -5.9465  -5.9336  -5.9317
     0.0667   0.0990   0.2454   0.2732   0.2955   0.2974   0.3627   0.3710
     0.4281   0.4403   0.4408   0.4410   0.4450   0.4671   0.4818   0.5008
     0.5023   0.7192   0.7247   0.8191   0.8194   0.8208   0.8472   0.8514
     6.3845   6.4157   6.4255   6.4888   6.5811   6.7431   6.7561   6.9002
     6.9105   6.9122   6.9489   7.0454   7.1116   7.1551   7.1759   7.1824
     7.2905   7.3136   7.3357   7.4336   7.5595   7.6186   7.6387   7.6638
     7.6689   7.6862   7.7050   7.7991   7.8030   7.9303   7.9418   7.9762
     7.9860   7.9999   8.0053   8.0370   8.0542   8.1800   8.1805   8.1968
     8.2527   8.2733   8.3671   8.4337   8.5618   8.6411   8.7799   8.8232
     9.3195   9.3984   9.4069   9.4168   9.4213   9.4301   9.4645   9.5462
     9.5705   9.6038   9.6085   9.6119   9.7080   9.7149   9.7267   9.7337
     9.7345   9.7394   9.7829   9.8925   9.9452   9.9914  10.1187  10.1239
    13.2594  13.3531  13.4118  13.4438  13.5016  13.6289  13.8542  13.8672
    13.9104  13.9534  13.9564  13.9672  14.0425  14.0703  14.1670  14.2203
    14.2217  14.2409  14.2732  14.3977  14.4201  14.4224  14.4877  14.5482
    15.6677  15.7539  15.7549  15.9955  16.1104  16.1188  16.3825  16.5383
    16.7845  16.8845  16.8947  16.9654  17.2591  17.3115  17.3878  17.5270

          k = 0.2500 0.3750-0.4946 (  9630 PWs)   bands (ev):

   -46.5184 -46.5183 -46.5178 -46.5176 -46.5170 -46.5170 -46.5168 -46.5168
   -22.7864 -22.7862 -22.7849 -22.7847 -22.7837 -22.7834 -22.7833 -22.7830
   -22.7492 -22.7492 -22.7488 -22.7488 -22.7421 -22.7421 -22.7417 -22.7417
   -22.7231 -22.7231 -22.7218 -22.7218 -22.7155 -22.7155 -22.7150 -22.7150
   -14.2459 -14.2458 -14.2077 -14.2077 -14.1786 -14.1786 -14.1484 -14.1483
    -6.7029  -6.7028  -6.6615  -6.6614  -6.5950  -6.5949  -6.4385  -6.4383
    -6.1266  -6.1265  -6.1055  -6.1054  -6.0605  -6.0604  -6.0283  -6.0282
    -5.9937  -5.9936  -5.9734  -5.9733  -5.9500  -5.9499  -5.9424  -5.9423
     0.1481   0.1481   0.1890   0.1891   0.3062   0.3063   0.3671   0.3672
     0.4001   0.4001   0.4319   0.4319   0.4553   0.4554   0.4735   0.4736
     0.6244   0.6244   0.7863   0.7864   0.8455   0.8456   0.8504   0.8504
     6.4047   6.4047   6.4731   6.4731   6.6757   6.6758   6.9152   6.9152
     6.9813   6.9814   7.0507   7.0508   7.1367   7.1369   7.1555   7.1556
     7.3732   7.3733   7.4547   7.4549   7.4869   7.4870   7.5119   7.5120
     7.6567   7.6568   7.7386   7.7386   7.8487   7.8487   7.9822   7.9823
     8.0385   8.0385   8.0467   8.0467   8.1185   8.1185   8.1237   8.1237
     8.2564   8.2565   8.3101   8.3102   8.5646   8.5646   8.7677   8.7677
     9.3675   9.3675   9.4321   9.4321   9.4434   9.4435   9.5814   9.5814
     9.5912   9.5912   9.6335   9.6336   9.7224   9.7225   9.7599   9.7599
     9.7608   9.7608   9.8228   9.8228   9.8435   9.8436  10.1115  10.1116
    13.3180  13.3180  13.6549  13.6550  13.6787  13.6787  13.7292  13.7293
    13.8464  13.8465  13.8869  13.8869  14.0819  14.0820  14.2168  14.2168
    14.2249  14.2250  14.3234  14.3235  14.3884  14.3885  14.4617  14.4617
    15.7302  15.7303  15.9282  15.9283  16.3982  16.3984  16.5150  16.5153
    16.8822  16.8824  17.0713  17.0714  17.1910  17.1912  17.3558  17.3560

          k = 0.2500-0.5000 0.0000 (  9644 PWs)   bands (ev):

   -46.5187 -46.5187 -46.5176 -46.5176 -46.5173 -46.5173 -46.5163 -46.5163
   -22.8069 -22.8069 -22.8035 -22.8035 -22.7637 -22.7637 -22.7630 -22.7630
   -22.7504 -22.7504 -22.7482 -22.7482 -22.7343 -22.7343 -22.7322 -22.7322
   -22.7320 -22.7320 -22.7319 -22.7319 -22.7161 -22.7161 -22.7133 -22.7133
   -14.2716 -14.2716 -14.1987 -14.1986 -14.1811 -14.1811 -14.1278 -14.1278
    -6.8146  -6.8145  -6.7536  -6.7536  -6.6287  -6.6286  -6.2365  -6.2364
    -6.1053  -6.1053  -6.0673  -6.0673  -6.0478  -6.0477  -6.0420  -6.0420
    -6.0076  -6.0075  -5.9881  -5.9880  -5.9416  -5.9416  -5.9247  -5.9246
     0.0476   0.0476   0.1832   0.1833   0.3633   0.3633   0.3794   0.3794
     0.4482   0.4482   0.4856   0.4856   0.5683   0.5683   0.5748   0.5748
     0.6604   0.6604   0.7180   0.7180   0.7183   0.7183   0.7308   0.7308
     6.2399   6.2399   6.3410   6.3410   6.4888   6.4889   6.7091   6.7091
     6.9066   6.9066   7.1361   7.1363   7.1467   7.1467   7.1663   7.1663
     7.3055   7.3055   7.3216   7.3218   7.3454   7.3456   7.6704   7.6704
     7.7473   7.7473   7.7610   7.7611   7.9552   7.9552   7.9632   7.9632
     8.0229   8.0230   8.1003   8.1003   8.1258   8.1258   8.3344   8.3344
     8.5292   8.5293   8.6725   8.6725   8.7545   8.7546   8.8551   8.8552
     9.1963   9.1963   9.1997   9.1997   9.3167   9.3167   9.3984   9.3984
     9.4449   9.4449   9.7318   9.7318   9.8188   9.8188   9.8417   9.8418
     9.8444   9.8444   9.8483   9.8484  10.0063  10.0063  10.2102  10.2102
    12.9772  12.9772  13.4784  13.4784  13.5285  13.5285  13.5382  13.5382
    13.6529  13.6530  14.0886  14.0886  14.2197  14.2197  14.3634  14.3634
    14.4014  14.4014  14.4329  14.4330  14.5724  14.5724  14.7448  14.7448
    15.1729  15.1730  15.4154  15.4154  15.9408  15.9409  16.2483  16.2484
    16.7579  16.7580  16.8451  16.8451  17.0350  17.0351  17.5705  17.5707

          k = 0.2500-0.5000 0.1236 (  9644 PWs)   bands (ev):

   -46.5189 -46.5189 -46.5176 -46.5176 -46.5173 -46.5173 -46.5163 -46.5163
   -22.8044 -22.8044 -22.8025 -22.8025 -22.7660 -22.7660 -22.7642 -22.7642
   -22.7504 -22.7504 -22.7483 -22.7483 -22.7340 -22.7340 -22.7325 -22.7325
   -22.7324 -22.7324 -22.7314 -22.7314 -22.7163 -22.7163 -22.7139 -22.7139
   -14.2682 -14.2682 -14.1960 -14.1960 -14.1847 -14.1846 -14.1305 -14.1305
    -6.8020  -6.8020  -6.7362  -6.7361  -6.6279  -6.6278  -6.2615  -6.2613
    -6.1069  -6.1069  -6.0612  -6.0611  -6.0544  -6.0544  -6.0450  -6.0449
    -6.0095  -6.0094  -5.9879  -5.9878  -5.9431  -5.9431  -5.9262  -5.9262
     0.0633   0.0633   0.1681   0.1681   0.3668   0.3668   0.4237   0.4237
     0.4287   0.4287   0.4825   0.4826   0.5399   0.5399   0.5426   0.5426
     0.5807   0.5807   0.7527   0.7527   0.7586   0.7586   0.7698   0.7698
     6.2771   6.2772   6.3932   6.3932   6.4839   6.4839   6.7256   6.7256
     6.9289   6.9289   7.1255   7.1257   7.1274   7.1274   7.1518   7.1518
     7.3102   7.3103   7.3416   7.3418   7.3719   7.3720   7.6860   7.6860
     7.7140   7.7140   7.7868   7.7869   7.9068   7.9068   7.9606   7.9606
     8.0274   8.0274   8.0873   8.0873   8.0979   8.0979   8.3351   8.3351
     8.4322   8.4322   8.6396   8.6396   8.7325   8.7325   8.8654   8.8654
     9.2367   9.2367   9.2468   9.2468   9.3252   9.3252   9.3832   9.3832
     9.4775   9.4776   9.7116   9.7117   9.7752   9.7753   9.8132   9.8132
     9.8514   9.8515   9.8701   9.8702   9.9941   9.9941  10.1804  10.1804
    13.0225  13.0225  13.5044  13.5044  13.5536  13.5536  13.5610  13.5610
    13.6481  13.6481  14.1038  14.1038  14.2271  14.2271  14.3020  14.3020
    14.3761  14.3761  14.4063  14.4063  14.5353  14.5353  14.7136  14.7136
    15.2582  15.2582  15.5469  15.5469  15.9421  15.9421  16.2679  16.2680
    16.7999  16.7999  16.9000  16.9001  17.0635  17.0637  17.5878  17.5879

          k = 0.2500-0.5000 0.2473 (  9644 PWs)   bands (ev):

   -46.5183 -46.5183 -46.5176 -46.5176 -46.5174 -46.5174 -46.5170 -46.5170
   -22.7999 -22.7999 -22.7992 -22.7992 -22.7698 -22.7698 -22.7689 -22.7689
   -22.7497 -22.7497 -22.7491 -22.7491 -22.7331 -22.7331 -22.7330 -22.7330
   -22.7326 -22.7326 -22.7316 -22.7316 -22.7154 -22.7154 -22.7150 -22.7150
   -14.2586 -14.2586 -14.1947 -14.1946 -14.1884 -14.1884 -14.1383 -14.1383
    -6.7672  -6.7671  -6.6858  -6.6858  -6.6293  -6.6292  -6.3269  -6.3269
    -6.1118  -6.1118  -6.0822  -6.0822  -6.0486  -6.0485  -6.0377  -6.0376
    -6.0123  -6.0122  -5.9904  -5.9904  -5.9464  -5.9464  -5.9316  -5.9316
     0.1056   0.1056   0.1576   0.1576   0.3724   0.3724   0.3763   0.3763
     0.4713   0.4714   0.4718   0.4718   0.4864   0.4864   0.4993   0.4994
     0.5191   0.5191   0.8002   0.8002   0.8080   0.8080   0.8082   0.8082
     6.3507   6.3507   6.4732   6.4732   6.5191   6.5191   6.7861   6.7861
     6.9924   6.9924   7.0744   7.0745   7.0949   7.0949   7.1267   7.1267
     7.3292   7.3293   7.3942   7.3943   7.4182   7.4183   7.6284   7.6284
     7.7525   7.7526   7.7668   7.7669   7.8239   7.8239   7.9710   7.9710
     8.0526   8.0526   8.0577   8.0578   8.0737   8.0737   8.2773   8.2774
     8.3279   8.3279   8.4964   8.4964   8.6835   8.6835   8.8015   8.8015
     9.3322   9.3322   9.3341   9.3341   9.3634   9.3634   9.4252   9.4252
     9.5315   9.5315   9.6866   9.6866   9.6885   9.6886   9.7735   9.7736
     9.8472   9.8472   9.8676   9.8676   9.9732   9.9732  10.1015  10.1015
    13.1952  13.1952  13.5491  13.5491  13.6114  13.6115  13.6226  13.6226
    13.6654  13.6654  14.1561  14.1561  14.1639  14.1639  14.2430  14.2430
    14.2662  14.2662  14.3696  14.3696  14.4138  14.4138  14.5869  14.5869
    15.5017  15.5017  15.8715  15.8716  15.9234  15.9234  16.3742  16.3743
    16.9221  16.9221  17.0688  17.0689  17.0703  17.0703  17.4713  17.4714

          k = 0.2500-0.5000 0.3709 (  9652 PWs)   bands (ev):

   -46.5186 -46.5186 -46.5181 -46.5181 -46.5172 -46.5172 -46.5168 -46.5168
   -22.7936 -22.7936 -22.7919 -22.7919 -22.7773 -22.7773 -22.7757 -22.7757
   -22.7496 -22.7496 -22.7490 -22.7490 -22.7342 -22.7342 -22.7336 -22.7336
   -22.7321 -22.7321 -22.7314 -22.7314 -22.7161 -22.7161 -22.7156 -22.7156
   -14.2441 -14.2441 -14.2095 -14.2095 -14.1770 -14.1770 -14.1499 -14.1499
    -6.7197  -6.7197  -6.6421  -6.6420  -6.6089  -6.6089  -6.4162  -6.4162
    -6.1195  -6.1195  -6.1090  -6.1090  -6.0359  -6.0359  -6.0304  -6.0304
    -6.0114  -6.0113  -5.9972  -5.9972  -5.9493  -5.9493  -5.9398  -5.9398
     0.1564   0.1564   0.1941   0.1941   0.2920   0.2920   0.3687   0.3687
     0.3892   0.3892   0.4346   0.4347   0.4672   0.4672   0.4693   0.4694
     0.6263   0.6263   0.7826   0.7826   0.8469   0.8470   0.8484   0.8484
     6.4159   6.4160   6.4579   6.4579   6.6788   6.6788   6.9402   6.9402
     6.9678   6.9679   7.0622   7.0622   7.1100   7.1100   7.1602   7.1603
     7.3403   7.3404   7.4643   7.4643   7.4712   7.4713   7.4836   7.4837
     7.6852   7.6852   7.7361   7.7361   7.8472   7.8472   7.9873   7.9873
     8.0161   8.0162   8.0765   8.0765   8.1036   8.1036   8.1145   8.1145
     8.2621   8.2622   8.2751   8.2751   8.6299   8.6299   8.6788   8.6788
     9.3799   9.3800   9.4175   9.4175   9.4301   9.4301   9.5648   9.5648
     9.5900   9.5900   9.6113   9.6113   9.6171   9.6172   9.7676   9.7677
     9.8332   9.8333   9.8713   9.8714   9.9528   9.9529  10.0047  10.0047
    13.3989  13.3989  13.5766  13.5766  13.5970  13.5970  13.7114  13.7114
    13.8303  13.8304  13.9256  13.9256  14.0522  14.0522  14.2272  14.2272
    14.2342  14.2342  14.3017  14.3017  14.3693  14.3693  14.4814  14.4814
    15.7303  15.7303  15.9151  15.9151  16.3073  16.3073  16.5193  16.5194
    17.0104  17.0106  17.1026  17.1026  17.1757  17.1758  17.3498  17.3498

          k = 0.2500-0.5000-0.4946 (  9652 PWs)   bands (ev):

   -46.5182 -46.5182 -46.5180 -46.5180 -46.5174 -46.5174 -46.5172 -46.5172
   -22.7849 -22.7849 -22.7847 -22.7847 -22.7842 -22.7842 -22.7840 -22.7840
   -22.7495 -22.7495 -22.7495 -22.7495 -22.7333 -22.7333 -22.7333 -22.7332
   -22.7328 -22.7328 -22.7327 -22.7327 -22.7157 -22.7157 -22.7157 -22.7157
   -14.2269 -14.2269 -14.2268 -14.2268 -14.1636 -14.1636 -14.1635 -14.1635
    -6.6736  -6.6735  -6.6735  -6.6734  -6.5150  -6.5149  -6.5148  -6.5148
    -6.1214  -6.1214  -6.1214  -6.1213  -6.0289  -6.0288  -6.0288  -6.0287
    -6.0053  -6.0052  -6.0052  -6.0051  -5.9474  -5.9474  -5.9473  -5.9473
     0.2134   0.2134   0.2134   0.2134   0.2746   0.2746   0.2746   0.2746
     0.4064   0.4064   0.4064   0.4065   0.4609   0.4609   0.4609   0.4609
     0.7202   0.7202   0.7202   0.7202   0.8620   0.8620   0.8620   0.8621
     6.4395   6.4395   6.4395   6.4395   6.8484   6.8484   6.8484   6.8485
     7.0269   7.0270   7.0270   7.0270   7.2785   7.2785   7.2786   7.2787
     7.2823   7.2823   7.2824   7.2824   7.5356   7.5356   7.5356   7.5356
     7.6196   7.6196   7.6196   7.6196   7.9776   7.9776   7.9777   7.9777
     7.9939   7.9939   7.9939   7.9940   8.1267   8.1267   8.1268   8.1268
     8.1852   8.1852   8.1852   8.1853   8.6136   8.6136   8.6136   8.6137
     9.4406   9.4406   9.4406   9.4406   9.5078   9.5079   9.5079   9.5079
     9.5954   9.5954   9.5954   9.5955   9.7678   9.7678   9.7678   9.7678
     9.8004   9.8004   9.8004   9.8005   9.9386   9.9387   9.9387   9.9388
    13.5625  13.5625  13.5625  13.5625  13.6990  13.6990  13.6990  13.6991
    13.8799  13.8799  13.8800  13.8800  14.0156  14.0156  14.0157  14.0157
    14.3052  14.3052  14.3052  14.3052  14.3566  14.3566  14.3566  14.3566
    15.8680  15.8680  15.8681  15.8681  16.7282  16.7283  16.7285  16.7286
    16.8485  16.8486  16.8487  16.8488  17.3426  17.3426  17.3427  17.3427

          k = 0.3750 0.3750 0.0000 (  9652 PWs)   bands (ev):

   -46.5188 -46.5185 -46.5185 -46.5175 -46.5174 -46.5174 -46.5171 -46.5158
   -22.8073 -22.8073 -22.8070 -22.8026 -22.7640 -22.7640 -22.7629 -22.7625
   -22.7429 -22.7429 -22.7419 -22.7417 -22.7416 -22.7416 -22.7408 -22.7387
   -22.7249 -22.7249 -22.7249 -22.7243 -22.7226 -22.7226 -22.7220 -22.7215
   -14.2764 -14.2336 -14.2336 -14.1975 -14.1838 -14.1541 -14.1541 -14.1261
    -6.8033  -6.8033  -6.7798  -6.7086  -6.6474  -6.4376  -6.4376  -6.2279
    -6.0921  -6.0754  -6.0754  -6.0683  -6.0683  -6.0547  -6.0535  -6.0259
    -6.0250  -5.9940  -5.9871  -5.9687  -5.9687  -5.9569  -5.9569  -5.9120
    -0.0110   0.1572   0.2021   0.2021   0.3283   0.3497   0.3813   0.3814
     0.4098   0.4473   0.4674   0.4674   0.5696   0.5736   0.6179   0.6179
     0.6383   0.6383   0.6515   0.7134   0.7240   0.7241   0.7425   0.7425
     6.2846   6.2963   6.2963   6.3469   6.5716   6.7833   6.7833   6.7938
     6.7938   6.8989   7.0206   7.0458   7.0589   7.0795   7.0795   7.2046
     7.3044   7.3443   7.4408   7.4408   7.5324   7.5389   7.5500   7.5501
     7.6856   7.8029   7.8029   7.8207   7.8581   7.8581   7.9556   7.9556
     8.0030   8.0033   8.0445   8.0594   8.1091   8.2939   8.3199   8.3199
     8.3239   8.3239   8.5573   8.6365   8.6365   8.6523   8.6634   8.8050
     9.2173   9.2173   9.2822   9.3091   9.3855   9.4599   9.5457   9.5631
     9.5632   9.5699   9.5699   9.5782   9.6134   9.6134   9.8177   9.8313
     9.8313   9.8601   9.9167   9.9898  10.0443  10.0443  10.0925  10.1119
    13.1090  13.2022  13.2022  13.2987  13.4248  13.5961  13.7296  13.8166
    13.8166  13.9080  13.9080  13.9195  14.0498  14.0498  14.1775  14.3766
    14.3942  14.4295  14.4295  14.4514  14.5565  14.5565  14.6748  14.7140
    15.2656  15.3287  15.3287  15.4658  16.1510  16.1661  16.5581  16.5582
    16.6698  16.7217  16.9025  16.9025  17.3315  17.3315  17.3924  17.4987

          k = 0.3750 0.3750 0.1236 (  9637 PWs)   bands (ev):

   -46.5194 -46.5182 -46.5182 -46.5170 -46.5170 -46.5168 -46.5166 -46.5164
   -22.8036 -22.8035 -22.8034 -22.8034 -22.7666 -22.7656 -22.7656 -22.7629
   -22.7428 -22.7428 -22.7421 -22.7419 -22.7419 -22.7408 -22.7407 -22.7393
   -22.7256 -22.7256 -22.7236 -22.7236 -22.7224 -22.7223 -22.7209 -22.7201
   -14.2729 -14.2306 -14.2306 -14.1948 -14.1874 -14.1572 -14.1571 -14.1289
    -6.7875  -6.7875  -6.7683  -6.6913  -6.6442  -6.4462  -6.4462  -6.2480
    -6.0974  -6.0743  -6.0743  -6.0741  -6.0741  -6.0522  -6.0507  -6.0371
    -6.0207  -5.9953  -5.9893  -5.9713  -5.9713  -5.9579  -5.9579  -5.9163
     0.0041   0.1404   0.2128   0.2128   0.3337   0.3621   0.3621   0.3935
     0.3972   0.4426   0.4569   0.4569   0.5299   0.5370   0.5635   0.5773
     0.5774   0.6522   0.6522   0.7548   0.7623   0.7785   0.7908   0.7908
     6.3038   6.3544   6.3544   6.4142   6.5875   6.7689   6.7689   6.8084
     6.8084   6.8954   7.0187   7.0435   7.0709   7.1045   7.1045   7.2218
     7.2597   7.3365   7.4287   7.4287   7.5467   7.5847   7.5848   7.5930
     7.6618   7.7342   7.7342   7.8507   7.9136   7.9259   7.9259   7.9696
     7.9696   7.9913   8.0585   8.0727   8.0731   8.2555   8.2555   8.3022
     8.3178   8.3179   8.4987   8.6046   8.6343   8.6343   8.6671   8.7692
     9.2752   9.2752   9.3037   9.3225   9.4228   9.4795   9.5341   9.5341
     9.5420   9.5420   9.5772   9.6156   9.6631   9.6631   9.7550   9.8396
     9.8397   9.8512   9.8880   9.9418  10.0367  10.0367  10.0853  10.1062
    13.1327  13.2651  13.2651  13.3067  13.4247  13.6207  13.7777  13.8379
    13.8379  13.9201  13.9201  13.9600  14.0401  14.0401  14.2160  14.3432
    14.3695  14.3977  14.3977  14.4380  14.5145  14.5145  14.6035  14.6452
    15.3716  15.4356  15.4356  15.6155  16.1312  16.1762  16.5573  16.5573
    16.7235  16.7606  16.9155  16.9156  17.3747  17.3747  17.4000  17.4615

          k = 0.3750 0.3750 0.2473 (  9629 PWs)   bands (ev):

   -46.5191 -46.5178 -46.5178 -46.5170 -46.5170 -46.5170 -46.5170 -46.5166
   -22.7992 -22.7987 -22.7987 -22.7986 -22.7703 -22.7694 -22.7694 -22.7682
   -22.7424 -22.7424 -22.7421 -22.7418 -22.7418 -22.7411 -22.7408 -22.7397
   -22.7253 -22.7252 -22.7231 -22.7231 -22.7222 -22.7219 -22.7219 -22.7208
   -14.2631 -14.2222 -14.2221 -14.1977 -14.1872 -14.1659 -14.1659 -14.1367
    -6.7429  -6.7429  -6.7368  -6.6421  -6.6391  -6.4754  -6.4754  -6.3036
    -6.1096  -6.0847  -6.0847  -6.0732  -6.0732  -6.0667  -6.0449  -6.0427
    -6.0089  -6.0007  -5.9969  -5.9770  -5.9770  -5.9616  -5.9615  -5.9289
     0.0489   0.1279   0.2434   0.2434   0.3320   0.3320   0.3466   0.3471
     0.4254   0.4254   0.4302   0.4352   0.4711   0.4781   0.4875   0.4876
     0.5011   0.7237   0.7237   0.8107   0.8201   0.8236   0.8444   0.8444
     6.4217   6.4610   6.4610   6.5343   6.5639   6.7390   6.7390   6.8529
     6.8529   6.9126   7.0126   7.0322   7.1185   7.1735   7.1735   7.1751
     7.2281   7.3670   7.3670   7.4204   7.5443   7.6460   7.6460   7.6532
     7.6725   7.6725   7.7234   7.7795   7.8373   7.9634   7.9634   7.9968
     7.9968   7.9968   8.0253   8.0453   8.0968   8.1507   8.1507   8.2980
     8.2982   8.2982   8.3879   8.4228   8.5461   8.5461   8.6024   8.6758
     9.3357   9.4085   9.4085   9.4220   9.4953   9.4953   9.5034   9.5126
     9.5132   9.5132   9.6247   9.6288   9.7108   9.7108   9.7237   9.8063
     9.8063   9.8254   9.8345   9.8510   9.9910   9.9910  10.0711  10.0827
    13.2794  13.4016  13.4043  13.4043  13.4500  13.5883  13.8764  13.8799
    13.8799  13.9444  13.9444  13.9948  14.0343  14.0343  14.1907  14.2070
    14.2435  14.2573  14.2573  14.4032  14.4127  14.4127  14.5099  14.5491
    15.6898  15.7410  15.7410  15.9423  16.1324  16.1582  16.5586  16.5586
    16.8776  16.8874  16.9501  16.9501  17.2738  17.4541  17.5592  17.7098

          k = 0.3750 0.3750 0.3709 (  9656 PWs)   bands (ev):

   -46.5186 -46.5179 -46.5179 -46.5178 -46.5175 -46.5175 -46.5174 -46.5170
   -22.7937 -22.7926 -22.7926 -22.7922 -22.7772 -22.7764 -22.7764 -22.7762
   -22.7431 -22.7431 -22.7424 -22.7424 -22.7424 -22.7422 -22.7415 -22.7405
   -22.7249 -22.7241 -22.7233 -22.7233 -22.7231 -22.7228 -22.7228 -22.7224
   -14.2483 -14.2129 -14.2094 -14.2094 -14.1790 -14.1790 -14.1757 -14.1484
    -6.6956  -6.6767  -6.6767  -6.6411  -6.5675  -6.5288  -6.5288  -6.3844
    -6.1208  -6.0996  -6.0887  -6.0887  -6.0760  -6.0760  -6.0340  -6.0316
    -6.0093  -6.0081  -5.9911  -5.9802  -5.9802  -5.9688  -5.9688  -5.9478
     0.1158   0.1505   0.2767   0.2882   0.2882   0.3121   0.3218   0.3218
     0.3667   0.3790   0.3791   0.4101   0.4101   0.4118   0.4296   0.4340
     0.6175   0.7901   0.7959   0.7959   0.8651   0.8651   0.8682   0.8695
     6.5083   6.5411   6.5597   6.5597   6.6793   6.6793   6.7011   6.9686
     6.9686   7.0079   7.0160   7.0262   7.0413   7.2225   7.2239   7.2586
     7.2587   7.2710   7.2711   7.5056   7.5694   7.5813   7.5813   7.6020
     7.6287   7.7241   7.7241   7.7691   7.8786   7.9052   7.9052   7.9925
     7.9954   8.0117   8.0117   8.0169   8.0878   8.0878   8.1257   8.1675
     8.2334   8.2663   8.2663   8.2762   8.3921   8.3921   8.5355   8.5390
     9.4392   9.4637   9.4637   9.4773   9.4773   9.5110   9.5423   9.6135
     9.6177   9.6177   9.6415   9.6722   9.6927   9.7194   9.7194   9.7469
     9.7570   9.7570   9.7864   9.8045   9.8982   9.8982  10.0102  10.0373
    13.4214  13.5320  13.5512  13.5604  13.5862  13.5862  13.9294  13.9294
    13.9709  13.9793  13.9793  13.9881  13.9958  13.9960  13.9960  14.0579
    14.0579  14.0762  14.2608  14.2608  14.2699  14.3115  14.3662  14.4061
    16.1106  16.1106  16.1163  16.1342  16.1611  16.3900  16.5211  16.5211
    16.9612  16.9920  16.9920  17.0638  17.1583  17.3029  17.4781  17.4781

          k = 0.3750 0.3750-0.4946 (  9644 PWs)   bands (ev):

   -46.5188 -46.5186 -46.5175 -46.5175 -46.5174 -46.5174 -46.5168 -46.5167
   -22.7871 -22.7869 -22.7850 -22.7850 -22.7847 -22.7847 -22.7829 -22.7827
   -22.7421 -22.7421 -22.7415 -22.7415 -22.7415 -22.7415 -22.7398 -22.7398
   -22.7246 -22.7245 -22.7241 -22.7241 -22.7225 -22.7225 -22.7225 -22.7225
   -14.2307 -14.2306 -14.1943 -14.1943 -14.1942 -14.1942 -14.1622 -14.1621
    -6.6600  -6.6599  -6.6005  -6.6005  -6.6004  -6.6004  -6.4770  -6.4769
    -6.1200  -6.1199  -6.0833  -6.0833  -6.0833  -6.0832  -6.0212  -6.0211
    -6.0197  -6.0196  -5.9765  -5.9765  -5.9764  -5.9764  -5.9694  -5.9693
     0.1962   0.1963   0.2138   0.2139   0.3353   0.3353   0.3353   0.3354
     0.3486   0.3486   0.3487   0.3487   0.3891   0.3892   0.4163   0.4164
     0.7206   0.7207   0.8472   0.8472   0.8472   0.8472   0.8858   0.8858
     6.5478   6.5479   6.6362   6.6362   6.6362   6.6362   6.8689   6.8690
     7.0098   7.0098   7.1294   7.1294   7.1295   7.1295   7.1752   7.1753
     7.3911   7.3912   7.4255   7.4255   7.4255   7.4255   7.5912   7.5913
     7.6321   7.6322   7.8097   7.8097   7.8097   7.8097   8.0155   8.0155
     8.0255   8.0256   8.0666   8.0666   8.0702   8.0703   8.0703   8.0703
     8.1725   8.1726   8.2851   8.2851   8.2851   8.2852   8.4923   8.4923
     9.4743   9.4743   9.4743   9.4743   9.5438   9.5439   9.6040   9.6041
     9.6767   9.6767   9.7013   9.7013   9.7263   9.7263   9.7272   9.7272
     9.7273   9.7273   9.7907   9.7907   9.7907   9.7907  10.0324  10.0325
    13.4747  13.4747  13.7220  13.7221  13.7569  13.7570  13.8001  13.8001
    13.8002  13.8002  13.9886  13.9886  13.9886  13.9886  14.1295  14.1295
    14.1295  14.1295  14.1793  14.1794  14.2345  14.2345  14.3470  14.3471
    16.1425  16.1425  16.3988  16.3988  16.3990  16.3990  16.5456  16.5459
    16.9028  16.9031  17.1832  17.1832  17.1833  17.1833  17.3020  17.3021

          k = 0.3750-0.5000 0.0000 (  9636 PWs)   bands (ev):

   -46.5186 -46.5185 -46.5177 -46.5177 -46.5170 -46.5170 -46.5165 -46.5165
   -22.8060 -22.8060 -22.8043 -22.8043 -22.7635 -22.7635 -22.7632 -22.7632
   -22.7422 -22.7422 -22.7407 -22.7407 -22.7332 -22.7332 -22.7322 -22.7322
   -22.7321 -22.7321 -22.7314 -22.7314 -22.7249 -22.7249 -22.7211 -22.7211
   -14.2551 -14.2551 -14.2156 -14.2156 -14.1690 -14.1690 -14.1401 -14.1401
    -6.7844  -6.7844  -6.7510  -6.7510  -6.5454  -6.5453  -6.3354  -6.3353
    -6.0782  -6.0782  -6.0606  -6.0606  -6.0466  -6.0466  -6.0465  -6.0464
    -6.0256  -6.0255  -5.9907  -5.9907  -5.9702  -5.9701  -5.9332  -5.9332
     0.0828   0.0828   0.2528   0.2528   0.2678   0.2678   0.4292   0.4292
     0.4484   0.4484   0.4760   0.4760   0.4916   0.4916   0.6036   0.6036
     0.6677   0.6677   0.6827   0.6827   0.7189   0.7189   0.7378   0.7378
     6.3055   6.3055   6.3415   6.3415   6.7073   6.7074   6.8810   6.8810
     6.9297   6.9297   7.0521   7.0522   7.1456   7.1456   7.2347   7.2348
     7.3192   7.3193   7.3380   7.3382   7.5013   7.5013   7.5383   7.5383
     7.5392   7.5392   7.8504   7.8505   7.9575   7.9575   7.9847   7.9848
     8.0140   8.0140   8.0614   8.0614   8.1692   8.1692   8.1874   8.1874
     8.4202   8.4203   8.4769   8.4769   8.6031   8.6032   8.6662   8.6662
     9.2835   9.2835   9.3125   9.3125   9.4397   9.4397   9.4944   9.4944
     9.5889   9.5889   9.6690   9.6690   9.7061   9.7061   9.8306   9.8307
     9.8390   9.8391   9.8918   9.8919   9.9956   9.9956  10.0460  10.0461
    13.1765  13.1765  13.5106  13.5106  13.5385  13.5385  13.6478  13.6478
    13.8396  13.8396  13.8436  13.8436  14.0347  14.0347  14.2467  14.2467
    14.4195  14.4195  14.4612  14.4612  14.5411  14.5411  14.6623  14.6623
    15.3225  15.3225  15.4273  15.4273  16.4291  16.4291  16.5644  16.5645
    16.9880  16.9880  17.0342  17.0343  17.1753  17.1753  17.3029  17.3030

          k = 0.3750-0.5000 0.1236 (  9654 PWs)   bands (ev):

   -46.5185 -46.5185 -46.5180 -46.5180 -46.5172 -46.5172 -46.5168 -46.5168
   -22.8040 -22.8039 -22.8039 -22.8039 -22.7653 -22.7653 -22.7646 -22.7646
   -22.7425 -22.7425 -22.7425 -22.7425 -22.7337 -22.7337 -22.7336 -22.7336
   -22.7323 -22.7323 -22.7317 -22.7317 -22.7246 -22.7246 -22.7208 -22.7208
   -14.2519 -14.2519 -14.2128 -14.2128 -14.1724 -14.1724 -14.1431 -14.1431
    -6.7706  -6.7706  -6.7347  -6.7346  -6.5469  -6.5468  -6.3481  -6.3480
    -6.0801  -6.0801  -6.0635  -6.0635  -6.0562  -6.0562  -6.0448  -6.0447
    -6.0260  -6.0259  -5.9924  -5.9924  -5.9721  -5.9721  -5.9367  -5.9367
     0.0957   0.0957   0.2482   0.2483   0.2607   0.2607   0.4152   0.4152
     0.4412   0.4412   0.4483   0.4484   0.5342   0.5342   0.5519   0.5519
     0.5761   0.5761   0.7187   0.7187   0.7841   0.7841   0.7879   0.7879
     6.3335   6.3335   6.3880   6.3880   6.6840   6.6841   6.8686   6.8686
     6.9437   6.9437   7.0264   7.0265   7.1395   7.1395   7.2134   7.2134
     7.3476   7.3477   7.3627   7.3628   7.4774   7.4774   7.5324   7.5325
     7.5750   7.5750   7.8516   7.8516   7.8760   7.8761   7.9785   7.9785
     8.0285   8.0285   8.1151   8.1152   8.1467   8.1467   8.1601   8.1601
     8.3730   8.3731   8.4601   8.4601   8.5649   8.5649   8.6500   8.6500
     9.3297   9.3297   9.3426   9.3426   9.4201   9.4201   9.4900   9.4901
     9.6113   9.6113   9.6463   9.6463   9.6834   9.6835   9.8106   9.8106
     9.8378   9.8379   9.8721   9.8721   9.9792   9.9793  10.0306  10.0306
    13.2273  13.2273  13.5200  13.5200  13.5556  13.5556  13.6531  13.6531
    13.8504  13.8504  13.8653  13.8653  14.0257  14.0257  14.2132  14.2132
    14.3741  14.3741  14.4142  14.4143  14.4906  14.4906  14.5655  14.5655
    15.4374  15.4374  15.5530  15.5531  16.4295  16.4295  16.5669  16.5670
    17.0259  17.0260  17.0334  17.0334  17.2036  17.2037  17.3002  17.3003

          k = 0.3750-0.5000 0.2473 (  9642 PWs)   bands (ev):

   -46.5183 -46.5183 -46.5177 -46.5177 -46.5171 -46.5171 -46.5170 -46.5170
   -22.7994 -22.7994 -22.7991 -22.7991 -22.7704 -22.7704 -22.7691 -22.7691
   -22.7418 -22.7418 -22.7416 -22.7416 -22.7337 -22.7337 -22.7336 -22.7336
   -22.7319 -22.7319 -22.7318 -22.7318 -22.7231 -22.7231 -22.7221 -22.7221
   -14.2427 -14.2427 -14.2047 -14.2047 -14.1819 -14.1819 -14.1514 -14.1514
    -6.7322  -6.7322  -6.6877  -6.6876  -6.5552  -6.5551  -6.3873  -6.3872
    -6.0873  -6.0873  -6.0787  -6.0787  -6.0666  -6.0665  -6.0417  -6.0416
    -6.0240  -6.0239  -5.9945  -5.9945  -5.9793  -5.9792  -5.9460  -5.9459
     0.1339   0.1339   0.2250   0.2250   0.2825   0.2825   0.3755   0.3755
     0.4032   0.4033   0.4210   0.4211   0.4600   0.4600   0.4731   0.4731
     0.6254   0.6254   0.7874   0.7874   0.8391   0.8392   0.8469   0.8469
     6.4514   6.4514   6.5060   6.5060   6.6598   6.6598   6.8885   6.8885
     6.9667   6.9668   6.9890   6.9890   7.1545   7.1546   7.1914   7.1914
     7.3811   7.3812   7.4430   7.4430   7.4703   7.4704   7.4992   7.4992
     7.6593   7.6593   7.7213   7.7213   7.8772   7.8772   7.9953   7.9953
     8.0513   8.0513   8.1121   8.1122   8.1135   8.1136   8.1553   8.1554
     8.2552   8.2552   8.4141   8.4142   8.4313   8.4313   8.5589   8.5589
     9.4080   9.4080   9.4342   9.4342   9.4729   9.4729   9.4986   9.4986
     9.6208   9.6208   9.6509   9.6509   9.6677   9.6677   9.8024   9.8025
     9.8274   9.8275   9.8431   9.8431   9.9529   9.9530   9.9929   9.9929
    13.3631  13.3631  13.6136  13.6136  13.6348  13.6349  13.6889  13.6889
    13.8017  13.8017  13.9237  13.9237  14.0566  14.0566  14.2035  14.2036
    14.2236  14.2236  14.2935  14.2936  14.3714  14.3714  14.4632  14.4632
    15.7409  15.7409  15.8798  15.8799  16.4211  16.4211  16.5757  16.5758
    17.0639  17.0640  17.1697  17.1698  17.2968  17.2968  17.2975  17.2976

          k = 0.3750-0.5000 0.3709 (  9646 PWs)   bands (ev):

   -46.5182 -46.5182 -46.5175 -46.5175 -46.5175 -46.5175 -46.5173 -46.5173
   -22.7928 -22.7928 -22.7924 -22.7924 -22.7770 -22.7770 -22.7755 -22.7755
   -22.7428 -22.7428 -22.7422 -22.7422 -22.7336 -22.7336 -22.7323 -22.7323
   -22.7322 -22.7322 -22.7320 -22.7320 -22.7235 -22.7235 -22.7225 -22.7225
   -14.2289 -14.2289 -14.1960 -14.1960 -14.1926 -14.1926 -14.1638 -14.1637
    -6.6782  -6.6781  -6.6172  -6.6171  -6.5785  -6.5785  -6.4525  -6.4524
    -6.0992  -6.0992  -6.0985  -6.0985  -6.0632  -6.0632  -6.0441  -6.0440
    -6.0163  -6.0162  -5.9907  -5.9906  -5.9898  -5.9898  -5.9604  -5.9604
     0.1895   0.1895   0.2305   0.2305   0.3143   0.3143   0.3165   0.3165
     0.3572   0.3572   0.3755   0.3755   0.3903   0.3903   0.4100   0.4100
     0.7228   0.7229   0.8437   0.8437   0.8489   0.8490   0.8836   0.8836
     6.5388   6.5388   6.6216   6.6216   6.6452   6.6452   6.8757   6.8758
     6.9969   6.9969   7.1104   7.1104   7.1619   7.1619   7.1861   7.1862
     7.3978   7.3978   7.4213   7.4214   7.4274   7.4275   7.5891   7.5891
     7.5940   7.5940   7.8033   7.8033   7.8419   7.8419   8.0013   8.0013
     8.0570   8.0570   8.0702   8.0702   8.0736   8.0737   8.1259   8.1259
     8.1645   8.1645   8.2188   8.2188   8.3509   8.3510   8.3854   8.3854
     9.4916   9.4916   9.5234   9.5234   9.5269   9.5269   9.6077   9.6077
     9.6360   9.6360   9.6484   9.6485   9.6812   9.6812   9.7732   9.7732
     9.7762   9.7762   9.7936   9.7936   9.9197   9.9197   9.9294   9.9294
    13.5474  13.5474  13.6954  13.6955  13.7592  13.7592  13.7715  13.7715
    13.8050  13.8051  14.0155  14.0155  14.0234  14.0234  14.1048  14.1048
    14.1127  14.1127  14.1397  14.1397  14.2171  14.2171  14.3001  14.3001
    16.1249  16.1249  16.3368  16.3369  16.4237  16.4237  16.6153  16.6154
    17.0152  17.0153  17.1794  17.1795  17.2886  17.2886  17.4313  17.4314

          k = 0.3750-0.5000-0.4946 (  9656 PWs)   bands (ev):

   -46.5182 -46.5182 -46.5180 -46.5180 -46.5174 -46.5174 -46.5173 -46.5173
   -22.7858 -22.7858 -22.7855 -22.7855 -22.7842 -22.7842 -22.7839 -22.7839
   -22.7422 -22.7422 -22.7422 -22.7422 -22.7331 -22.7331 -22.7331 -22.7331
   -22.7318 -22.7318 -22.7318 -22.7318 -22.7236 -22.7236 -22.7236 -22.7236
   -14.2126 -14.2126 -14.2125 -14.2125 -14.1783 -14.1783 -14.1782 -14.1782
    -6.6220  -6.6220  -6.6219  -6.6219  -6.5342  -6.5341  -6.5340  -6.5340
    -6.1057  -6.1057  -6.1056  -6.1056  -6.0535  -6.0535  -6.0534  -6.0534
    -6.0041  -6.0040  -6.0040  -6.0039  -5.9768  -5.9768  -5.9768  -5.9767
     0.2515   0.2515   0.2515   0.2515   0.2773   0.2773   0.2773   0.2773
     0.3521   0.3521   0.3521   0.3521   0.3767   0.3767   0.3767   0.3768
     0.8015   0.8016   0.8016   0.8016   0.8841   0.8841   0.8841   0.8841
     6.5864   6.5865   6.5865   6.5865   6.7659   6.7659   6.7660   6.7660
     7.1096   7.1096   7.1096   7.1097   7.2812   7.2813   7.2814   7.2814
     7.3044   7.3045   7.3045   7.3046   7.4876   7.4876   7.4876   7.4877
     7.7283   7.7284   7.7284   7.7284   7.9710   7.9710   7.9710   7.9710
     8.0228   8.0229   8.0229   8.0229   8.0795   8.0796   8.0796   8.0796
     8.1164   8.1164   8.1164   8.1165   8.3110   8.3110   8.3110   8.3110
     9.5428   9.5428   9.5429   9.5429   9.5825   9.5826   9.5826   9.5826
     9.6925   9.6926   9.6926   9.6926   9.7086   9.7086   9.7086   9.7086
     9.7413   9.7414   9.7414   9.7414   9.8962   9.8962   9.8963   9.8964
    13.6988  13.6988  13.6988  13.6988  13.7932  13.7932  13.7932  13.7933
    13.9161  13.9161  13.9162  13.9162  13.9801  13.9801  13.9801  13.9802
    14.1228  14.1228  14.1228  14.1228  14.1829  14.1829  14.1830  14.1830
    16.3714  16.3714  16.3715  16.3715  16.7747  16.7748  16.7750  16.7751
    16.8170  16.8171  16.8172  16.8173  17.2944  17.2944  17.2944  17.2945

          k =-0.5000-0.5000 0.0000 (  9644 PWs)   bands (ev):

   -46.5176 -46.5176 -46.5176 -46.5176 -46.5174 -46.5174 -46.5174 -46.5174
   -22.8065 -22.8065 -22.8065 -22.8065 -22.7614 -22.7614 -22.7614 -22.7614
   -22.7344 -22.7344 -22.7344 -22.7344 -22.7331 -22.7331 -22.7331 -22.7331
   -22.7321 -22.7321 -22.7321 -22.7321 -22.7311 -22.7311 -22.7311 -22.7311
   -14.2355 -14.2354 -14.2354 -14.2354 -14.1547 -14.1546 -14.1546 -14.1546
    -6.7606  -6.7605  -6.7605  -6.7605  -6.4435  -6.4435  -6.4435  -6.4434
    -6.0534  -6.0534  -6.0534  -6.0534  -6.0400  -6.0399  -6.0399  -6.0398
    -6.0384  -6.0383  -6.0383  -6.0383  -5.9503  -5.9503  -5.9503  -5.9502
     0.1535   0.1535   0.1535   0.1535   0.3699   0.3699   0.3699   0.3699
     0.4288   0.4288   0.4289   0.4289   0.5986   0.5986   0.5986   0.5986
     0.6379   0.6379   0.6379   0.6379   0.7367   0.7367   0.7367   0.7367
     6.3160   6.3160   6.3160   6.3161   6.9226   6.9227   6.9227   6.9228
     6.9365   6.9365   6.9365   6.9366   7.2746   7.2747   7.2747   7.2747
     7.3441   7.3442   7.3442   7.3442   7.3737   7.3737   7.3737   7.3738
     7.7705   7.7706   7.7706   7.7707   7.9462   7.9462   7.9462   7.9462
     7.9952   7.9952   7.9952   7.9953   8.2711   8.2711   8.2711   8.2711
     8.2973   8.2973   8.2973   8.2974   8.5889   8.5889   8.5889   8.5889
     9.3370   9.3370   9.3370   9.3371   9.5652   9.5652   9.5652   9.5652
     9.5778   9.5779   9.5779   9.5779   9.7955   9.7955   9.7955   9.7955
     9.8472   9.8472   9.8472   9.8472   9.9659   9.9659   9.9659   9.9660
    13.4255  13.4255  13.4255  13.4255  13.6564  13.6564  13.6564  13.6564
    13.8225  13.8225  13.8225  13.8225  14.0401  14.0401  14.0401  14.0401
    14.4821  14.4821  14.4821  14.4821  14.4917  14.4918  14.4918  14.4918
    15.4065  15.4065  15.4065  15.4066  16.8053  16.8054  16.8054  16.8055
    16.9278  16.9279  16.9279  16.9280  17.2592  17.2592  17.2592  17.2592

          k =-0.5000-0.5000 0.1236 (  9648 PWs)   bands (ev):

   -46.5181 -46.5181 -46.5181 -46.5181 -46.5171 -46.5171 -46.5171 -46.5171
   -22.8034 -22.8034 -22.8034 -22.8034 -22.7649 -22.7649 -22.7649 -22.7649
   -22.7336 -22.7336 -22.7336 -22.7336 -22.7334 -22.7334 -22.7334 -22.7334
   -22.7331 -22.7331 -22.7331 -22.7331 -22.7308 -22.7308 -22.7308 -22.7308
   -14.2325 -14.2324 -14.2324 -14.2324 -14.1578 -14.1578 -14.1577 -14.1577
    -6.7456  -6.7455  -6.7455  -6.7455  -6.4489  -6.4488  -6.4488  -6.4487
    -6.0602  -6.0602  -6.0602  -6.0602  -6.0430  -6.0429  -6.0429  -6.0429
    -6.0368  -6.0367  -6.0367  -6.0367  -5.9537  -5.9536  -5.9536  -5.9535
     0.1645   0.1645   0.1645   0.1645   0.3460   0.3461   0.3461   0.3461
     0.4182   0.4182   0.4182   0.4182   0.5652   0.5652   0.5652   0.5653
     0.6392   0.6392   0.6392   0.6392   0.7952   0.7952   0.7952   0.7952
     6.3746   6.3746   6.3746   6.3746   6.8852   6.8853   6.8853   6.8854
     6.9462   6.9462   6.9462   6.9462   7.2779   7.2779   7.2779   7.2780
     7.3517   7.3518   7.3518   7.3519   7.3996   7.3997   7.3997   7.3998
     7.6930   7.6930   7.6930   7.6931   7.9684   7.9685   7.9685   7.9685
     8.0088   8.0088   8.0088   8.0088   8.2608   8.2608   8.2608   8.2609
     8.2727   8.2728   8.2728   8.2728   8.5541   8.5541   8.5541   8.5541
     9.3726   9.3726   9.3726   9.3726   9.5207   9.5207   9.5208   9.5208
     9.5878   9.5878   9.5878   9.5879   9.7844   9.7844   9.7844   9.7845
     9.8657   9.8658   9.8658   9.8658   9.9478   9.9479   9.9479   9.9479
    13.4508  13.4508  13.4508  13.4508  13.6348  13.6348  13.6348  13.6348
    13.8265  13.8265  13.8265  13.8265  14.0364  14.0364  14.0364  14.0365
    14.4492  14.4492  14.4492  14.4492  14.4596  14.4596  14.4596  14.4596
    15.5258  15.5258  15.5258  15.5258  16.8200  16.8201  16.8201  16.8202
    16.9443  16.9444  16.9444  16.9445  17.3001  17.3002  17.3002  17.3002

          k =-0.5000-0.5000 0.2473 (  9648 PWs)   bands (ev):

   -46.5183 -46.5183 -46.5183 -46.5183 -46.5169 -46.5169 -46.5169 -46.5169
   -22.7986 -22.7986 -22.7986 -22.7986 -22.7700 -22.7700 -22.7700 -22.7700
   -22.7343 -22.7343 -22.7343 -22.7343 -22.7335 -22.7335 -22.7335 -22.7335
   -22.7330 -22.7329 -22.7329 -22.7329 -22.7303 -22.7303 -22.7303 -22.7303
   -14.2238 -14.2238 -14.2238 -14.2238 -14.1667 -14.1667 -14.1667 -14.1667
    -6.7030  -6.7029  -6.7029  -6.7029  -6.4688  -6.4688  -6.4688  -6.4687
    -6.0751  -6.0751  -6.0751  -6.0751  -6.0548  -6.0548  -6.0548  -6.0547
    -6.0273  -6.0272  -6.0272  -6.0272  -5.9631  -5.9631  -5.9631  -5.9630
     0.1949   0.1949   0.1950   0.1950   0.3105   0.3105   0.3105   0.3105
     0.3882   0.3882   0.3882   0.3882   0.4631   0.4631   0.4631   0.4631
     0.7217   0.7217   0.7217   0.7217   0.8571   0.8572   0.8572   0.8572
     6.4859   6.4859   6.4859   6.4859   6.8214   6.8214   6.8214   6.8215
     6.9749   6.9749   6.9749   6.9749   7.2955   7.2956   7.2956   7.2956
     7.3345   7.3346   7.3346   7.3346   7.5359   7.5360   7.5360   7.5361
     7.5888   7.5888   7.5888   7.5888   7.9930   7.9930   7.9930   7.9930
     8.0377   8.0377   8.0377   8.0378   8.1971   8.1972   8.1972   8.1972
     8.2044   8.2045   8.2045   8.2045   8.4181   8.4181   8.4181   8.4181
     9.4729   9.4730   9.4730   9.4730   9.5067   9.5067   9.5067   9.5067
     9.6224   9.6224   9.6224   9.6224   9.7510   9.7510   9.7510   9.7511
     9.8783   9.8783   9.8783   9.8783   9.8956   9.8957   9.8957   9.8957
    13.5526  13.5526  13.5526  13.5526  13.6889  13.6889  13.6889  13.6889
    13.8499  13.8500  13.8500  13.8500  14.0300  14.0300  14.0300  14.0301
    14.3210  14.3210  14.3210  14.3210  14.3537  14.3537  14.3537  14.3537
    15.8492  15.8493  15.8493  15.8493  16.8372  16.8373  16.8373  16.8374
    16.9272  16.9273  16.9273  16.9274  17.4916  17.4916  17.4916  17.4917

          k =-0.5000-0.5000 0.3709 (  9640 PWs)   bands (ev):

   -46.5180 -46.5180 -46.5180 -46.5180 -46.5171 -46.5171 -46.5171 -46.5171
   -22.7931 -22.7931 -22.7931 -22.7931 -22.7767 -22.7767 -22.7767 -22.7767
   -22.7339 -22.7339 -22.7339 -22.7339 -22.7328 -22.7328 -22.7328 -22.7328
   -22.7317 -22.7317 -22.7317 -22.7317 -22.7306 -22.7306 -22.7306 -22.7306
   -14.2109 -14.2109 -14.2108 -14.2108 -14.1800 -14.1799 -14.1799 -14.1799
    -6.6407  -6.6406  -6.6406  -6.6406  -6.5098  -6.5097  -6.5097  -6.5096
    -6.0849  -6.0849  -6.0849  -6.0848  -6.0698  -6.0697  -6.0697  -6.0697
    -6.0130  -6.0129  -6.0129  -6.0128  -5.9781  -5.9781  -5.9781  -5.9780
     0.2390   0.2390   0.2391   0.2391   0.2983   0.2983   0.2983   0.2983
     0.3437   0.3437   0.3438   0.3438   0.3771   0.3771   0.3771   0.3771
     0.8037   0.8037   0.8037   0.8037   0.8812   0.8812   0.8812   0.8812
     6.6048   6.6048   6.6048   6.6048   6.7587   6.7587   6.7587   6.7588
     7.0895   7.0895   7.0895   7.0895   7.3127   7.3128   7.3128   7.3128
     7.3282   7.3283   7.3283   7.3283   7.4622   7.4622   7.4622   7.4622
     7.7090   7.7091   7.7091   7.7091   8.0271   8.0271   8.0271   8.0272
     8.0431   8.0431   8.0431   8.0432   8.1280   8.1281   8.1281   8.1281
     8.1403   8.1403   8.1403   8.1403   8.1796   8.1796   8.1796   8.1797
     9.5577   9.5578   9.5578   9.5578   9.5762   9.5762   9.5762   9.5763
     9.6542   9.6543   9.6543   9.6543   9.7178   9.7178   9.7178   9.7179
     9.8398   9.8399   9.8399   9.8399   9.8483   9.8484   9.8484   9.8484
    13.7267  13.7267  13.7267  13.7267  13.8013  13.8013  13.8013  13.8014
    13.8982  13.8982  13.8982  13.8982  13.9829  13.9829  13.9829  13.9829
    14.1502  14.1502  14.1502  14.1502  14.1700  14.1700  14.1700  14.1701
    16.3021  16.3021  16.3021  16.3021  16.8810  16.8811  16.8811  16.8812
    16.9116  16.9117  16.9117  16.9118  17.1933  17.1933  17.1933  17.1934

          k =-0.5000-0.5000-0.4946 (  9640 PWs)   bands (ev):

   -46.5176 -46.5176 -46.5176 -46.5176 -46.5175 -46.5175 -46.5175 -46.5175
   -22.7846 -22.7846 -22.7846 -22.7846 -22.7843 -22.7843 -22.7843 -22.7843
   -22.7324 -22.7324 -22.7324 -22.7324 -22.7324 -22.7324 -22.7323 -22.7323
   -22.7323 -22.7323 -22.7323 -22.7323 -22.7323 -22.7323 -22.7323 -22.7323
   -14.1955 -14.1955 -14.1955 -14.1955 -14.1954 -14.1954 -14.1954 -14.1954
    -6.5711  -6.5711  -6.5711  -6.5710  -6.5710  -6.5709  -6.5709  -6.5709
    -6.0823  -6.0822  -6.0822  -6.0822  -6.0822  -6.0822  -6.0822  -6.0821
    -5.9959  -5.9958  -5.9958  -5.9958  -5.9958  -5.9957  -5.9957  -5.9957
     0.2914   0.2914   0.2914   0.2914   0.2915   0.2915   0.2915   0.2915
     0.3201   0.3201   0.3201   0.3201   0.3202   0.3202   0.3202   0.3202
     0.8615   0.8615   0.8616   0.8616   0.8616   0.8616   0.8616   0.8616
     6.6921   6.6922   6.6922   6.6922   6.6922   6.6922   6.6922   6.6923
     7.2817   7.2817   7.2817   7.2818   7.2819   7.2819   7.2819   7.2820
     7.3170   7.3170   7.3171   7.3171   7.3171   7.3171   7.3171   7.3172
     7.9165   7.9166   7.9166   7.9166   7.9166   7.9166   7.9166   7.9166
     8.0788   8.0789   8.0789   8.0789   8.0789   8.0789   8.0789   8.0790
     8.0817   8.0817   8.0817   8.0817   8.0817   8.0817   8.0818   8.0818
     9.6416   9.6416   9.6416   9.6416   9.6417   9.6417   9.6417   9.6417
     9.6461   9.6462   9.6462   9.6462   9.6462   9.6462   9.6462   9.6462
     9.8293   9.8293   9.8293   9.8294   9.8294   9.8294   9.8294   9.8294
    13.8762  13.8762  13.8762  13.8762  13.8763  13.8763  13.8763  13.8763
    13.9630  13.9630  13.9630  13.9630  13.9631  13.9631  13.9631  13.9631
    13.9890  13.9890  13.9890  13.9890  13.9891  13.9891  13.9891  13.9891
    16.7782  16.7782  16.7782  16.7783  16.7785  16.7785  16.7785  16.7785
    16.9063  16.9064  16.9064  16.9064  16.9065  16.9065  16.9065  16.9065

     highest occupied, lowest unoccupied level (ev):    10.5170   12.4393

!    total energy              =   -5961.38160204 Ry
     total all-electron energy =   -147445.835175 Ry
     estimated scf accuracy    <          7.4E-12 Ry

     The total energy is the sum of the following terms:
     one-electron contribution =    -543.61940708 Ry
     hartree contribution      =     479.02147615 Ry
     xc contribution           =    -490.55014242 Ry
     ewald contribution        =   -1653.96634398 Ry
     one-center paw contrib.   =   -3752.26718471 Ry

     convergence has been achieved in   3 iterations

     Forces acting on atoms (cartesian axes, Ry/au):

     atom    1 type  1   force =     0.00000000    0.00000000   -0.00059549
     atom    2 type  1   force =     0.00000000    0.00000000   -0.00056664
     atom    3 type  1   force =     0.00000000    0.00000000   -0.00058389
     atom    4 type  1   force =     0.00000000    0.00000000   -0.00057333
     atom    5 type  1   force =     0.00000000    0.00000000   -0.00058389
     atom    6 type  1   force =     0.00000000    0.00000000   -0.00057333
     atom    7 type  1   force =     0.00000000    0.00000000   -0.00060059
     atom    8 type  1   force =     0.00000000    0.00000000   -0.00056443
     atom    9 type  2   force =     0.00005185    0.00005185    0.04342980
     atom   10 type  2   force =     0.00004164    0.00004164    0.04357174
     atom   11 type  2   force =     0.00005185   -0.00005185    0.04342980
     atom   12 type  2   force =     0.00004164   -0.00004164    0.04357174
     atom   13 type  2   force =    -0.00005185    0.00005185    0.04342980
     atom   14 type  2   force =    -0.00004164    0.00004164    0.04357174
     atom   15 type  2   force =    -0.00005185   -0.00005185    0.04342980
     atom   16 type  2   force =    -0.00004164   -0.00004164    0.04357174
     atom   17 type  3   force =     0.00000019    0.00000019   -0.04665680
     atom   18 type  3   force =    -0.00000116   -0.00000116   -0.04667986
     atom   19 type  3   force =     0.00000019   -0.00000019   -0.04665680
     atom   20 type  3   force =    -0.00000116    0.00000116   -0.04667986
     atom   21 type  3   force =    -0.00000019    0.00000019   -0.04665680
     atom   22 type  3   force =     0.00000116   -0.00000116   -0.04667986
     atom   23 type  3   force =    -0.00000019   -0.00000019   -0.04665680
     atom   24 type  3   force =     0.00000116    0.00000116   -0.04667986
     atom   25 type  3   force =     0.00000092    0.00000000    0.00186488
     atom   26 type  3   force =    -0.00000569    0.00000000    0.00187169
     atom   27 type  3   force =     0.00000355   -0.00000000    0.00187342
     atom   28 type  3   force =     0.00000368    0.00000000    0.00188554
     atom   29 type  3   force =    -0.00000092    0.00000000    0.00186488
     atom   30 type  3   force =     0.00000569    0.00000000    0.00187169
     atom   31 type  3   force =    -0.00000355    0.00000000    0.00187342
     atom   32 type  3   force =    -0.00000368    0.00000000    0.00188554
     atom   33 type  3   force =     0.00000000    0.00000092    0.00186488
     atom   34 type  3   force =     0.00000000   -0.00000569    0.00187169
     atom   35 type  3   force =     0.00000000   -0.00000092    0.00186488
     atom   36 type  3   force =     0.00000000    0.00000569    0.00187169
     atom   37 type  3   force =     0.00000000    0.00000355    0.00187342
     atom   38 type  3   force =     0.00000000    0.00000368    0.00188554
     atom   39 type  3   force =    -0.00000000   -0.00000355    0.00187342
     atom   40 type  3   force =     0.00000000   -0.00000368    0.00188554

     Total force =     0.180613     Total SCF correction =     0.000002


     Computing stress (Cartesian axis) and pressure

          total   stress  (Ry/bohr**3)                   (kbar)     P=     -798.94
  -0.00541461   0.00000000   0.00000000         -796.52        0.00        0.00
   0.00000000  -0.00541461   0.00000000            0.00     -796.52        0.00
   0.00000000   0.00000000  -0.00546404            0.00        0.00     -803.79


     Writing all to output data dir ./tmp/30_ecut_8_kmesh_PBE.save/ :
     XML data file, charge density, pseudopotentials, collected wavefunctions

     init_run     :      1.32s CPU      2.57s WALL (       1 calls)
     electrons    :     10.12s CPU     10.57s WALL (       1 calls)
     forces       :      0.45s CPU      0.50s WALL (       1 calls)
     stress       :      1.35s CPU      1.46s WALL (       1 calls)

     Called by init_run:
     wfcinit      :      0.75s CPU      1.83s WALL (       1 calls)
     potinit      :      0.21s CPU      0.26s WALL (       1 calls)
     hinit0       :      0.26s CPU      0.34s WALL (       1 calls)

     Called by electrons:
     c_bands      :      8.71s CPU      9.04s WALL (       4 calls)
     sum_band     :      0.97s CPU      1.01s WALL (       4 calls)
     v_of_rho     :      0.02s CPU      0.04s WALL (       4 calls)
     newd         :      0.02s CPU      0.04s WALL (       4 calls)
     PAW_pot      :      0.17s CPU      0.19s WALL (       4 calls)
     mix_rho      :      0.00s CPU      0.00s WALL (       4 calls)

     Called by c_bands:
     init_us_2    :      0.09s CPU      0.09s WALL (     100 calls)
     cegterg      :      8.06s CPU      8.37s WALL (      40 calls)

     Called by *egterg:
     cdiaghg      :      2.21s CPU      2.36s WALL (     132 calls)
     h_psi        :      3.82s CPU      3.94s WALL (     152 calls)
     s_psi        :      0.46s CPU      0.47s WALL (     152 calls)
     g_psi        :      0.00s CPU      0.00s WALL (     112 calls)

     Called by h_psi:
     h_psi:calbec :      0.78s CPU      0.84s WALL (     152 calls)
     vloc_psi     :      2.56s CPU      2.61s WALL (     152 calls)
                                        0.00s GPU  (     152 calls)
     add_vuspsi   :      0.47s CPU      0.48s WALL (     152 calls)

     General routines
     calbec       :      2.52s CPU      2.72s WALL (     362 calls)
     fft          :      0.16s CPU      0.19s WALL (      76 calls)
     ffts         :      0.16s CPU      0.16s WALL (       8 calls)
     fftw         :      2.99s CPU      3.05s WALL (   43634 calls)
     interpolate  :      0.16s CPU      0.16s WALL (       4 calls)

     Parallel routines

     PWSCF        :     14.62s CPU     18.48s WALL


   This run was terminated on:   0:12:33  21May2026            

=------------------------------------------------------------------------------=
   JOB DONE.
=------------------------------------------------------------------------------=
