
     Program PWSCF v.7.5 starts on 21May2026 at  0:15:55 

     This program is part of the open-source Quantum ESPRESSO suite
     for quantum simulation of materials; please cite
         "P. Giannozzi et al., J. Phys.:Condens. Matter 21 395502 (2009);
         "P. Giannozzi et al., J. Phys.:Condens. Matter 29 465901 (2017);
         "P. Giannozzi et al., J. Chem. Phys. 152 154105 (2020);
          URL http://www.quantum-espresso.org", 
     in publications or presentations arising from this work. More details at
     http://www.quantum-espresso.org/quote

     Parallel version (MPI & OpenMP), running on     192 processor cores
     Number of MPI processes:               192
     Threads/MPI process:                     1

     MPI processes distributed on     1 nodes
     558481 MiB available memory on the printing compute node when the environment starts

     Waiting for input...
     Reading input from standard input

     Current dimensions of program PWSCF are:
     Max number of different atomic species (ntypx) = 10
     Max number of k-points (npk) =  40000
     Max angular momentum in pseudopotentials (lmaxx) =  4
     file Ba.pbe-spn-kjpaw_psl.1.0.0.UPF: wavefunction(s)  5S 6S renormalized
     file Ti.pbe-spn-kjpaw_psl.1.0.0.UPF: wavefunction(s)  3S 3P 3D renormalized
     file O.pbe-n-kjpaw_psl.1.0.0.UPF: wavefunction(s)  2S 2P renormalized

     IMPORTANT: XC functional enforced from input :
     Exchange-correlation= PBE
                           (   1   4   3   4   0   0   0)
     Any further DFT definition will be discarded
     Please, verify this is what you really want

     Found identity + ( -0.5000 -0.5000  0.0000) symmetry
     This is a supercell, fractional translations are disabled

     K-points division:     npool     =       8
     R & G space division:  proc/nbgrp/npool/nimage =      24
     Subspace diagonalization in iterative solution of the eigenvalue problem:
     one sub-group per band group will be used
     ELPA distributed-memory algorithm (size of sub-group:  2*  2 procs)


     Parallelization info
     --------------------
     sticks:   dense  smooth     PW     G-vecs:    dense   smooth      PW
     Min         543     271     73                47197    16689    2333
     Max         545     272     74                47200    16692    2336
     Sum       13053    6525   1757              1132751   400585   56003

     Using Slab Decomposition



     bravais-lattice index     =            6
     lattice parameter (alat)  =      15.0876  a.u.
     unit-cell volume          =    3472.3239 (a.u.)^3
     number of atoms/cell      =           40
     number of atomic types    =            3
     number of electrons       =       320.00
     number of Kohn-Sham states=          200
     kinetic-energy cutoff     =      90.0000  Ry
     charge density cutoff     =     720.0000  Ry
     scf convergence threshold =      1.0E-10
     mixing beta               =       0.3000
     number of iterations used =           16  plain     mixing
     Exchange-correlation= PBE
                           (   1   4   3   4   0   0   0)

     celldm(1)=  15.087600  celldm(2)=   0.000000  celldm(3)=   1.011020
     celldm(4)=   0.000000  celldm(5)=   0.000000  celldm(6)=   0.000000

     crystal axes: (cart. coord. in units of alat)
               a(1) = (   1.000000   0.000000   0.000000 )  
               a(2) = (   0.000000   1.000000   0.000000 )  
               a(3) = (   0.000000   0.000000   1.011020 )  

     reciprocal axes: (cart. coord. in units 2 pi/alat)
               b(1) = (  1.000000  0.000000  0.000000 )  
               b(2) = (  0.000000  1.000000  0.000000 )  
               b(3) = (  0.000000  0.000000  0.989100 )  


     PseudoPot. # 1 for Ba read from file:
     /home/kylay/scratch/BTO/pseuds/Ba.pbe-spn-kjpaw_psl.1.0.0.UPF
     MD5 check sum: 7cfe25f1fe7574a4710541d5a11d6531
     Pseudo is Projector augmented-wave + core cor, Zval = 10.0
     Generated using &quot;atomic&quot; code by A. Dal Corso  v.6.2.2
     Shape of augmentation charge: PSQ
     Using radial grid of 1251 points,  7 beta functions with: 
                l(1) =   0
                l(2) =   0
                l(3) =   0
                l(4) =   1
                l(5) =   1
                l(6) =   2
                l(7) =   2
     Q(r) pseudized with 0 coefficients 


     PseudoPot. # 2 for Ti read from file:
     /home/kylay/scratch/BTO/pseuds/Ti.pbe-spn-kjpaw_psl.1.0.0.UPF
     MD5 check sum: 01f69b0d8ba4438b2e03ac6ea4af1c0b
     Pseudo is Projector augmented-wave + core cor, Zval = 12.0
     Generated using &quot;atomic&quot; code by A. Dal Corso  v.6.2.2
     Shape of augmentation charge: PSQ
     Using radial grid of 1177 points,  6 beta functions with: 
                l(1) =   0
                l(2) =   0
                l(3) =   1
                l(4) =   1
                l(5) =   2
                l(6) =   2
     Q(r) pseudized with 0 coefficients 


     PseudoPot. # 3 for O  read from file:
     /home/kylay/scratch/BTO/pseuds/O.pbe-n-kjpaw_psl.1.0.0.UPF
     MD5 check sum: e99d9cef9b487d1ca56f5b95ecd0fd7a
     Pseudo is Projector augmented-wave + core cor, Zval =  6.0
     Generated using &quot;atomic&quot; code by A. Dal Corso  v.6.3
     Shape of augmentation charge: PSQ
     Using radial grid of 1095 points,  4 beta functions with: 
                l(1) =   0
                l(2) =   0
                l(3) =   1
                l(4) =   1
     Q(r) pseudized with 0 coefficients 


     atomic species   valence    mass     pseudopotential
     Ba               10.00   137.32700     Ba( 1.00)
     Ti               12.00    47.86700     Ti( 1.00)
     O                 6.00    15.99900     O ( 1.00)

      8 Sym. Ops. (no inversion) found



   Cartesian axes

     site n.     atom                  positions (alat units)
         1        Ba     tau(   1) = (   0.0000000   0.0000000  -0.0010787  )
         2        Ba     tau(   2) = (   0.0000000   0.0000000   0.5044220  )
         3        Ba     tau(   3) = (   0.0000000   0.5000000  -0.0010832  )
         4        Ba     tau(   4) = (   0.0000000   0.5000000   0.5044235  )
         5        Ba     tau(   5) = (   0.5000000   0.0000000  -0.0010832  )
         6        Ba     tau(   6) = (   0.5000000   0.0000000   0.5044235  )
         7        Ba     tau(   7) = (   0.5000000   0.5000000  -0.0010766  )
         8        Ba     tau(   8) = (   0.5000000   0.5000000   0.5044202  )
         9        Ti     tau(   9) = (   0.2500002   0.2500002   0.2436990  )
        10        Ti     tau(  10) = (   0.2500007   0.2500007   0.7492042  )
        11        Ti     tau(  11) = (   0.2500002   0.7499998   0.2436990  )
        12        Ti     tau(  12) = (   0.2500007   0.7499993   0.7492042  )
        13        Ti     tau(  13) = (   0.7499998   0.2500002   0.2436990  )
        14        Ti     tau(  14) = (   0.7499993   0.2500007   0.7492042  )
        15        Ti     tau(  15) = (   0.7499998   0.7499998   0.2436990  )
        16        Ti     tau(  16) = (   0.7499993   0.7499993   0.7492042  )
        17        O      tau(  17) = (   0.2500011   0.2500011   0.0113903  )
        18        O      tau(  18) = (   0.2500007   0.2500007   0.5168954  )
        19        O      tau(  19) = (   0.2500011   0.7499989   0.0113903  )
        20        O      tau(  20) = (   0.2500007   0.7499993   0.5168954  )
        21        O      tau(  21) = (   0.7499989   0.2500011   0.0113903  )
        22        O      tau(  22) = (   0.7499993   0.2500007   0.5168954  )
        23        O      tau(  23) = (   0.7499989   0.7499989   0.0113903  )
        24        O      tau(  24) = (   0.7499993   0.7499993   0.5168954  )
        25        O      tau(  25) = (   0.2500005   0.0000000   0.2592128  )
        26        O      tau(  26) = (   0.2500020   0.0000000   0.7647195  )
        27        O      tau(  27) = (   0.2499999   0.5000000   0.2592107  )
        28        O      tau(  28) = (   0.2499998   0.5000000   0.7647148  )
        29        O      tau(  29) = (   0.7499995   0.0000000   0.2592128  )
        30        O      tau(  30) = (   0.7499980   0.0000000   0.7647195  )
        31        O      tau(  31) = (   0.7500001   0.5000000   0.2592107  )
        32        O      tau(  32) = (   0.7500002   0.5000000   0.7647148  )
        33        O      tau(  33) = (   0.0000000   0.2500005   0.2592128  )
        34        O      tau(  34) = (   0.0000000   0.2500020   0.7647195  )
        35        O      tau(  35) = (   0.0000000   0.7499995   0.2592128  )
        36        O      tau(  36) = (   0.0000000   0.7499980   0.7647195  )
        37        O      tau(  37) = (   0.5000000   0.2499999   0.2592107  )
        38        O      tau(  38) = (   0.5000000   0.2499998   0.7647148  )
        39        O      tau(  39) = (   0.5000000   0.7500001   0.2592107  )
        40        O      tau(  40) = (   0.5000000   0.7500002   0.7647148  )

     number of k points=   126

     Number of k-points >= 100: set verbosity='high' to print them.

     Dense  grid:  1132751 G-vectors     FFT dimensions: ( 135, 135, 135)

     Smooth grid:   400585 G-vectors     FFT dimensions: (  96,  96,  96)

     Estimated max dynamical RAM per process >     215.19 MB

     Estimated total dynamical RAM >      36.57 GB

     The initial density is read from file :
     ./tmp/90_ecut_10_kmesh_PBE.save/charge-density

     Starting wfcs from file
     Checking if some PAW data can be deallocated... 

     total cpu time spent up to now is       10.8 secs

     per-process dynamical memory:   242.8 Mb

     Self-consistent Calculation

     iteration #  1     ecut=    90.00 Ry     beta= 0.30
     Davidson diagonalization with overlap
     ethr =  1.00E-05,  avg # of iterations =  1.0

     Threshold (ethr) on eigenvalues was too large:
     Diagonalizing with lowered threshold

     Davidson diagonalization with overlap
     ethr =  5.82E-13,  avg # of iterations =  4.4

     total cpu time spent up to now is       34.6 secs

     total energy              =   -5964.63708208 Ry
     estimated scf accuracy    <          2.3E-09 Ry

     iteration #  2     ecut=    90.00 Ry     beta= 0.30
     Davidson diagonalization with overlap
     ethr =  7.09E-13,  avg # of iterations =  1.9

     total cpu time spent up to now is       46.1 secs

     total energy              =   -5964.63708208 Ry
     estimated scf accuracy    <          4.1E-10 Ry

     iteration #  3     ecut=    90.00 Ry     beta= 0.30
     Davidson diagonalization with overlap
     ethr =  1.29E-13,  avg # of iterations =  4.2

     total cpu time spent up to now is       59.9 secs

     End of self-consistent calculation

     Number of k-points >= 100: set verbosity='high' to print the bands.

     highest occupied, lowest unoccupied level (ev):    10.4077   12.2288

!    total energy              =   -5964.63708208 Ry
     total all-electron energy =   -147449.090655 Ry
     estimated scf accuracy    <          3.0E-11 Ry

     The total energy is the sum of the following terms:
     one-electron contribution =    -550.52046723 Ry
     hartree contribution      =     483.91567423 Ry
     xc contribution           =    -491.51474066 Ry
     ewald contribution        =   -1653.96634398 Ry
     one-center paw contrib.   =   -3752.55120443 Ry

     convergence has been achieved in   3 iterations

     Forces acting on atoms (cartesian axes, Ry/au):

     atom    1 type  1   force =     0.00000000    0.00000000   -0.00097789
     atom    2 type  1   force =     0.00000000    0.00000000   -0.00094784
     atom    3 type  1   force =     0.00000000    0.00000000   -0.00096784
     atom    4 type  1   force =     0.00000000    0.00000000   -0.00095321
     atom    5 type  1   force =     0.00000000    0.00000000   -0.00096784
     atom    6 type  1   force =     0.00000000    0.00000000   -0.00095321
     atom    7 type  1   force =     0.00000000    0.00000000   -0.00098209
     atom    8 type  1   force =     0.00000000    0.00000000   -0.00094522
     atom    9 type  2   force =    -0.00000120   -0.00000120    0.00024616
     atom   10 type  2   force =    -0.00000184   -0.00000184    0.00025327
     atom   11 type  2   force =    -0.00000120    0.00000120    0.00024616
     atom   12 type  2   force =    -0.00000184    0.00000184    0.00025327
     atom   13 type  2   force =     0.00000120   -0.00000120    0.00024616
     atom   14 type  2   force =     0.00000184   -0.00000184    0.00025327
     atom   15 type  2   force =     0.00000120    0.00000120    0.00024616
     atom   16 type  2   force =     0.00000184    0.00000184    0.00025327
     atom   17 type  3   force =    -0.00000145   -0.00000145   -0.00014400
     atom   18 type  3   force =    -0.00000237   -0.00000237   -0.00013473
     atom   19 type  3   force =    -0.00000145    0.00000145   -0.00014400
     atom   20 type  3   force =    -0.00000237    0.00000237   -0.00013473
     atom   21 type  3   force =     0.00000145   -0.00000145   -0.00014400
     atom   22 type  3   force =     0.00000237   -0.00000237   -0.00013473
     atom   23 type  3   force =     0.00000145    0.00000145   -0.00014400
     atom   24 type  3   force =     0.00000237    0.00000237   -0.00013473
     atom   25 type  3   force =    -0.00000190    0.00000000    0.00042013
     atom   26 type  3   force =    -0.00000561    0.00000000    0.00042444
     atom   27 type  3   force =     0.00000072    0.00000000    0.00042470
     atom   28 type  3   force =     0.00000310    0.00000000    0.00043381
     atom   29 type  3   force =     0.00000190    0.00000000    0.00042013
     atom   30 type  3   force =     0.00000561    0.00000000    0.00042444
     atom   31 type  3   force =    -0.00000072    0.00000000    0.00042470
     atom   32 type  3   force =    -0.00000310    0.00000000    0.00043381
     atom   33 type  3   force =     0.00000000   -0.00000190    0.00042013
     atom   34 type  3   force =     0.00000000   -0.00000561    0.00042444
     atom   35 type  3   force =     0.00000000    0.00000190    0.00042013
     atom   36 type  3   force =     0.00000000    0.00000561    0.00042444
     atom   37 type  3   force =     0.00000000    0.00000072    0.00042470
     atom   38 type  3   force =     0.00000000    0.00000310    0.00043381
     atom   39 type  3   force =     0.00000000   -0.00000072    0.00042470
     atom   40 type  3   force =     0.00000000   -0.00000310    0.00043381

     Total force =     0.003310     Total SCF correction =     0.000005


     Computing stress (Cartesian axis) and pressure

          total   stress  (Ry/bohr**3)                   (kbar)     P=       43.10
   0.00026330   0.00000000   0.00000000           38.73        0.00        0.00
   0.00000000   0.00026330   0.00000000            0.00       38.73        0.00
   0.00000000   0.00000000   0.00035231            0.00        0.00       51.83


     Writing all to output data dir ./tmp/90_ecut_10_kmesh_PBE.save/ :
     XML data file, charge density, pseudopotentials, collected wavefunctions

     init_run     :      3.11s CPU      9.70s WALL (       1 calls)
     electrons    :     48.33s CPU     49.09s WALL (       1 calls)
     forces       :      2.63s CPU      2.70s WALL (       1 calls)
     stress       :      7.36s CPU      7.57s WALL (       1 calls)

     Called by init_run:
     wfcinit      :      1.55s CPU      8.05s WALL (       1 calls)
     potinit      :      0.63s CPU      0.69s WALL (       1 calls)
     hinit0       :      0.20s CPU      0.21s WALL (       1 calls)

     Called by electrons:
     c_bands      :     42.23s CPU     42.82s WALL (       4 calls)
     sum_band     :      5.42s CPU      5.53s WALL (       4 calls)
     v_of_rho     :      0.19s CPU      0.22s WALL (       4 calls)
     newd         :      0.52s CPU      0.52s WALL (       4 calls)
     PAW_pot      :      0.17s CPU      0.17s WALL (       4 calls)
     mix_rho      :      0.01s CPU      0.01s WALL (       4 calls)

     Called by c_bands:
     init_us_2    :      1.36s CPU      1.38s WALL (     160 calls)
     cegterg      :     39.27s CPU     39.82s WALL (      64 calls)

     Called by *egterg:
     cdiaghg      :      3.79s CPU      3.87s WALL (     268 calls)
     h_psi        :     20.78s CPU     21.07s WALL (     300 calls)
     s_psi        :      3.34s CPU      3.36s WALL (     300 calls)
     g_psi        :      0.09s CPU      0.09s WALL (     236 calls)

     Called by h_psi:
     h_psi:calbec :      4.32s CPU      4.45s WALL (     300 calls)
     vloc_psi     :     12.71s CPU     12.84s WALL (     300 calls)
                                        0.00s GPU  (     300 calls)
     add_vuspsi   :      3.41s CPU      3.44s WALL (     300 calls)

     General routines
     calbec       :     13.23s CPU     13.62s WALL (     636 calls)
     fft          :      0.69s CPU      0.74s WALL (      76 calls)
     ffts         :      0.53s CPU      0.54s WALL (       8 calls)
     fftw         :     14.58s CPU     14.74s WALL (   67188 calls)
     interpolate  :      0.54s CPU      0.55s WALL (       4 calls)

     Parallel routines

     PWSCF        :     63.84s CPU     74.12s WALL


   This run was terminated on:   0:17: 9  21May2026            

=------------------------------------------------------------------------------=
   JOB DONE.
=------------------------------------------------------------------------------=
