
     Program PWSCF v.7.5 starts on 21May2026 at  0:15:22 

     This program is part of the open-source Quantum ESPRESSO suite
     for quantum simulation of materials; please cite
         "P. Giannozzi et al., J. Phys.:Condens. Matter 21 395502 (2009);
         "P. Giannozzi et al., J. Phys.:Condens. Matter 29 465901 (2017);
         "P. Giannozzi et al., J. Chem. Phys. 152 154105 (2020);
          URL http://www.quantum-espresso.org", 
     in publications or presentations arising from this work. More details at
     http://www.quantum-espresso.org/quote

     Parallel version (MPI & OpenMP), running on     192 processor cores
     Number of MPI processes:               192
     Threads/MPI process:                     1

     MPI processes distributed on     1 nodes
     364743 MiB available memory on the printing compute node when the environment starts

     Waiting for input...
     Reading input from standard input

     Current dimensions of program PWSCF are:
     Max number of different atomic species (ntypx) = 10
     Max number of k-points (npk) =  40000
     Max angular momentum in pseudopotentials (lmaxx) =  4
     file Ba.pbe-spn-kjpaw_psl.1.0.0.UPF: wavefunction(s)  5S 6S renormalized
     file Ti.pbe-spn-kjpaw_psl.1.0.0.UPF: wavefunction(s)  3S 3P 3D renormalized
     file O.pbe-n-kjpaw_psl.1.0.0.UPF: wavefunction(s)  2S 2P renormalized

     IMPORTANT: XC functional enforced from input :
     Exchange-correlation= PBE
                           (   1   4   3   4   0   0   0)
     Any further DFT definition will be discarded
     Please, verify this is what you really want

     Found identity + ( -0.5000 -0.5000  0.0000) symmetry
     This is a supercell, fractional translations are disabled

     K-points division:     npool     =       8
     R & G space division:  proc/nbgrp/npool/nimage =      24
     Subspace diagonalization in iterative solution of the eigenvalue problem:
     one sub-group per band group will be used
     ELPA distributed-memory algorithm (size of sub-group:  2*  2 procs)


     Parallelization info
     --------------------
     sticks:   dense  smooth     PW     G-vecs:    dense   smooth      PW
     Min         482     240     65                39550    13981    1967
     Max         485     242     66                39552    13987    1972
     Sum       11585    5785   1565               949235   335575   47241

     Using Slab Decomposition



     bravais-lattice index     =            6
     lattice parameter (alat)  =      15.0876  a.u.
     unit-cell volume          =    3472.3239 (a.u.)^3
     number of atoms/cell      =           40
     number of atomic types    =            3
     number of electrons       =       320.00
     number of Kohn-Sham states=          200
     kinetic-energy cutoff     =      80.0000  Ry
     charge density cutoff     =     640.0000  Ry
     scf convergence threshold =      1.0E-10
     mixing beta               =       0.3000
     number of iterations used =           16  plain     mixing
     Exchange-correlation= PBE
                           (   1   4   3   4   0   0   0)

     celldm(1)=  15.087600  celldm(2)=   0.000000  celldm(3)=   1.011020
     celldm(4)=   0.000000  celldm(5)=   0.000000  celldm(6)=   0.000000

     crystal axes: (cart. coord. in units of alat)
               a(1) = (   1.000000   0.000000   0.000000 )  
               a(2) = (   0.000000   1.000000   0.000000 )  
               a(3) = (   0.000000   0.000000   1.011020 )  

     reciprocal axes: (cart. coord. in units 2 pi/alat)
               b(1) = (  1.000000  0.000000  0.000000 )  
               b(2) = (  0.000000  1.000000  0.000000 )  
               b(3) = (  0.000000  0.000000  0.989100 )  


     PseudoPot. # 1 for Ba read from file:
     /home/kylay/scratch/BTO/pseuds/Ba.pbe-spn-kjpaw_psl.1.0.0.UPF
     MD5 check sum: 7cfe25f1fe7574a4710541d5a11d6531
     Pseudo is Projector augmented-wave + core cor, Zval = 10.0
     Generated using &quot;atomic&quot; code by A. Dal Corso  v.6.2.2
     Shape of augmentation charge: PSQ
     Using radial grid of 1251 points,  7 beta functions with: 
                l(1) =   0
                l(2) =   0
                l(3) =   0
                l(4) =   1
                l(5) =   1
                l(6) =   2
                l(7) =   2
     Q(r) pseudized with 0 coefficients 


     PseudoPot. # 2 for Ti read from file:
     /home/kylay/scratch/BTO/pseuds/Ti.pbe-spn-kjpaw_psl.1.0.0.UPF
     MD5 check sum: 01f69b0d8ba4438b2e03ac6ea4af1c0b
     Pseudo is Projector augmented-wave + core cor, Zval = 12.0
     Generated using &quot;atomic&quot; code by A. Dal Corso  v.6.2.2
     Shape of augmentation charge: PSQ
     Using radial grid of 1177 points,  6 beta functions with: 
                l(1) =   0
                l(2) =   0
                l(3) =   1
                l(4) =   1
                l(5) =   2
                l(6) =   2
     Q(r) pseudized with 0 coefficients 


     PseudoPot. # 3 for O  read from file:
     /home/kylay/scratch/BTO/pseuds/O.pbe-n-kjpaw_psl.1.0.0.UPF
     MD5 check sum: e99d9cef9b487d1ca56f5b95ecd0fd7a
     Pseudo is Projector augmented-wave + core cor, Zval =  6.0
     Generated using &quot;atomic&quot; code by A. Dal Corso  v.6.3
     Shape of augmentation charge: PSQ
     Using radial grid of 1095 points,  4 beta functions with: 
                l(1) =   0
                l(2) =   0
                l(3) =   1
                l(4) =   1
     Q(r) pseudized with 0 coefficients 


     atomic species   valence    mass     pseudopotential
     Ba               10.00   137.32700     Ba( 1.00)
     Ti               12.00    47.86700     Ti( 1.00)
     O                 6.00    15.99900     O ( 1.00)

      8 Sym. Ops. (no inversion) found



   Cartesian axes

     site n.     atom                  positions (alat units)
         1        Ba     tau(   1) = (   0.0000000   0.0000000  -0.0010787  )
         2        Ba     tau(   2) = (   0.0000000   0.0000000   0.5044220  )
         3        Ba     tau(   3) = (   0.0000000   0.5000000  -0.0010832  )
         4        Ba     tau(   4) = (   0.0000000   0.5000000   0.5044235  )
         5        Ba     tau(   5) = (   0.5000000   0.0000000  -0.0010832  )
         6        Ba     tau(   6) = (   0.5000000   0.0000000   0.5044235  )
         7        Ba     tau(   7) = (   0.5000000   0.5000000  -0.0010766  )
         8        Ba     tau(   8) = (   0.5000000   0.5000000   0.5044202  )
         9        Ti     tau(   9) = (   0.2500002   0.2500002   0.2436990  )
        10        Ti     tau(  10) = (   0.2500007   0.2500007   0.7492042  )
        11        Ti     tau(  11) = (   0.2500002   0.7499998   0.2436990  )
        12        Ti     tau(  12) = (   0.2500007   0.7499993   0.7492042  )
        13        Ti     tau(  13) = (   0.7499998   0.2500002   0.2436990  )
        14        Ti     tau(  14) = (   0.7499993   0.2500007   0.7492042  )
        15        Ti     tau(  15) = (   0.7499998   0.7499998   0.2436990  )
        16        Ti     tau(  16) = (   0.7499993   0.7499993   0.7492042  )
        17        O      tau(  17) = (   0.2500011   0.2500011   0.0113903  )
        18        O      tau(  18) = (   0.2500007   0.2500007   0.5168954  )
        19        O      tau(  19) = (   0.2500011   0.7499989   0.0113903  )
        20        O      tau(  20) = (   0.2500007   0.7499993   0.5168954  )
        21        O      tau(  21) = (   0.7499989   0.2500011   0.0113903  )
        22        O      tau(  22) = (   0.7499993   0.2500007   0.5168954  )
        23        O      tau(  23) = (   0.7499989   0.7499989   0.0113903  )
        24        O      tau(  24) = (   0.7499993   0.7499993   0.5168954  )
        25        O      tau(  25) = (   0.2500005   0.0000000   0.2592128  )
        26        O      tau(  26) = (   0.2500020   0.0000000   0.7647195  )
        27        O      tau(  27) = (   0.2499999   0.5000000   0.2592107  )
        28        O      tau(  28) = (   0.2499998   0.5000000   0.7647148  )
        29        O      tau(  29) = (   0.7499995   0.0000000   0.2592128  )
        30        O      tau(  30) = (   0.7499980   0.0000000   0.7647195  )
        31        O      tau(  31) = (   0.7500001   0.5000000   0.2592107  )
        32        O      tau(  32) = (   0.7500002   0.5000000   0.7647148  )
        33        O      tau(  33) = (   0.0000000   0.2500005   0.2592128  )
        34        O      tau(  34) = (   0.0000000   0.2500020   0.7647195  )
        35        O      tau(  35) = (   0.0000000   0.7499995   0.2592128  )
        36        O      tau(  36) = (   0.0000000   0.7499980   0.7647195  )
        37        O      tau(  37) = (   0.5000000   0.2499999   0.2592107  )
        38        O      tau(  38) = (   0.5000000   0.2499998   0.7647148  )
        39        O      tau(  39) = (   0.5000000   0.7500001   0.2592107  )
        40        O      tau(  40) = (   0.5000000   0.7500002   0.7647148  )

     number of k points=    18
                       cart. coord. in units 2pi/alat
        k(    1) = (   0.0000000   0.0000000   0.0000000), wk =   0.0312500
        k(    2) = (   0.0000000   0.0000000   0.2472750), wk =   0.0625000
        k(    3) = (   0.0000000   0.0000000  -0.4945501), wk =   0.0312500
        k(    4) = (   0.0000000   0.2500000   0.0000000), wk =   0.1250000
        k(    5) = (   0.0000000   0.2500000   0.2472750), wk =   0.2500000
        k(    6) = (   0.0000000   0.2500000  -0.4945501), wk =   0.1250000
        k(    7) = (   0.0000000  -0.5000000   0.0000000), wk =   0.0625000
        k(    8) = (   0.0000000  -0.5000000   0.2472750), wk =   0.1250000
        k(    9) = (   0.0000000  -0.5000000  -0.4945501), wk =   0.0625000
        k(   10) = (   0.2500000   0.2500000   0.0000000), wk =   0.1250000
        k(   11) = (   0.2500000   0.2500000   0.2472750), wk =   0.2500000
        k(   12) = (   0.2500000   0.2500000  -0.4945501), wk =   0.1250000
        k(   13) = (   0.2500000  -0.5000000   0.0000000), wk =   0.1250000
        k(   14) = (   0.2500000  -0.5000000   0.2472750), wk =   0.2500000
        k(   15) = (   0.2500000  -0.5000000  -0.4945501), wk =   0.1250000
        k(   16) = (  -0.5000000  -0.5000000   0.0000000), wk =   0.0312500
        k(   17) = (  -0.5000000  -0.5000000   0.2472750), wk =   0.0625000
        k(   18) = (  -0.5000000  -0.5000000  -0.4945501), wk =   0.0312500

     Dense  grid:   949235 G-vectors     FFT dimensions: ( 125, 125, 125)

     Smooth grid:   335575 G-vectors     FFT dimensions: (  90,  90,  90)

     Estimated max dynamical RAM per process >     112.56 MB

     Estimated total dynamical RAM >      17.94 GB

     The initial density is read from file :
     ./tmp/80_ecut_4_kmesh_PBE.save/charge-density

     Starting wfcs from file
     Checking if some PAW data can be deallocated... 

     total cpu time spent up to now is        4.2 secs

     per-process dynamical memory:   142.1 Mb

     Self-consistent Calculation

     iteration #  1     ecut=    80.00 Ry     beta= 0.30
     Davidson diagonalization with overlap
     ethr =  1.00E-05,  avg # of iterations =  1.1

     Threshold (ethr) on eigenvalues was too large:
     Diagonalizing with lowered threshold

     Davidson diagonalization with overlap
     ethr =  1.14E-11,  avg # of iterations =  2.4

     total cpu time spent up to now is        8.8 secs

     total energy              =   -5964.63493449 Ry
     estimated scf accuracy    <       0.00000005 Ry

     iteration #  2     ecut=    80.00 Ry     beta= 0.30
     Davidson diagonalization with overlap
     ethr =  1.52E-11,  avg # of iterations =  2.0

     total cpu time spent up to now is       11.0 secs

     total energy              =   -5964.63493450 Ry
     estimated scf accuracy    <          8.7E-09 Ry

     iteration #  3     ecut=    80.00 Ry     beta= 0.30
     Davidson diagonalization with overlap
     ethr =  2.73E-12,  avg # of iterations =  4.0

     total cpu time spent up to now is       13.6 secs

     total energy              =   -5964.63493450 Ry
     estimated scf accuracy    <          4.0E-10 Ry

     iteration #  4     ecut=    80.00 Ry     beta= 0.30
     Davidson diagonalization with overlap
     ethr =  1.24E-13,  avg # of iterations =  5.7

     total cpu time spent up to now is       17.4 secs

     End of self-consistent calculation

          k = 0.0000 0.0000 0.0000 ( 42051 PWs)   bands (ev):

   -46.1071 -46.1062 -46.1061 -46.1061 -46.1052 -46.1052 -46.1050 -46.1042
   -22.4422 -22.4387 -22.4387 -22.4360 -22.3940 -22.3918 -22.3918 -22.3898
   -22.3880 -22.3880 -22.3848 -22.3848 -22.3845 -22.3845 -22.3822 -22.3822
   -22.3339 -22.3339 -22.3320 -22.3320 -22.3318 -22.3318 -22.3300 -22.3300
   -14.4581 -14.3466 -14.3372 -14.3371 -14.2677 -14.2677 -14.2597 -14.1992
    -6.7735  -6.7735  -6.7212  -6.5307  -6.2523  -6.1394  -6.1394  -5.9049
    -5.9049  -5.9041  -5.8435  -5.8435  -5.8097  -5.7775  -5.7457  -5.7457
    -5.7426  -5.7426  -5.7340  -5.6682  -5.5748  -5.5748  -5.5132  -5.5132
    -0.3542  -0.3542  -0.2921   0.2988   0.2988   0.3149   0.3149   0.3648
     0.3705   0.3705   0.3743   0.3743   0.5275   0.5275   0.5323   0.5324
     0.5492   0.5492   0.7380   0.7422   0.7422   0.7625   0.7625   0.8063
     5.9194   6.0770   6.1022   6.1022   6.2944   6.2944   6.3336   6.3489
     6.4059   6.4059   6.5583   6.5583   6.5588   6.5800   6.5958   7.5252
     7.5252   7.5767   7.5767   7.6241   7.6241   7.6250   7.6250   7.6383
     7.6383   7.7375   7.7375   7.9229   7.9229   7.9524   8.0507   8.0853
     8.0853   8.0904   8.0904   8.3846   8.3846   8.4537   8.4572   8.4695
     8.4695   8.5500   8.5500   8.6149   8.6904   8.6904   8.7145   8.7145
     9.0492   9.0492   9.2278   9.3428   9.3428   9.3757   9.3757   9.4725
     9.4725   9.4813   9.4813   9.4995   9.4995   9.7140   9.7140   9.9942
    10.0590  10.0590  10.1756  10.1756  10.2458  10.2458  10.3371  10.4077
    12.2289  12.3751  12.5470  12.5470  12.6636  12.6636  13.9441  13.9441
    13.9726  13.9726  14.0001  14.0001  14.0062  14.0062  14.0208  14.0208
    14.0227  14.0227  14.3639  14.3639  14.3928  14.4623  14.4628  14.5492
    14.5492  14.6096  14.6096  14.6146  14.6173  15.0984  15.2985  15.2985
    15.3435  15.4899  16.2945  16.2945  16.4903  16.8974  17.1086  17.1087

          k = 0.0000 0.0000 0.2473 ( 41979 PWs)   bands (ev):

   -46.1070 -46.1064 -46.1060 -46.1060 -46.1053 -46.1053 -46.1049 -46.1043
   -22.4352 -22.4319 -22.4319 -22.4293 -22.4011 -22.3987 -22.3987 -22.3966
   -22.3875 -22.3875 -22.3852 -22.3852 -22.3842 -22.3842 -22.3825 -22.3825
   -22.3336 -22.3336 -22.3323 -22.3323 -22.3315 -22.3315 -22.3303 -22.3303
   -14.4422 -14.3633 -14.3271 -14.3271 -14.2780 -14.2780 -14.2510 -14.2082
    -6.7001  -6.7001  -6.6741  -6.5297  -6.2746  -6.2746  -6.1808  -5.9047
    -5.8567  -5.8567  -5.8360  -5.8360  -5.8147  -5.8050  -5.7822  -5.7283
    -5.7194  -5.7194  -5.7113  -5.7113  -5.6008  -5.6008  -5.5469  -5.5468
    -0.2631  -0.2631  -0.1644   0.1978   0.1978   0.3749   0.3749   0.3890
     0.3891   0.3959   0.3959   0.4305   0.5031   0.5031   0.5041   0.5041
     0.5571   0.5761   0.5761   0.6915   0.6915   0.7125   0.7125   0.7424
     6.0025   6.0794   6.2092   6.2092   6.3798   6.3798   6.4533   6.4533
     6.5697   6.5824   6.5935   6.6128   6.6981   6.6981   6.7462   7.5353
     7.5353   7.5546   7.5546   7.5590   7.5590   7.5713   7.5713   7.7118
     7.7118   7.7119   7.7119   7.7400   7.7837   7.8498   7.8498   7.9075
     7.9075   8.0406   8.0406   8.2077   8.4232   8.4232   8.4386   8.4386
     8.5517   8.6178   8.6178   8.6269   8.7636   8.7636   8.8931   8.8931
     9.0953   9.2180   9.2180   9.2258   9.2258   9.2849   9.2849   9.3505
     9.3505   9.3698   9.3698   9.4592   9.4592   9.6783   9.7597   9.7597
    10.0057  10.0057  10.0750  10.0750  10.0859  10.0859  10.3473  10.3972
    12.2495  12.3529  12.7883  12.7883  12.8820  12.8820  13.8098  13.8098
    13.8335  13.8335  13.9488  13.9488  13.9688  13.9688  14.0142  14.0142
    14.0998  14.0998  14.2705  14.2705  14.4244  14.4616  14.4619  14.5091
    14.5091  14.5833  14.8126  14.8126  14.9917  15.2751  15.2751  15.5490
    15.6289  15.7780  16.2823  16.4834  16.4834  16.8642  17.0279  17.4504

          k = 0.0000 0.0000-0.4946 ( 41964 PWs)   bands (ev):

   -46.1067 -46.1067 -46.1057 -46.1057 -46.1056 -46.1056 -46.1046 -46.1046
   -22.4182 -22.4182 -22.4154 -22.4154 -22.4153 -22.4153 -22.4130 -22.4130
   -22.3864 -22.3864 -22.3864 -22.3864 -22.3833 -22.3833 -22.3833 -22.3833
   -22.3329 -22.3329 -22.3329 -22.3329 -22.3309 -22.3309 -22.3309 -22.3309
   -14.4031 -14.4030 -14.3028 -14.3028 -14.3027 -14.3027 -14.2297 -14.2296
    -6.5780  -6.5779  -6.5081  -6.5081  -6.5079  -6.5079  -6.0024  -6.0023
    -5.8467  -5.8466  -5.8287  -5.8287  -5.8287  -5.8287  -5.7937  -5.7936
    -5.6616  -5.6616  -5.6615  -5.6615  -5.6288  -5.6288  -5.6287  -5.6286
    -0.0376  -0.0376  -0.0376  -0.0376   0.1708   0.1710   0.4406   0.4407
     0.4407   0.4408   0.4491   0.4491   0.4491   0.4491   0.5277   0.5277
     0.5278   0.5278   0.5872   0.5873   0.6429   0.6429   0.6429   0.6429
     6.0716   6.0717   6.3198   6.3198   6.3199   6.3199   6.5879   6.5880
     6.9020   6.9020   6.9022   6.9022   7.1607   7.1608   7.1704   7.1704
     7.1705   7.1705   7.2009   7.2010   7.3850   7.3852   7.5555   7.5555
     7.5557   7.5557   7.8392   7.8392   7.8392   7.8392   7.8990   7.8990
     7.8991   7.8991   8.1293   8.1293   8.1295   8.1295   8.6156   8.6156
     8.6157   8.6157   8.8066   8.8068   8.9664   8.9664   8.9664   8.9664
     8.9875   8.9875   8.9876   8.9876   9.0883   9.0884   9.1951   9.1951
     9.1952   9.1952   9.7236   9.7236   9.7236   9.7236   9.7763   9.7764
     9.7764   9.7764   9.8779   9.8779   9.8780   9.8780  10.3720  10.3722
    12.3003  12.3004  13.3197  13.3197  13.3198  13.3198  13.3720  13.3720
    13.3720  13.3720  13.9591  13.9591  13.9592  13.9592  14.1029  14.1029
    14.1029  14.1029  14.2943  14.2943  14.2944  14.2944  14.4611  14.4611
    14.5026  14.5026  15.1498  15.1498  15.1498  15.1498  15.7128  15.7129
    16.3161  16.3163  16.4192  16.4195  16.5392  16.5394  17.0753  17.0753

          k = 0.0000 0.2500 0.0000 ( 41967 PWs)   bands (ev):

   -46.1070 -46.1062 -46.1061 -46.1059 -46.1054 -46.1052 -46.1051 -46.1043
   -22.4417 -22.4392 -22.4383 -22.4364 -22.3937 -22.3922 -22.3915 -22.3901
   -22.3875 -22.3850 -22.3844 -22.3825 -22.3801 -22.3771 -22.3768 -22.3746
   -22.3419 -22.3398 -22.3395 -22.3377 -22.3336 -22.3321 -22.3317 -22.3303
   -14.4408 -14.3553 -14.3352 -14.3260 -14.2794 -14.2712 -14.2578 -14.2094
    -6.7230  -6.7043  -6.6477  -6.5427  -6.3388  -6.2439  -6.0622  -5.8922
    -5.8808  -5.8715  -5.8492  -5.8250  -5.7995  -5.7644  -5.7615  -5.7509
    -5.7328  -5.7220  -5.7084  -5.7023  -5.6621  -5.6013  -5.5816  -5.5461
    -0.2612  -0.2352  -0.1834   0.2110   0.2656   0.3275   0.3399   0.3604
     0.3881   0.3988   0.4284   0.4325   0.4897   0.4982   0.5066   0.5224
     0.5508   0.5572   0.5678   0.6884   0.7068   0.7074   0.7090   0.7368
     6.0099   6.1021   6.1888   6.1956   6.3123   6.3752   6.4109   6.5125
     6.5591   6.5658   6.5659   6.6394   6.7210   6.7640   6.7689   7.4621
     7.5408   7.5969   7.6234   7.6307   7.6341   7.6344   7.6691   7.6757
     7.7077   7.7080   7.7369   7.7378   7.7494   7.7973   7.8230   7.9046
     7.9458   8.0174   8.0427   8.1666   8.2045   8.2546   8.2938   8.5769
     8.5968   8.6091   8.6869   8.6930   8.8011   8.8113   8.8315   8.9183
     8.9672   9.1377   9.1821   9.2383   9.3018   9.3030   9.3229   9.4200
     9.4236   9.4737   9.5141   9.5236   9.5539   9.5577   9.5942   9.6820
     9.9074  10.0075  10.0830  10.0927  10.1857  10.2215  10.2388  10.2515
    12.5151  12.5895  12.6432  12.6555  12.6983  12.7979  13.7299  13.7612
    13.7650  13.7851  13.9658  13.9801  14.0057  14.0078  14.0183  14.0184
    14.0547  14.0679  14.2535  14.2846  14.3999  14.4945  14.5015  14.5617
    14.5680  14.5752  14.7622  14.8119  14.9349  15.1235  15.2699  15.6449
    15.7634  15.7846  16.1342  16.5225  16.6806  16.9824  17.1476  17.3517

          k = 0.0000 0.2500 0.2473 ( 41974 PWs)   bands (ev):

   -46.1069 -46.1062 -46.1061 -46.1058 -46.1055 -46.1052 -46.1051 -46.1045
   -22.4347 -22.4324 -22.4315 -22.4297 -22.4008 -22.3991 -22.3984 -22.3969
   -22.3870 -22.3848 -22.3846 -22.3829 -22.3797 -22.3775 -22.3765 -22.3749
   -22.3415 -22.3401 -22.3393 -22.3380 -22.3333 -22.3320 -22.3318 -22.3305
   -14.4257 -14.3510 -14.3444 -14.3162 -14.2907 -14.2679 -14.2623 -14.2186
    -6.6566  -6.6308  -6.6092  -6.5277  -6.3154  -6.2664  -6.2039  -5.8998
    -5.8735  -5.8703  -5.8454  -5.8283  -5.8159  -5.7949  -5.7767  -5.7519
    -5.7309  -5.7104  -5.6953  -5.6929  -5.6532  -5.6171  -5.6101  -5.5708
    -0.2170  -0.1751  -0.0091   0.2088   0.2597   0.2638   0.2754   0.3437
     0.3675   0.3963   0.4211   0.4579   0.4636   0.4840   0.5148   0.5331
     0.5484   0.5891   0.5907   0.6129   0.6301   0.6791   0.6803   0.7113
     6.1077   6.1900   6.2076   6.3421   6.3539   6.5400   6.5640   6.6042
     6.6612   6.6901   6.7001   6.7082   6.7245   6.8039   6.8680   7.4283
     7.5082   7.5248   7.5409   7.5623   7.5874   7.6253   7.6352   7.6537
     7.6650   7.6706   7.7197   7.7739   7.7918   7.8481   7.8637   7.8697
     7.8753   7.9129   7.9139   8.0084   8.0091   8.3054   8.3204   8.3702
     8.4412   8.5821   8.7090   8.7222   8.7641   8.7928   8.8820   9.1299
     9.1426   9.1515   9.1729   9.1925   9.2994   9.3089   9.3679   9.3682
     9.3694   9.4334   9.4491   9.4759   9.4873   9.4988   9.5645   9.5751
     9.8429   9.9020   9.9318  10.0251  10.0594  10.0835  10.2397  10.2585
    12.5491  12.6371  12.8089  12.8642  12.8779  12.9995  13.7362  13.7502
    13.7867  13.7883  13.8133  13.8388  13.8849  13.8872  13.9811  14.0294
    14.0428  14.0876  14.1344  14.3054  14.3152  14.3776  14.4602  14.4828
    14.7019  14.7606  14.8170  15.1418  15.1890  15.2473  15.5726  15.7488
    15.9008  16.0668  16.3211  16.4690  16.6386  17.0269  17.1905  17.2803

          k = 0.0000 0.2500-0.4946 ( 41964 PWs)   bands (ev):

   -46.1065 -46.1065 -46.1058 -46.1058 -46.1055 -46.1055 -46.1048 -46.1048
   -22.4178 -22.4178 -22.4158 -22.4158 -22.4150 -22.4150 -22.4133 -22.4133
   -22.3859 -22.3859 -22.3838 -22.3838 -22.3786 -22.3786 -22.3757 -22.3757
   -22.3408 -22.3408 -22.3386 -22.3386 -22.3326 -22.3326 -22.3312 -22.3312
   -14.3887 -14.3887 -14.3178 -14.3177 -14.2922 -14.2922 -14.2406 -14.2405
    -6.5404  -6.5403  -6.4901  -6.4900  -6.4385  -6.4384  -6.0822  -6.0820
    -5.8645  -5.8644  -5.8498  -5.8497  -5.8044  -5.8043  -5.7811  -5.7810
    -5.6853  -5.6851  -5.6676  -5.6675  -5.6553  -5.6551  -5.6321  -5.6320
    -0.0369  -0.0369   0.0391   0.0392   0.2937   0.2938   0.3009   0.3010
     0.3875   0.3875   0.3973   0.3974   0.4385   0.4386   0.4761   0.4761
     0.5921   0.5921   0.6130   0.6131   0.6306   0.6306   0.6419   0.6420
     6.1822   6.1824   6.3061   6.3062   6.5165   6.5166   6.7315   6.7315
     6.9624   6.9624   7.0021   7.0023   7.0998   7.0999   7.1541   7.1542
     7.1821   7.1822   7.2847   7.2849   7.3327   7.3329   7.5771   7.5772
     7.6555   7.6556   7.6864   7.6865   7.8623   7.8623   7.8935   7.8936
     7.9336   7.9336   7.9845   7.9846   8.1332   8.1333   8.1928   8.1929
     8.4817   8.4818   8.5453   8.5454   8.8930   8.8931   8.9798   8.9799
     9.0747   9.0748   9.2328   9.2328   9.2793   9.2793   9.2877   9.2877
     9.3223   9.3224   9.6030   9.6030   9.6964   9.6965   9.7041   9.7042
     9.7472   9.7473   9.7554   9.7555   9.8014   9.8015  10.2467  10.2469
    12.5935  12.5935  13.3265  13.3266  13.3292  13.3292  13.3581  13.3581
    13.4525  13.4526  13.7517  13.7518  13.9151  13.9151  14.0130  14.0131
    14.1232  14.1232  14.1324  14.1324  14.2661  14.2661  14.3912  14.3913
    14.7510  14.7510  15.1329  15.1329  15.5999  15.6000  15.8893  15.8895
    16.4772  16.4774  16.5207  16.5209  16.8224  16.8226  16.9080  16.9081

          k = 0.0000-0.5000 0.0000 ( 41958 PWs)   bands (ev):

   -46.1066 -46.1066 -46.1057 -46.1057 -46.1056 -46.1056 -46.1047 -46.1047
   -22.4405 -22.4405 -22.4374 -22.4374 -22.3929 -22.3929 -22.3908 -22.3908
   -22.3862 -22.3862 -22.3835 -22.3835 -22.3610 -22.3610 -22.3585 -22.3585
   -22.3582 -22.3582 -22.3562 -22.3562 -22.3328 -22.3328 -22.3310 -22.3310
   -14.3985 -14.3985 -14.3076 -14.3075 -14.2988 -14.2988 -14.2337 -14.2337
    -6.6146  -6.6146  -6.5295  -6.5295  -6.4589  -6.4589  -5.8712  -5.8712
    -5.8657  -5.8656  -5.8187  -5.8187  -5.7880  -5.7880  -5.7835  -5.7835
    -5.7372  -5.7372  -5.7207  -5.7207  -5.6630  -5.6630  -5.6265  -5.6265
    -0.0305  -0.0305   0.0188   0.0188   0.1472   0.1472   0.4059   0.4059
     0.4084   0.4084   0.4462   0.4462   0.4594   0.4594   0.5183   0.5183
     0.5708   0.5708   0.5768   0.5769   0.6314   0.6314   0.6359   0.6359
     6.0889   6.0889   6.2684   6.2684   6.3081   6.3081   6.5624   6.5624
     6.8542   6.8542   6.9779   6.9779   7.1651   7.1652   7.1977   7.1978
     7.2187   7.2187   7.2915   7.2916   7.3718   7.3718   7.6191   7.6191
     7.6582   7.6582   7.8506   7.8506   7.8884   7.8884   7.8899   7.8899
     7.8966   7.8966   7.9553   7.9554   8.0076   8.0076   8.4774   8.4774
     8.6931   8.6932   8.7787   8.7787   8.8765   8.8765   8.9126   8.9126
     8.9717   8.9717   9.1279   9.1279   9.1556   9.1556   9.2962   9.2962
     9.3119   9.3119   9.6377   9.6377   9.7621   9.7621   9.7639   9.7639
     9.7833   9.7833   9.8780   9.8781   9.9045   9.9045  10.2110  10.2110
    12.5966  12.5966  13.1818  13.1818  13.2103  13.2104  13.2416  13.2416
    13.2601  13.2601  14.0072  14.0072  14.0126  14.0126  14.0606  14.0606
    14.0875  14.0875  14.2559  14.2559  14.2643  14.2643  14.4873  14.4873
    14.5720  14.5720  15.0814  15.0815  15.1264  15.1264  15.6440  15.6441
    16.3973  16.3974  16.5414  16.5414  16.6274  16.6274  17.1779  17.1779

          k = 0.0000-0.5000 0.2473 ( 41938 PWs)   bands (ev):

   -46.1065 -46.1065 -46.1059 -46.1059 -46.1054 -46.1054 -46.1048 -46.1048
   -22.4335 -22.4335 -22.4306 -22.4306 -22.3999 -22.3999 -22.3977 -22.3977
   -22.3858 -22.3858 -22.3839 -22.3839 -22.3607 -22.3607 -22.3589 -22.3589
   -22.3579 -22.3579 -22.3565 -22.3565 -22.3325 -22.3325 -22.3313 -22.3313
   -14.3854 -14.3854 -14.3211 -14.3211 -14.2894 -14.2894 -14.2434 -14.2434
    -6.5695  -6.5695  -6.4561  -6.4560  -6.4537  -6.4537  -6.0337  -6.0337
    -5.8725  -5.8725  -5.8361  -5.8361  -5.7698  -5.7697  -5.7518  -5.7518
    -5.7314  -5.7314  -5.7306  -5.7306  -5.6564  -5.6563  -5.6306  -5.6306
    -0.0108  -0.0108   0.0444   0.0444   0.2718   0.2718   0.2987   0.2987
     0.3785   0.3785   0.3957   0.3957   0.4321   0.4321   0.4835   0.4835
     0.6050   0.6050   0.6132   0.6133   0.6188   0.6188   0.6355   0.6355
     6.1938   6.1938   6.2985   6.2985   6.4737   6.4737   6.7066   6.7066
     6.9689   6.9690   7.0094   7.0094   7.1290   7.1290   7.1470   7.1471
     7.2093   7.2094   7.3348   7.3349   7.3725   7.3725   7.6069   7.6070
     7.6751   7.6751   7.7320   7.7321   7.8784   7.8784   7.9009   7.9009
     7.9204   7.9204   7.9324   7.9324   8.0091   8.0091   8.1566   8.1567
     8.5017   8.5017   8.5426   8.5426   8.8999   8.8999   9.0018   9.0018
     9.1898   9.1898   9.1967   9.1967   9.2053   9.2053   9.2742   9.2743
     9.3331   9.3331   9.5469   9.5469   9.6483   9.6483   9.7157   9.7157
     9.7951   9.7951   9.8539   9.8539   9.8841   9.8841  10.0921  10.0921
    12.8202  12.8202  13.1968  13.1968  13.2287  13.2287  13.2860  13.2860
    13.4097  13.4097  13.8230  13.8230  13.8929  13.8929  14.0551  14.0551
    14.1033  14.1033  14.1143  14.1143  14.2369  14.2369  14.3903  14.3903
    14.8064  14.8064  15.1128  15.1128  15.5094  15.5094  15.8278  15.8278
    16.5722  16.5723  16.6467  16.6468  16.8318  16.8318  17.0091  17.0091

          k = 0.0000-0.5000-0.4946 ( 41948 PWs)   bands (ev):

   -46.1062 -46.1062 -46.1062 -46.1062 -46.1051 -46.1051 -46.1051 -46.1051
   -22.4168 -22.4168 -22.4168 -22.4168 -22.4142 -22.4142 -22.4142 -22.4142
   -22.3849 -22.3849 -22.3848 -22.3848 -22.3598 -22.3598 -22.3598 -22.3597
   -22.3572 -22.3572 -22.3572 -22.3572 -22.3319 -22.3319 -22.3319 -22.3319
   -14.3536 -14.3536 -14.3535 -14.3535 -14.2666 -14.2666 -14.2665 -14.2665
    -6.4848  -6.4848  -6.4846  -6.4846  -6.2652  -6.2652  -6.2650  -6.2650
    -5.8809  -5.8809  -5.8808  -5.8808  -5.7447  -5.7447  -5.7446  -5.7446
    -5.7358  -5.7358  -5.7356  -5.7356  -5.6422  -5.6422  -5.6421  -5.6421
     0.0762   0.0762   0.0763   0.0763   0.2327   0.2327   0.2328   0.2328
     0.3586   0.3586   0.3586   0.3586   0.5150   0.5150   0.5150   0.5150
     0.5431   0.5431   0.5432   0.5432   0.6465   0.6465   0.6466   0.6466
     6.2746   6.2746   6.2747   6.2747   6.9007   6.9007   6.9008   6.9008
     7.0656   7.0656   7.0657   7.0657   7.1745   7.1745   7.1747   7.1747
     7.2485   7.2485   7.2486   7.2486   7.3242   7.3242   7.3243   7.3244
     7.6959   7.6959   7.6960   7.6960   7.8350   7.8350   7.8351   7.8351
     7.8873   7.8873   7.8873   7.8874   8.1156   8.1156   8.1156   8.1156
     8.2295   8.2295   8.2296   8.2296   8.8737   8.8737   8.8738   8.8738
     9.3147   9.3147   9.3147   9.3147   9.3548   9.3548   9.3548   9.3548
     9.3878   9.3878   9.3879   9.3879   9.6943   9.6943   9.6943   9.6943
     9.7971   9.7971   9.7971   9.7971   9.8712   9.8712   9.8714   9.8714
    13.1814  13.1814  13.1815  13.1815  13.3694  13.3694  13.3695  13.3695
    13.5437  13.5437  13.5438  13.5438  13.7546  13.7546  13.7547  13.7547
    14.1665  14.1665  14.1666  14.1666  14.2072  14.2072  14.2072  14.2072
    15.0423  15.0423  15.0423  15.0424  16.3157  16.3157  16.3158  16.3158
    16.4211  16.4211  16.4212  16.4213  17.0227  17.0230  17.2820  17.2825

          k = 0.2500 0.2500 0.0000 ( 41984 PWs)   bands (ev):

   -46.1068 -46.1061 -46.1061 -46.1059 -46.1054 -46.1052 -46.1052 -46.1045
   -22.4412 -22.4388 -22.4388 -22.4368 -22.3934 -22.3919 -22.3919 -22.3904
   -22.3796 -22.3796 -22.3775 -22.3771 -22.3767 -22.3767 -22.3750 -22.3748
   -22.3417 -22.3413 -22.3399 -22.3399 -22.3396 -22.3394 -22.3380 -22.3380
   -14.4244 -14.3432 -14.3432 -14.3241 -14.2838 -14.2693 -14.2693 -14.2198
    -6.6626  -6.6626  -6.5738  -6.5410  -6.3862  -6.1681  -6.1681  -5.8752
    -5.8552  -5.8552  -5.8304  -5.8304  -5.8009  -5.7825  -5.7629  -5.7535
    -5.7496  -5.7277  -5.7139  -5.7102  -5.7102  -5.6120  -5.6120  -5.6063
    -0.2396  -0.1223  -0.0295   0.2148   0.2148   0.3105   0.3292   0.3292
     0.3648   0.3815   0.4124   0.4477   0.4585   0.4585   0.5218   0.5373
     0.5373   0.5847   0.5847   0.6185   0.6629   0.6781   0.6814   0.6814
     6.1084   6.1983   6.1983   6.2987   6.3283   6.5693   6.5693   6.5991
     6.5991   6.6814   6.7022   6.8009   6.8009   6.8057   6.8114   7.3150
     7.5371   7.5686   7.5686   7.6117   7.6405   7.6482   7.6482   7.6594
     7.6887   7.7090   7.7090   7.7880   7.7880   7.8044   7.8669   7.8669
     7.9034   7.9137   7.9594   7.9897   8.0216   8.2428   8.2428   8.4261
     8.4261   8.6075   8.6908   8.6908   8.6994   8.7625   9.0100   9.0100
     9.1100   9.1129   9.1330   9.2061   9.2162   9.2726   9.3314   9.4162
     9.4162   9.4425   9.4426   9.4746   9.5150   9.5150   9.6054   9.6054
     9.9380   9.9416  10.0391  10.0770  10.0840  10.0840  10.1492  10.1713
    12.6308  12.7651  12.7742  12.7783  12.7783  12.8780  13.7241  13.7508
    13.7508  13.7775  13.7775  13.8392  13.8577  13.8577  13.9814  14.0142
    14.0574  14.0574  14.1537  14.2896  14.2896  14.3711  14.4560  14.4661
    14.8023  14.8291  14.8291  15.1137  15.1375  15.1411  15.7431  15.7431
    15.9472  16.0371  16.3520  16.3520  16.8053  17.2380  17.2699  17.6084

          k = 0.2500 0.2500 0.2473 ( 41946 PWs)   bands (ev):

   -46.1067 -46.1061 -46.1060 -46.1060 -46.1053 -46.1053 -46.1052 -46.1046
   -22.4343 -22.4320 -22.4320 -22.4301 -22.4004 -22.3988 -22.3988 -22.3972
   -22.3792 -22.3792 -22.3771 -22.3771 -22.3771 -22.3768 -22.3754 -22.3752
   -22.3414 -22.3410 -22.3399 -22.3396 -22.3396 -22.3396 -22.3383 -22.3383
   -14.4100 -14.3391 -14.3326 -14.3325 -14.2803 -14.2803 -14.2745 -14.2293
    -6.5952  -6.5952  -6.5432  -6.5156  -6.3146  -6.2449  -6.2449  -5.9233
    -5.8885  -5.8489  -5.8488  -5.8250  -5.8250  -5.7935  -5.7801  -5.7572
    -5.7330  -5.7075  -5.7069  -5.6970  -5.6970  -5.6330  -5.6330  -5.6290
    -0.1618  -0.1265   0.1463   0.2267   0.2525   0.2525   0.2869   0.3129
     0.3129   0.3676   0.3739   0.3795   0.3920   0.3921   0.4845   0.4846
     0.5031   0.6146   0.6353   0.6407   0.6407   0.7174   0.7174   0.7313
     6.2392   6.3302   6.3415   6.3415   6.5152   6.5664   6.5664   6.6671
     6.6671   6.7906   6.8054   6.8097   6.8335   6.9016   6.9016   7.3632
     7.4062   7.4062   7.4798   7.4965   7.6531   7.6531   7.6582   7.6626
     7.6626   7.7037   7.7933   7.7933   7.8118   7.8289   7.8396   7.8590
     7.8590   7.8810   7.8968   7.9088   8.0628   8.0628   8.0756   8.3542
     8.4550   8.4551   8.5009   8.5264   8.7300   8.7300   8.9632   9.1453
     9.1721   9.1985   9.1985   9.2282   9.3012   9.3012   9.3088   9.3860
     9.3860   9.4241   9.4363   9.5025   9.5025   9.5345   9.5526   9.5526
     9.8098   9.8616   9.8998   9.9581  10.0128  10.0128  10.1558  10.1638
    12.7403  12.8583  12.8999  12.9222  12.9797  12.9797  13.7724  13.7724
    13.7877  13.8106  13.8106  13.8251  13.8269  13.8269  13.8299  13.8917
    13.8917  13.9140  14.1716  14.1716  14.1852  14.3203  14.3410  14.3636
    15.1186  15.1334  15.1565  15.1565  15.2011  15.5883  15.7270  15.7270
    16.1702  16.2984  16.4617  16.4617  16.5856  17.1570  17.4077  17.5279

          k = 0.2500 0.2500-0.4946 ( 41938 PWs)   bands (ev):

   -46.1064 -46.1064 -46.1056 -46.1056 -46.1056 -46.1056 -46.1049 -46.1049
   -22.4174 -22.4174 -22.4154 -22.4154 -22.4154 -22.4154 -22.4137 -22.4137
   -22.3782 -22.3782 -22.3782 -22.3782 -22.3763 -22.3763 -22.3760 -22.3760
   -22.3407 -22.3406 -22.3403 -22.3403 -22.3389 -22.3389 -22.3389 -22.3389
   -14.3749 -14.3748 -14.3067 -14.3066 -14.3066 -14.3066 -14.2521 -14.2520
    -6.4991  -6.4990  -6.4257  -6.4257  -6.4256  -6.4256  -6.1324  -6.1323
    -5.8697  -5.8696  -5.8267  -5.8267  -5.8266  -5.8266  -5.7755  -5.7754
    -5.6973  -5.6971  -5.6821  -5.6820  -5.6725  -5.6725  -5.6724  -5.6723
     0.0257   0.0257   0.0294   0.0295   0.3044   0.3045   0.3045   0.3045
     0.3740   0.3740   0.3793   0.3794   0.3794   0.3794   0.3970   0.3970
     0.4292   0.4292   0.7132   0.7132   0.7132   0.7132   0.7180   0.7180
     6.3306   6.3308   6.4897   6.4897   6.4898   6.4898   6.8066   6.8067
     7.0083   7.0083   7.0084   7.0084   7.0262   7.0264   7.1051   7.1052
     7.2964   7.2964   7.2965   7.2965   7.4137   7.4139   7.5655   7.5655
     7.6818   7.6818   7.6819   7.6819   7.7782   7.7783   7.8715   7.8716
     7.9333   7.9333   8.0063   8.0063   8.0063   8.0063   8.1843   8.1844
     8.2361   8.2362   8.5178   8.5178   8.5178   8.5178   8.9305   8.9306
     9.2524   9.2524   9.2524   9.2524   9.2936   9.2937   9.4554   9.4554
     9.4555   9.4555   9.5526   9.5526   9.6443   9.6443   9.6897   9.6898
     9.6948   9.6948   9.7614   9.7615   9.7615   9.7615  10.1548  10.1549
    12.8084  12.8085  13.3385  13.3386  13.3648  13.3649  13.4321  13.4321
    13.4322  13.4322  13.8137  13.8137  13.8137  13.8138  13.9495  13.9496
    13.9496  13.9496  14.0771  14.0771  14.1091  14.1091  14.2636  14.2637
    15.1265  15.1266  15.5939  15.5939  15.5939  15.5939  15.9763  15.9764
    16.5093  16.5095  16.7284  16.7286  16.9208  16.9208  16.9209  16.9209

          k = 0.2500-0.5000 0.0000 ( 41940 PWs)   bands (ev):

   -46.1065 -46.1065 -46.1057 -46.1057 -46.1056 -46.1056 -46.1048 -46.1048
   -22.4400 -22.4400 -22.4378 -22.4378 -22.3926 -22.3926 -22.3911 -22.3911
   -22.3784 -22.3784 -22.3758 -22.3758 -22.3606 -22.3606 -22.3586 -22.3586
   -22.3581 -22.3581 -22.3565 -22.3565 -22.3407 -22.3407 -22.3387 -22.3387
   -14.3842 -14.3842 -14.3137 -14.3137 -14.2969 -14.2969 -14.2447 -14.2447
    -6.5801  -6.5801  -6.5190  -6.5190  -6.3842  -6.3842  -5.9776  -5.9776
    -5.8441  -5.8441  -5.8157  -5.8157  -5.7908  -5.7908  -5.7860  -5.7859
    -5.7429  -5.7428  -5.7198  -5.7198  -5.6778  -5.6778  -5.6555  -5.6555
    -0.0459  -0.0459   0.0990   0.0990   0.2655   0.2655   0.2860   0.2860
     0.3598   0.3598   0.3903   0.3903   0.4726   0.4726   0.4897   0.4897
     0.5710   0.5710   0.6171   0.6171   0.6264   0.6264   0.6310   0.6310
     6.1861   6.1861   6.2707   6.2707   6.5045   6.5045   6.7049   6.7049
     6.8718   6.8718   7.1079   7.1079   7.1163   7.1163   7.1397   7.1398
     7.2749   7.2749   7.2936   7.2937   7.3521   7.3521   7.6226   7.6226
     7.7083   7.7084   7.7176   7.7176   7.8649   7.8649   7.8860   7.8860
     7.9234   7.9234   8.0061   8.0061   8.0559   8.0559   8.2478   8.2478
     8.4625   8.4626   8.6035   8.6035   8.7042   8.7042   8.8238   8.8238
     9.1200   9.1200   9.1331   9.1331   9.2422   9.2422   9.3379   9.3379
     9.3928   9.3928   9.6799   9.6799   9.7455   9.7455   9.7478   9.7478
     9.7595   9.7595   9.7874   9.7874   9.9212   9.9212  10.0955  10.0955
    12.7287  12.7287  13.2209  13.2209  13.2408  13.2408  13.2666  13.2666
    13.3810  13.3810  13.7822  13.7822  13.9098  13.9098  14.0254  14.0254
    14.0967  14.0967  14.0992  14.0992  14.2306  14.2306  14.3754  14.3754
    14.8440  14.8440  15.0953  15.0953  15.5790  15.5790  15.8380  15.8380
    16.6434  16.6435  16.6542  16.6542  16.7702  16.7702  16.9863  16.9863

          k = 0.2500-0.5000 0.2473 ( 41944 PWs)   bands (ev):

   -46.1063 -46.1063 -46.1057 -46.1057 -46.1056 -46.1056 -46.1050 -46.1050
   -22.4331 -22.4331 -22.4310 -22.4310 -22.3996 -22.3996 -22.3980 -22.3980
   -22.3781 -22.3781 -22.3762 -22.3762 -22.3603 -22.3603 -22.3585 -22.3585
   -22.3583 -22.3583 -22.3568 -22.3568 -22.3404 -22.3404 -22.3390 -22.3390
   -14.3717 -14.3716 -14.3099 -14.3099 -14.3038 -14.3038 -14.2550 -14.2550
    -6.5310  -6.5310  -6.4494  -6.4494  -6.3853  -6.3852  -6.0758  -6.0758
    -5.8524  -5.8524  -5.8307  -5.8307  -5.7906  -5.7906  -5.7750  -5.7750
    -5.7475  -5.7475  -5.7228  -5.7227  -5.6827  -5.6827  -5.6636  -5.6636
     0.0123   0.0123   0.0689   0.0689   0.2792   0.2792   0.2809   0.2809
     0.3761   0.3761   0.3813   0.3813   0.3888   0.3888   0.4107   0.4107
     0.4295   0.4295   0.7059   0.7060   0.7140   0.7140   0.7143   0.7143
     6.3349   6.3349   6.4617   6.4617   6.4826   6.4826   6.7708   6.7708
     6.9520   6.9520   7.0536   7.0537   7.0781   7.0781   7.0988   7.0988
     7.3033   7.3033   7.3627   7.3627   7.4069   7.4069   7.5959   7.5959
     7.7075   7.7075   7.7114   7.7115   7.7733   7.7733   7.8784   7.8784
     7.9630   7.9630   7.9654   7.9654   7.9861   7.9861   8.1986   8.1986
     8.2537   8.2537   8.4163   8.4163   8.6269   8.6269   8.7459   8.7459
     9.2558   9.2558   9.2659   9.2659   9.2974   9.2974   9.3566   9.3566
     9.4735   9.4735   9.6105   9.6105   9.6181   9.6181   9.7148   9.7148
     9.7583   9.7583   9.8071   9.8071   9.8923   9.8923  10.0108  10.0108
    12.9270  12.9270  13.2741  13.2741  13.3216  13.3216  13.3606  13.3607
    13.3868  13.3869  13.8409  13.8409  13.8426  13.8426  13.9322  13.9322
    13.9403  13.9403  14.0505  14.0505  14.0953  14.0953  14.2590  14.2590
    15.1757  15.1758  15.5238  15.5238  15.5751  15.5751  15.9230  15.9230
    16.6550  16.6550  16.8089  16.8089  16.9860  16.9861  16.9918  16.9919

          k = 0.2500-0.5000-0.4946 ( 41940 PWs)   bands (ev):

   -46.1060 -46.1060 -46.1060 -46.1060 -46.1053 -46.1053 -46.1053 -46.1053
   -22.4164 -22.4164 -22.4164 -22.4164 -22.4146 -22.4146 -22.4146 -22.4146
   -22.3772 -22.3772 -22.3771 -22.3771 -22.3594 -22.3594 -22.3594 -22.3594
   -22.3576 -22.3576 -22.3576 -22.3576 -22.3397 -22.3397 -22.3397 -22.3397
   -14.3411 -14.3411 -14.3410 -14.3410 -14.2796 -14.2796 -14.2795 -14.2795
    -6.4328  -6.4328  -6.4327  -6.4327  -6.2730  -6.2730  -6.2728  -6.2728
    -5.8671  -5.8671  -5.8670  -5.8670  -5.7663  -5.7663  -5.7662  -5.7662
    -5.7389  -5.7389  -5.7388  -5.7388  -5.6824  -5.6824  -5.6822  -5.6822
     0.1167   0.1168   0.1168   0.1168   0.1870   0.1870   0.1870   0.1870
     0.3153   0.3153   0.3153   0.3153   0.3631   0.3631   0.3631   0.3631
     0.6297   0.6297   0.6297   0.6297   0.7686   0.7686   0.7687   0.7687
     6.4469   6.4469   6.4469   6.4470   6.8136   6.8136   6.8136   6.8136
     7.0087   7.0087   7.0087   7.0087   7.2484   7.2484   7.2484   7.2485
     7.2640   7.2640   7.2641   7.2641   7.4842   7.4842   7.4842   7.4842
     7.5688   7.5688   7.5688   7.5688   7.8982   7.8982   7.8983   7.8983
     7.9079   7.9079   7.9079   7.9079   8.0506   8.0506   8.0506   8.0506
     8.1180   8.1180   8.1180   8.1181   8.5525   8.5525   8.5525   8.5525
     9.3735   9.3735   9.3735   9.3735   9.4402   9.4403   9.4403   9.4403
     9.5373   9.5373   9.5374   9.5374   9.6845   9.6845   9.6845   9.6845
     9.7372   9.7372   9.7372   9.7372   9.8630   9.8630   9.8632   9.8632
    13.2875  13.2876  13.2876  13.2876  13.4257  13.4257  13.4258  13.4258
    13.5819  13.5819  13.5820  13.5820  13.7246  13.7247  13.7247  13.7247
    13.9912  13.9912  13.9912  13.9912  14.0391  14.0391  14.0391  14.0391
    15.5175  15.5175  15.5175  15.5175  16.3414  16.3415  16.3416  16.3416
    16.4134  16.4134  16.4135  16.4136  17.0641  17.0641  17.0642  17.0642

          k =-0.5000-0.5000 0.0000 ( 41836 PWs)   bands (ev):

   -46.1061 -46.1061 -46.1061 -46.1061 -46.1052 -46.1052 -46.1052 -46.1052
   -22.4389 -22.4389 -22.4389 -22.4389 -22.3919 -22.3919 -22.3919 -22.3919
   -22.3600 -22.3600 -22.3600 -22.3600 -22.3592 -22.3592 -22.3592 -22.3592
   -22.3575 -22.3575 -22.3575 -22.3575 -22.3571 -22.3571 -22.3571 -22.3571
   -14.3493 -14.3493 -14.3492 -14.3492 -14.2710 -14.2710 -14.2710 -14.2710
    -6.5257  -6.5257  -6.5257  -6.5257  -6.1936  -6.1936  -6.1936  -6.1936
    -5.8017  -5.8017  -5.8017  -5.8017  -5.7783  -5.7783  -5.7783  -5.7783
    -5.7756  -5.7756  -5.7756  -5.7756  -5.6798  -5.6798  -5.6798  -5.6798
     0.0555   0.0555   0.0555   0.0555   0.2890   0.2890   0.2891   0.2891
     0.3387   0.3387   0.3387   0.3387   0.5047   0.5047   0.5048   0.5048
     0.5339   0.5340   0.5340   0.5340   0.6464   0.6464   0.6464   0.6464
     6.2601   6.2601   6.2601   6.2601   6.8936   6.8936   6.8936   6.8936
     6.9106   6.9107   6.9107   6.9107   7.3028   7.3029   7.3029   7.3029
     7.3161   7.3161   7.3161   7.3162   7.3693   7.3693   7.3693   7.3693
     7.6955   7.6955   7.6955   7.6956   7.8489   7.8489   7.8489   7.8489
     7.9065   7.9065   7.9065   7.9066   8.2211   8.2211   8.2211   8.2211
     8.2416   8.2417   8.2417   8.2417   8.5209   8.5209   8.5209   8.5209
     9.2559   9.2559   9.2559   9.2559   9.4837   9.4837   9.4837   9.4837
     9.5176   9.5176   9.5176   9.5177   9.6880   9.6880   9.6880   9.6880
     9.7764   9.7764   9.7764   9.7764   9.8984   9.8984   9.8984   9.8984
    13.1219  13.1219  13.1219  13.1219  13.3412  13.3412  13.3412  13.3412
    13.5367  13.5367  13.5367  13.5368  13.7313  13.7313  13.7313  13.7313
    14.1455  14.1455  14.1455  14.1455  14.1806  14.1806  14.1806  14.1806
    15.0664  15.0664  15.0664  15.0665  16.3601  16.3601  16.3601  16.3601
    16.4414  16.4415  16.4415  16.4415  17.1348  17.3225  17.3268  17.3277

          k =-0.5000-0.5000 0.2473 ( 41952 PWs)   bands (ev):

   -46.1060 -46.1060 -46.1060 -46.1060 -46.1053 -46.1053 -46.1053 -46.1053
   -22.4321 -22.4321 -22.4321 -22.4321 -22.3988 -22.3988 -22.3988 -22.3988
   -22.3597 -22.3597 -22.3597 -22.3597 -22.3589 -22.3589 -22.3589 -22.3589
   -22.3579 -22.3579 -22.3579 -22.3579 -22.3574 -22.3574 -22.3574 -22.3574
   -14.3380 -14.3380 -14.3380 -14.3380 -14.2827 -14.2826 -14.2826 -14.2826
    -6.4661  -6.4661  -6.4661  -6.4661  -6.2211  -6.2211  -6.2211  -6.2210
    -5.8219  -5.8219  -5.8219  -5.8219  -5.7928  -5.7928  -5.7928  -5.7928
    -5.7643  -5.7643  -5.7643  -5.7643  -5.6946  -5.6946  -5.6946  -5.6946
     0.0972   0.0972   0.0973   0.0973   0.2233   0.2233   0.2233   0.2233
     0.2975   0.2975   0.2975   0.2975   0.3654   0.3655   0.3655   0.3655
     0.6313   0.6313   0.6313   0.6313   0.7637   0.7637   0.7637   0.7637
     6.4375   6.4375   6.4375   6.4375   6.8104   6.8104   6.8104   6.8104
     6.9216   6.9216   6.9216   6.9216   7.3090   7.3090   7.3091   7.3091
     7.3575   7.3575   7.3575   7.3575   7.4804   7.4804   7.4804   7.4804
     7.5472   7.5472   7.5472   7.5472   7.9219   7.9219   7.9219   7.9220
     7.9221   7.9221   7.9221   7.9221   8.1335   8.1335   8.1335   8.1335
     8.1337   8.1337   8.1337   8.1337   8.3440   8.3440   8.3440   8.3440
     9.4068   9.4068   9.4068   9.4068   9.4425   9.4425   9.4425   9.4425
     9.5505   9.5505   9.5505   9.5505   9.6778   9.6778   9.6778   9.6778
     9.7792   9.7792   9.7792   9.7792   9.8491   9.8491   9.8491   9.8491
    13.2758  13.2759  13.2759  13.2759  13.4222  13.4222  13.4222  13.4223
    13.5711  13.5711  13.5711  13.5711  13.7005  13.7005  13.7005  13.7005
    13.9859  13.9859  13.9859  13.9860  14.0254  14.0255  14.0255  14.0255
    15.4973  15.4973  15.4973  15.4973  16.3781  16.3782  16.3782  16.3782
    16.4339  16.4340  16.4340  16.4340  17.0860  17.0860  17.0860  17.0861

          k =-0.5000-0.5000-0.4946 ( 41912 PWs)   bands (ev):

   -46.1057 -46.1057 -46.1057 -46.1057 -46.1056 -46.1056 -46.1056 -46.1056
   -22.4155 -22.4155 -22.4155 -22.4155 -22.4155 -22.4155 -22.4155 -22.4155
   -22.3588 -22.3588 -22.3588 -22.3588 -22.3588 -22.3588 -22.3588 -22.3588
   -22.3582 -22.3582 -22.3582 -22.3582 -22.3582 -22.3582 -22.3582 -22.3582
   -14.3106 -14.3106 -14.3105 -14.3105 -14.3105 -14.3104 -14.3104 -14.3104
    -6.3292  -6.3292  -6.3292  -6.3292  -6.3291  -6.3291  -6.3291  -6.3291
    -5.8245  -5.8244  -5.8244  -5.8244  -5.8244  -5.8244  -5.8244  -5.8244
    -5.7299  -5.7299  -5.7299  -5.7299  -5.7298  -5.7298  -5.7298  -5.7298
     0.1976   0.1976   0.1976   0.1976   0.1977   0.1977   0.1977   0.1977
     0.2264   0.2264   0.2265   0.2265   0.2265   0.2265   0.2265   0.2265
     0.7702   0.7702   0.7702   0.7702   0.7702   0.7702   0.7702   0.7702
     6.6555   6.6555   6.6555   6.6556   6.6556   6.6556   6.6556   6.6556
     7.2410   7.2410   7.2410   7.2410   7.2411   7.2411   7.2411   7.2411
     7.3303   7.3303   7.3303   7.3303   7.3303   7.3304   7.3304   7.3304
     7.8473   7.8473   7.8473   7.8473   7.8473   7.8473   7.8473   7.8473
     7.9844   7.9844   7.9844   7.9844   7.9844   7.9844   7.9844   7.9845
     7.9899   7.9899   7.9899   7.9899   7.9900   7.9900   7.9900   7.9900
     9.5763   9.5764   9.5764   9.5764   9.5764   9.5764   9.5764   9.5764
     9.5816   9.5816   9.5816   9.5816   9.5816   9.5816   9.5816   9.5816
     9.7722   9.7722   9.7722   9.7722   9.7723   9.7723   9.7723   9.7723
    13.5914  13.5914  13.5914  13.5914  13.5914  13.5915  13.5915  13.5915
    13.6649  13.6649  13.6649  13.6649  13.6649  13.6649  13.6649  13.6649
    13.6947  13.6947  13.6947  13.6947  13.6947  13.6947  13.6947  13.6947
    16.3788  16.3788  16.3788  16.3788  16.3789  16.3789  16.3789  16.3790
    16.4109  16.4109  16.4109  16.4109  16.4109  16.4109  16.4109  16.4109

     highest occupied, lowest unoccupied level (ev):    10.4077   12.2289

!    total energy              =   -5964.63493450 Ry
     total all-electron energy =   -147449.088507 Ry
     estimated scf accuracy    <          3.3E-11 Ry

     The total energy is the sum of the following terms:
     one-electron contribution =    -550.51949309 Ry
     hartree contribution      =     483.91528133 Ry
     xc contribution           =    -491.51356075 Ry
     ewald contribution        =   -1653.96634398 Ry
     one-center paw contrib.   =   -3752.55081802 Ry

     convergence has been achieved in   4 iterations

     Forces acting on atoms (cartesian axes, Ry/au):

     atom    1 type  1   force =     0.00000000    0.00000000   -0.00097877
     atom    2 type  1   force =     0.00000000    0.00000000   -0.00094678
     atom    3 type  1   force =     0.00000000    0.00000000   -0.00096715
     atom    4 type  1   force =     0.00000000    0.00000000   -0.00095359
     atom    5 type  1   force =     0.00000000    0.00000000   -0.00096715
     atom    6 type  1   force =     0.00000000    0.00000000   -0.00095359
     atom    7 type  1   force =     0.00000000    0.00000000   -0.00098306
     atom    8 type  1   force =     0.00000000    0.00000000   -0.00094534
     atom    9 type  2   force =    -0.00000003   -0.00000003    0.00026120
     atom   10 type  2   force =    -0.00000067   -0.00000067    0.00027123
     atom   11 type  2   force =    -0.00000003    0.00000003    0.00026120
     atom   12 type  2   force =    -0.00000067    0.00000067    0.00027123
     atom   13 type  2   force =     0.00000003   -0.00000003    0.00026120
     atom   14 type  2   force =     0.00000067   -0.00000067    0.00027123
     atom   15 type  2   force =     0.00000003    0.00000003    0.00026120
     atom   16 type  2   force =     0.00000067    0.00000067    0.00027123
     atom   17 type  3   force =    -0.00000157   -0.00000157   -0.00015944
     atom   18 type  3   force =    -0.00000251   -0.00000251   -0.00015015
     atom   19 type  3   force =    -0.00000157    0.00000157   -0.00015944
     atom   20 type  3   force =    -0.00000251    0.00000251   -0.00015015
     atom   21 type  3   force =     0.00000157   -0.00000157   -0.00015944
     atom   22 type  3   force =     0.00000251   -0.00000251   -0.00015015
     atom   23 type  3   force =     0.00000157    0.00000157   -0.00015944
     atom   24 type  3   force =     0.00000251    0.00000251   -0.00015015
     atom   25 type  3   force =    -0.00000212    0.00000000    0.00041967
     atom   26 type  3   force =    -0.00000579    0.00000000    0.00042407
     atom   27 type  3   force =     0.00000053    0.00000000    0.00042404
     atom   28 type  3   force =     0.00000285    0.00000000    0.00043325
     atom   29 type  3   force =     0.00000212    0.00000000    0.00041967
     atom   30 type  3   force =     0.00000579    0.00000000    0.00042407
     atom   31 type  3   force =    -0.00000053    0.00000000    0.00042404
     atom   32 type  3   force =    -0.00000285    0.00000000    0.00043325
     atom   33 type  3   force =     0.00000000   -0.00000212    0.00041967
     atom   34 type  3   force =     0.00000000   -0.00000579    0.00042407
     atom   35 type  3   force =     0.00000000    0.00000212    0.00041967
     atom   36 type  3   force =     0.00000000    0.00000579    0.00042407
     atom   37 type  3   force =    -0.00000000    0.00000053    0.00042404
     atom   38 type  3   force =    -0.00000000    0.00000285    0.00043325
     atom   39 type  3   force =     0.00000000   -0.00000053    0.00042404
     atom   40 type  3   force =     0.00000000   -0.00000285    0.00043325

     Total force =     0.003325     Total SCF correction =     0.000007


     Computing stress (Cartesian axis) and pressure

          total   stress  (Ry/bohr**3)                   (kbar)     P=       42.23
   0.00025750   0.00000000   0.00000000           37.88        0.00        0.00
   0.00000000   0.00025750   0.00000000            0.00       37.88        0.00
   0.00000000   0.00000000   0.00034612            0.00        0.00       50.92


     Writing all to output data dir ./tmp/80_ecut_4_kmesh_PBE.save/ :
     XML data file, charge density, pseudopotentials, collected wavefunctions

     init_run     :      1.62s CPU      3.00s WALL (       1 calls)
     electrons    :     12.70s CPU     13.18s WALL (       1 calls)
     forces       :      0.74s CPU      0.77s WALL (       1 calls)
     stress       :      1.88s CPU      1.92s WALL (       1 calls)

     Called by init_run:
     wfcinit      :      0.47s CPU      1.64s WALL (       1 calls)
     potinit      :      0.41s CPU      0.48s WALL (       1 calls)
     hinit0       :      0.15s CPU      0.26s WALL (       1 calls)

     Called by electrons:
     c_bands      :     10.21s CPU     10.51s WALL (       5 calls)
     sum_band     :      1.57s CPU      1.64s WALL (       5 calls)
     v_of_rho     :      0.24s CPU      0.27s WALL (       5 calls)
     newd         :      0.40s CPU      0.42s WALL (       5 calls)
     PAW_pot      :      0.27s CPU      0.27s WALL (       5 calls)
     mix_rho      :      0.00s CPU      0.01s WALL (       5 calls)

     Called by c_bands:
     init_us_2    :      0.23s CPU      0.24s WALL (      36 calls)
     cegterg      :      9.37s CPU      9.67s WALL (      15 calls)

     Called by *egterg:
     cdiaghg      :      0.99s CPU      1.07s WALL (      58 calls)
     h_psi        :      4.79s CPU      4.91s WALL (      64 calls)
     s_psi        :      0.69s CPU      0.70s WALL (      64 calls)
     g_psi        :      0.01s CPU      0.01s WALL (      49 calls)

     Called by h_psi:
     h_psi:calbec :      0.92s CPU      0.94s WALL (      64 calls)
     vloc_psi     :      3.15s CPU      3.23s WALL (      64 calls)
                                        0.00s GPU  (      64 calls)
     add_vuspsi   :      0.70s CPU      0.70s WALL (      64 calls)

     General routines
     calbec       :      2.95s CPU      3.02s WALL (     130 calls)
     fft          :      0.53s CPU      0.61s WALL (      89 calls)
     ffts         :      0.30s CPU      0.31s WALL (      10 calls)
     fftw         :      3.71s CPU      3.80s WALL (   17794 calls)
     interpolate  :      0.32s CPU      0.32s WALL (       5 calls)

     Parallel routines

     PWSCF        :     18.15s CPU     21.82s WALL


   This run was terminated on:   0:15:43  21May2026            

=------------------------------------------------------------------------------=
   JOB DONE.
=------------------------------------------------------------------------------=
