
     Program PWSCF v.7.5 starts on 21May2026 at  0:13:15 

     This program is part of the open-source Quantum ESPRESSO suite
     for quantum simulation of materials; please cite
         "P. Giannozzi et al., J. Phys.:Condens. Matter 21 395502 (2009);
         "P. Giannozzi et al., J. Phys.:Condens. Matter 29 465901 (2017);
         "P. Giannozzi et al., J. Chem. Phys. 152 154105 (2020);
          URL http://www.quantum-espresso.org", 
     in publications or presentations arising from this work. More details at
     http://www.quantum-espresso.org/quote

     Parallel version (MPI & OpenMP), running on     192 processor cores
     Number of MPI processes:               192
     Threads/MPI process:                     1

     MPI processes distributed on     1 nodes
     393310 MiB available memory on the printing compute node when the environment starts

     Waiting for input...
     Reading input from standard input

     Current dimensions of program PWSCF are:
     Max number of different atomic species (ntypx) = 10
     Max number of k-points (npk) =  40000
     Max angular momentum in pseudopotentials (lmaxx) =  4
     file Ba.pbe-spn-kjpaw_psl.1.0.0.UPF: wavefunction(s)  5S 6S renormalized
     file Ti.pbe-spn-kjpaw_psl.1.0.0.UPF: wavefunction(s)  3S 3P 3D renormalized
     file O.pbe-n-kjpaw_psl.1.0.0.UPF: wavefunction(s)  2S 2P renormalized

     IMPORTANT: XC functional enforced from input :
     Exchange-correlation= PBE
                           (   1   4   3   4   0   0   0)
     Any further DFT definition will be discarded
     Please, verify this is what you really want

     Found identity + ( -0.5000 -0.5000  0.0000) symmetry
     This is a supercell, fractional translations are disabled

     K-points division:     npool     =       8
     R & G space division:  proc/nbgrp/npool/nimage =      24
     Subspace diagonalization in iterative solution of the eigenvalue problem:
     one sub-group per band group will be used
     ELPA distributed-memory algorithm (size of sub-group:  2*  2 procs)


     Parallelization info
     --------------------
     sticks:   dense  smooth     PW     G-vecs:    dense   smooth      PW
     Min         301     150     41                19547     6905     997
     Max         302     152     42                19550     6908    1002
     Sum        7237    3605    997               469165   165745   23993

     Using Slab Decomposition



     bravais-lattice index     =            6
     lattice parameter (alat)  =      15.0876  a.u.
     unit-cell volume          =    3472.3239 (a.u.)^3
     number of atoms/cell      =           40
     number of atomic types    =            3
     number of electrons       =       320.00
     number of Kohn-Sham states=          200
     kinetic-energy cutoff     =      50.0000  Ry
     charge density cutoff     =     400.0000  Ry
     scf convergence threshold =      1.0E-10
     mixing beta               =       0.3000
     number of iterations used =           16  plain     mixing
     Exchange-correlation= PBE
                           (   1   4   3   4   0   0   0)

     celldm(1)=  15.087600  celldm(2)=   0.000000  celldm(3)=   1.011020
     celldm(4)=   0.000000  celldm(5)=   0.000000  celldm(6)=   0.000000

     crystal axes: (cart. coord. in units of alat)
               a(1) = (   1.000000   0.000000   0.000000 )  
               a(2) = (   0.000000   1.000000   0.000000 )  
               a(3) = (   0.000000   0.000000   1.011020 )  

     reciprocal axes: (cart. coord. in units 2 pi/alat)
               b(1) = (  1.000000  0.000000  0.000000 )  
               b(2) = (  0.000000  1.000000  0.000000 )  
               b(3) = (  0.000000  0.000000  0.989100 )  


     PseudoPot. # 1 for Ba read from file:
     /home/kylay/scratch/BTO/pseuds/Ba.pbe-spn-kjpaw_psl.1.0.0.UPF
     MD5 check sum: 7cfe25f1fe7574a4710541d5a11d6531
     Pseudo is Projector augmented-wave + core cor, Zval = 10.0
     Generated using &quot;atomic&quot; code by A. Dal Corso  v.6.2.2
     Shape of augmentation charge: PSQ
     Using radial grid of 1251 points,  7 beta functions with: 
                l(1) =   0
                l(2) =   0
                l(3) =   0
                l(4) =   1
                l(5) =   1
                l(6) =   2
                l(7) =   2
     Q(r) pseudized with 0 coefficients 


     PseudoPot. # 2 for Ti read from file:
     /home/kylay/scratch/BTO/pseuds/Ti.pbe-spn-kjpaw_psl.1.0.0.UPF
     MD5 check sum: 01f69b0d8ba4438b2e03ac6ea4af1c0b
     Pseudo is Projector augmented-wave + core cor, Zval = 12.0
     Generated using &quot;atomic&quot; code by A. Dal Corso  v.6.2.2
     Shape of augmentation charge: PSQ
     Using radial grid of 1177 points,  6 beta functions with: 
                l(1) =   0
                l(2) =   0
                l(3) =   1
                l(4) =   1
                l(5) =   2
                l(6) =   2
     Q(r) pseudized with 0 coefficients 


     PseudoPot. # 3 for O  read from file:
     /home/kylay/scratch/BTO/pseuds/O.pbe-n-kjpaw_psl.1.0.0.UPF
     MD5 check sum: e99d9cef9b487d1ca56f5b95ecd0fd7a
     Pseudo is Projector augmented-wave + core cor, Zval =  6.0
     Generated using &quot;atomic&quot; code by A. Dal Corso  v.6.3
     Shape of augmentation charge: PSQ
     Using radial grid of 1095 points,  4 beta functions with: 
                l(1) =   0
                l(2) =   0
                l(3) =   1
                l(4) =   1
     Q(r) pseudized with 0 coefficients 


     atomic species   valence    mass     pseudopotential
     Ba               10.00   137.32700     Ba( 1.00)
     Ti               12.00    47.86700     Ti( 1.00)
     O                 6.00    15.99900     O ( 1.00)

      8 Sym. Ops. (no inversion) found



   Cartesian axes

     site n.     atom                  positions (alat units)
         1        Ba     tau(   1) = (   0.0000000   0.0000000  -0.0010787  )
         2        Ba     tau(   2) = (   0.0000000   0.0000000   0.5044220  )
         3        Ba     tau(   3) = (   0.0000000   0.5000000  -0.0010832  )
         4        Ba     tau(   4) = (   0.0000000   0.5000000   0.5044235  )
         5        Ba     tau(   5) = (   0.5000000   0.0000000  -0.0010832  )
         6        Ba     tau(   6) = (   0.5000000   0.0000000   0.5044235  )
         7        Ba     tau(   7) = (   0.5000000   0.5000000  -0.0010766  )
         8        Ba     tau(   8) = (   0.5000000   0.5000000   0.5044202  )
         9        Ti     tau(   9) = (   0.2500002   0.2500002   0.2436990  )
        10        Ti     tau(  10) = (   0.2500007   0.2500007   0.7492042  )
        11        Ti     tau(  11) = (   0.2500002   0.7499998   0.2436990  )
        12        Ti     tau(  12) = (   0.2500007   0.7499993   0.7492042  )
        13        Ti     tau(  13) = (   0.7499998   0.2500002   0.2436990  )
        14        Ti     tau(  14) = (   0.7499993   0.2500007   0.7492042  )
        15        Ti     tau(  15) = (   0.7499998   0.7499998   0.2436990  )
        16        Ti     tau(  16) = (   0.7499993   0.7499993   0.7492042  )
        17        O      tau(  17) = (   0.2500011   0.2500011   0.0113903  )
        18        O      tau(  18) = (   0.2500007   0.2500007   0.5168954  )
        19        O      tau(  19) = (   0.2500011   0.7499989   0.0113903  )
        20        O      tau(  20) = (   0.2500007   0.7499993   0.5168954  )
        21        O      tau(  21) = (   0.7499989   0.2500011   0.0113903  )
        22        O      tau(  22) = (   0.7499993   0.2500007   0.5168954  )
        23        O      tau(  23) = (   0.7499989   0.7499989   0.0113903  )
        24        O      tau(  24) = (   0.7499993   0.7499993   0.5168954  )
        25        O      tau(  25) = (   0.2500005   0.0000000   0.2592128  )
        26        O      tau(  26) = (   0.2500020   0.0000000   0.7647195  )
        27        O      tau(  27) = (   0.2499999   0.5000000   0.2592107  )
        28        O      tau(  28) = (   0.2499998   0.5000000   0.7647148  )
        29        O      tau(  29) = (   0.7499995   0.0000000   0.2592128  )
        30        O      tau(  30) = (   0.7499980   0.0000000   0.7647195  )
        31        O      tau(  31) = (   0.7500001   0.5000000   0.2592107  )
        32        O      tau(  32) = (   0.7500002   0.5000000   0.7647148  )
        33        O      tau(  33) = (   0.0000000   0.2500005   0.2592128  )
        34        O      tau(  34) = (   0.0000000   0.2500020   0.7647195  )
        35        O      tau(  35) = (   0.0000000   0.7499995   0.2592128  )
        36        O      tau(  36) = (   0.0000000   0.7499980   0.7647195  )
        37        O      tau(  37) = (   0.5000000   0.2499999   0.2592107  )
        38        O      tau(  38) = (   0.5000000   0.2499998   0.7647148  )
        39        O      tau(  39) = (   0.5000000   0.7500001   0.2592107  )
        40        O      tau(  40) = (   0.5000000   0.7500002   0.7647148  )

     number of k points=   126

     Number of k-points >= 100: set verbosity='high' to print them.

     Dense  grid:   469165 G-vectors     FFT dimensions: ( 100, 100, 100)

     Smooth grid:   165745 G-vectors     FFT dimensions: (  72,  72,  72)

     Estimated max dynamical RAM per process >      94.17 MB

     Estimated total dynamical RAM >      16.09 GB

     Check: negative core charge=   -0.000005

     The initial density is read from file :
     ./tmp/50_ecut_10_kmesh_PBE.save/charge-density

     Starting wfcs from file
     Checking if some PAW data can be deallocated... 

     total cpu time spent up to now is        7.8 secs

     per-process dynamical memory:   151.8 Mb

     Self-consistent Calculation

     iteration #  1     ecut=    50.00 Ry     beta= 0.30
     Davidson diagonalization with overlap
     ethr =  1.00E-05,  avg # of iterations =  1.0

     Threshold (ethr) on eigenvalues was too large:
     Diagonalizing with lowered threshold

     Davidson diagonalization with overlap
     ethr =  3.11E-12,  avg # of iterations =  4.4

     total cpu time spent up to now is       20.2 secs

     total energy              =   -5964.58031365 Ry
     estimated scf accuracy    <       0.00000001 Ry

     iteration #  2     ecut=    50.00 Ry     beta= 0.30
     Davidson diagonalization with overlap
     ethr =  3.91E-12,  avg # of iterations =  2.0

     total cpu time spent up to now is       26.2 secs

     total energy              =   -5964.58031365 Ry
     estimated scf accuracy    <          2.6E-09 Ry

     iteration #  3     ecut=    50.00 Ry     beta= 0.30
     Davidson diagonalization with overlap
     ethr =  8.19E-13,  avg # of iterations =  3.3

     total cpu time spent up to now is       33.3 secs

     total energy              =   -5964.58031365 Ry
     estimated scf accuracy    <          5.1E-10 Ry

     iteration #  4     ecut=    50.00 Ry     beta= 0.30
     Davidson diagonalization with overlap
     ethr =  1.60E-13,  avg # of iterations =  5.5

     total cpu time spent up to now is       42.5 secs

     total energy              =   -5964.58031365 Ry
     estimated scf accuracy    <          6.9E-10 Ry

     iteration #  5     ecut=    50.00 Ry     beta= 0.30
     Davidson diagonalization with overlap
     ethr =  1.60E-13,  avg # of iterations =  1.8

     total cpu time spent up to now is       48.3 secs

     total energy              =   -5964.58031365 Ry
     estimated scf accuracy    <          1.3E-09 Ry

     iteration #  6     ecut=    50.00 Ry     beta= 0.30
     Davidson diagonalization with overlap
     ethr =  1.60E-13,  avg # of iterations =  4.0

     total cpu time spent up to now is       56.2 secs

     total energy              =   -5964.58031365 Ry
     estimated scf accuracy    <          1.3E-10 Ry

     iteration #  7     ecut=    50.00 Ry     beta= 0.30
     Davidson diagonalization with overlap
     ethr =  1.00E-13,  avg # of iterations =  1.2

     total cpu time spent up to now is       61.7 secs

     End of self-consistent calculation

     Number of k-points >= 100: set verbosity='high' to print the bands.

     highest occupied, lowest unoccupied level (ev):    10.4089   12.2321

!    total energy              =   -5964.58031365 Ry
     total all-electron energy =   -147449.033886 Ry
     estimated scf accuracy    <          4.7E-11 Ry

     The total energy is the sum of the following terms:
     one-electron contribution =    -550.39683184 Ry
     hartree contribution      =     483.83934263 Ry
     xc contribution           =    -491.50769852 Ry
     ewald contribution        =   -1653.96634398 Ry
     one-center paw contrib.   =   -3752.54878194 Ry

     convergence has been achieved in   7 iterations

     Forces acting on atoms (cartesian axes, Ry/au):

     atom    1 type  1   force =     0.00000000    0.00000000   -0.00097118
     atom    2 type  1   force =     0.00000000    0.00000000   -0.00094157
     atom    3 type  1   force =     0.00000000    0.00000000   -0.00096110
     atom    4 type  1   force =     0.00000000    0.00000000   -0.00094710
     atom    5 type  1   force =     0.00000000    0.00000000   -0.00096110
     atom    6 type  1   force =     0.00000000    0.00000000   -0.00094710
     atom    7 type  1   force =     0.00000000    0.00000000   -0.00097525
     atom    8 type  1   force =     0.00000000    0.00000000   -0.00093902
     atom    9 type  2   force =    -0.00000081   -0.00000081    0.00034335
     atom   10 type  2   force =    -0.00000141   -0.00000141    0.00035192
     atom   11 type  2   force =    -0.00000081    0.00000081    0.00034335
     atom   12 type  2   force =    -0.00000141    0.00000141    0.00035192
     atom   13 type  2   force =     0.00000081   -0.00000081    0.00034335
     atom   14 type  2   force =     0.00000141   -0.00000141    0.00035192
     atom   15 type  2   force =     0.00000081    0.00000081    0.00034335
     atom   16 type  2   force =     0.00000141    0.00000141    0.00035192
     atom   17 type  3   force =    -0.00000143   -0.00000143   -0.00021503
     atom   18 type  3   force =    -0.00000237   -0.00000237   -0.00020642
     atom   19 type  3   force =    -0.00000143    0.00000143   -0.00021503
     atom   20 type  3   force =    -0.00000237    0.00000237   -0.00020642
     atom   21 type  3   force =     0.00000143   -0.00000143   -0.00021503
     atom   22 type  3   force =     0.00000237   -0.00000237   -0.00020642
     atom   23 type  3   force =     0.00000143    0.00000143   -0.00021503
     atom   24 type  3   force =     0.00000237    0.00000237   -0.00020642
     atom   25 type  3   force =    -0.00000186    0.00000000    0.00040361
     atom   26 type  3   force =    -0.00000555    0.00000000    0.00040794
     atom   27 type  3   force =     0.00000084    0.00000000    0.00040820
     atom   28 type  3   force =     0.00000311    0.00000000    0.00041728
     atom   29 type  3   force =     0.00000186    0.00000000    0.00040361
     atom   30 type  3   force =     0.00000555    0.00000000    0.00040794
     atom   31 type  3   force =    -0.00000084    0.00000000    0.00040820
     atom   32 type  3   force =    -0.00000311    0.00000000    0.00041728
     atom   33 type  3   force =     0.00000000   -0.00000186    0.00040361
     atom   34 type  3   force =     0.00000000   -0.00000555    0.00040794
     atom   35 type  3   force =     0.00000000    0.00000186    0.00040361
     atom   36 type  3   force =     0.00000000    0.00000555    0.00040794
     atom   37 type  3   force =    -0.00000000    0.00000084    0.00040820
     atom   38 type  3   force =     0.00000000    0.00000311    0.00041728
     atom   39 type  3   force =     0.00000000   -0.00000084    0.00040820
     atom   40 type  3   force =    -0.00000000   -0.00000311    0.00041728

     Total force =     0.003363     Total SCF correction =     0.000003


     Computing stress (Cartesian axis) and pressure

          total   stress  (Ry/bohr**3)                   (kbar)     P=       40.26
   0.00024329   0.00000000   0.00000000           35.79        0.00        0.00
   0.00000000   0.00024329   0.00000000            0.00       35.79        0.00
   0.00000000   0.00000000   0.00033450            0.00        0.00       49.21


     Writing all to output data dir ./tmp/50_ecut_10_kmesh_PBE.save/ :
     XML data file, charge density, pseudopotentials, collected wavefunctions

     init_run     :      2.62s CPU      6.53s WALL (       1 calls)
     electrons    :     52.09s CPU     53.95s WALL (       1 calls)
     forces       :      1.25s CPU      1.33s WALL (       1 calls)
     stress       :      3.63s CPU      3.80s WALL (       1 calls)

     Called by init_run:
     wfcinit      :      1.20s CPU      4.95s WALL (       1 calls)
     potinit      :      0.78s CPU      0.82s WALL (       1 calls)
     hinit0       :      0.40s CPU      0.48s WALL (       1 calls)

     Called by electrons:
     c_bands      :     46.16s CPU     47.79s WALL (       8 calls)
     sum_band     :      5.07s CPU      5.21s WALL (       8 calls)
     v_of_rho     :      0.18s CPU      0.20s WALL (       8 calls)
     newd         :      0.09s CPU      0.11s WALL (       8 calls)
     PAW_pot      :      0.35s CPU      0.36s WALL (       8 calls)
     mix_rho      :      0.02s CPU      0.02s WALL (       8 calls)

     Called by c_bands:
     init_us_2    :      0.92s CPU      0.93s WALL (     288 calls)
     cegterg      :     42.01s CPU     43.58s WALL (     128 calls)

     Called by *egterg:
     cdiaghg      :      8.48s CPU      9.01s WALL (     494 calls)
     h_psi        :     20.82s CPU     21.40s WALL (     526 calls)
     s_psi        :      3.07s CPU      3.12s WALL (     526 calls)
     g_psi        :      0.03s CPU      0.03s WALL (     398 calls)

     Called by h_psi:
     h_psi:calbec :      4.11s CPU      4.40s WALL (     526 calls)
     vloc_psi     :     13.45s CPU     13.65s WALL (     526 calls)
                                        0.00s GPU  (     526 calls)
     add_vuspsi   :      3.09s CPU      3.18s WALL (     526 calls)

     General routines
     calbec       :      9.16s CPU      9.75s WALL (     926 calls)
     fft          :      0.44s CPU      0.51s WALL (     128 calls)
     ffts         :      0.44s CPU      0.45s WALL (      16 calls)
     fftw         :     15.39s CPU     15.61s WALL (  142038 calls)
     interpolate  :      0.45s CPU      0.46s WALL (       8 calls)

     Parallel routines

     PWSCF        :     61.42s CPU     69.64s WALL


   This run was terminated on:   0:14:25  21May2026            

=------------------------------------------------------------------------------=
   JOB DONE.
=------------------------------------------------------------------------------=
