
     Program PWSCF v.7.5 starts on 21May2026 at  0:15:51 

     This program is part of the open-source Quantum ESPRESSO suite
     for quantum simulation of materials; please cite
         "P. Giannozzi et al., J. Phys.:Condens. Matter 21 395502 (2009);
         "P. Giannozzi et al., J. Phys.:Condens. Matter 29 465901 (2017);
         "P. Giannozzi et al., J. Chem. Phys. 152 154105 (2020);
          URL http://www.quantum-espresso.org", 
     in publications or presentations arising from this work. More details at
     http://www.quantum-espresso.org/quote

     Parallel version (MPI & OpenMP), running on     192 processor cores
     Number of MPI processes:               192
     Threads/MPI process:                     1

     MPI processes distributed on     1 nodes
     374340 MiB available memory on the printing compute node when the environment starts

     Waiting for input...
     Reading input from standard input

     Current dimensions of program PWSCF are:
     Max number of different atomic species (ntypx) = 10
     Max number of k-points (npk) =  40000
     Max angular momentum in pseudopotentials (lmaxx) =  4
     file Ba.pbe-spn-kjpaw_psl.1.0.0.UPF: wavefunction(s)  5S 6S renormalized
     file Ti.pbe-spn-kjpaw_psl.1.0.0.UPF: wavefunction(s)  3S 3P 3D renormalized
     file O.pbe-n-kjpaw_psl.1.0.0.UPF: wavefunction(s)  2S 2P renormalized

     IMPORTANT: XC functional enforced from input :
     Exchange-correlation= PBE
                           (   1   4   3   4   0   0   0)
     Any further DFT definition will be discarded
     Please, verify this is what you really want

     Found identity + ( -0.5000 -0.5000  0.0000) symmetry
     This is a supercell, fractional translations are disabled

     K-points division:     npool     =       8
     R & G space division:  proc/nbgrp/npool/nimage =      24
     Subspace diagonalization in iterative solution of the eigenvalue problem:
     one sub-group per band group will be used
     ELPA distributed-memory algorithm (size of sub-group:  2*  2 procs)


     Parallelization info
     --------------------
     sticks:   dense  smooth     PW     G-vecs:    dense   smooth      PW
     Min         482     240     65                39550    13981    1967
     Max         485     242     66                39552    13987    1972
     Sum       11585    5785   1565               949235   335575   47241

     Using Slab Decomposition



     bravais-lattice index     =            6
     lattice parameter (alat)  =      15.0876  a.u.
     unit-cell volume          =    3472.3239 (a.u.)^3
     number of atoms/cell      =           40
     number of atomic types    =            3
     number of electrons       =       320.00
     number of Kohn-Sham states=          200
     kinetic-energy cutoff     =      80.0000  Ry
     charge density cutoff     =     640.0000  Ry
     scf convergence threshold =      1.0E-10
     mixing beta               =       0.3000
     number of iterations used =           16  plain     mixing
     Exchange-correlation= PBE
                           (   1   4   3   4   0   0   0)

     celldm(1)=  15.087600  celldm(2)=   0.000000  celldm(3)=   1.011020
     celldm(4)=   0.000000  celldm(5)=   0.000000  celldm(6)=   0.000000

     crystal axes: (cart. coord. in units of alat)
               a(1) = (   1.000000   0.000000   0.000000 )  
               a(2) = (   0.000000   1.000000   0.000000 )  
               a(3) = (   0.000000   0.000000   1.011020 )  

     reciprocal axes: (cart. coord. in units 2 pi/alat)
               b(1) = (  1.000000  0.000000  0.000000 )  
               b(2) = (  0.000000  1.000000  0.000000 )  
               b(3) = (  0.000000  0.000000  0.989100 )  


     PseudoPot. # 1 for Ba read from file:
     /home/kylay/scratch/BTO/pseuds/Ba.pbe-spn-kjpaw_psl.1.0.0.UPF
     MD5 check sum: 7cfe25f1fe7574a4710541d5a11d6531
     Pseudo is Projector augmented-wave + core cor, Zval = 10.0
     Generated using &quot;atomic&quot; code by A. Dal Corso  v.6.2.2
     Shape of augmentation charge: PSQ
     Using radial grid of 1251 points,  7 beta functions with: 
                l(1) =   0
                l(2) =   0
                l(3) =   0
                l(4) =   1
                l(5) =   1
                l(6) =   2
                l(7) =   2
     Q(r) pseudized with 0 coefficients 


     PseudoPot. # 2 for Ti read from file:
     /home/kylay/scratch/BTO/pseuds/Ti.pbe-spn-kjpaw_psl.1.0.0.UPF
     MD5 check sum: 01f69b0d8ba4438b2e03ac6ea4af1c0b
     Pseudo is Projector augmented-wave + core cor, Zval = 12.0
     Generated using &quot;atomic&quot; code by A. Dal Corso  v.6.2.2
     Shape of augmentation charge: PSQ
     Using radial grid of 1177 points,  6 beta functions with: 
                l(1) =   0
                l(2) =   0
                l(3) =   1
                l(4) =   1
                l(5) =   2
                l(6) =   2
     Q(r) pseudized with 0 coefficients 


     PseudoPot. # 3 for O  read from file:
     /home/kylay/scratch/BTO/pseuds/O.pbe-n-kjpaw_psl.1.0.0.UPF
     MD5 check sum: e99d9cef9b487d1ca56f5b95ecd0fd7a
     Pseudo is Projector augmented-wave + core cor, Zval =  6.0
     Generated using &quot;atomic&quot; code by A. Dal Corso  v.6.3
     Shape of augmentation charge: PSQ
     Using radial grid of 1095 points,  4 beta functions with: 
                l(1) =   0
                l(2) =   0
                l(3) =   1
                l(4) =   1
     Q(r) pseudized with 0 coefficients 


     atomic species   valence    mass     pseudopotential
     Ba               10.00   137.32700     Ba( 1.00)
     Ti               12.00    47.86700     Ti( 1.00)
     O                 6.00    15.99900     O ( 1.00)

      8 Sym. Ops. (no inversion) found



   Cartesian axes

     site n.     atom                  positions (alat units)
         1        Ba     tau(   1) = (   0.0000000   0.0000000  -0.0010787  )
         2        Ba     tau(   2) = (   0.0000000   0.0000000   0.5044220  )
         3        Ba     tau(   3) = (   0.0000000   0.5000000  -0.0010832  )
         4        Ba     tau(   4) = (   0.0000000   0.5000000   0.5044235  )
         5        Ba     tau(   5) = (   0.5000000   0.0000000  -0.0010832  )
         6        Ba     tau(   6) = (   0.5000000   0.0000000   0.5044235  )
         7        Ba     tau(   7) = (   0.5000000   0.5000000  -0.0010766  )
         8        Ba     tau(   8) = (   0.5000000   0.5000000   0.5044202  )
         9        Ti     tau(   9) = (   0.2500002   0.2500002   0.2436990  )
        10        Ti     tau(  10) = (   0.2500007   0.2500007   0.7492042  )
        11        Ti     tau(  11) = (   0.2500002   0.7499998   0.2436990  )
        12        Ti     tau(  12) = (   0.2500007   0.7499993   0.7492042  )
        13        Ti     tau(  13) = (   0.7499998   0.2500002   0.2436990  )
        14        Ti     tau(  14) = (   0.7499993   0.2500007   0.7492042  )
        15        Ti     tau(  15) = (   0.7499998   0.7499998   0.2436990  )
        16        Ti     tau(  16) = (   0.7499993   0.7499993   0.7492042  )
        17        O      tau(  17) = (   0.2500011   0.2500011   0.0113903  )
        18        O      tau(  18) = (   0.2500007   0.2500007   0.5168954  )
        19        O      tau(  19) = (   0.2500011   0.7499989   0.0113903  )
        20        O      tau(  20) = (   0.2500007   0.7499993   0.5168954  )
        21        O      tau(  21) = (   0.7499989   0.2500011   0.0113903  )
        22        O      tau(  22) = (   0.7499993   0.2500007   0.5168954  )
        23        O      tau(  23) = (   0.7499989   0.7499989   0.0113903  )
        24        O      tau(  24) = (   0.7499993   0.7499993   0.5168954  )
        25        O      tau(  25) = (   0.2500005   0.0000000   0.2592128  )
        26        O      tau(  26) = (   0.2500020   0.0000000   0.7647195  )
        27        O      tau(  27) = (   0.2499999   0.5000000   0.2592107  )
        28        O      tau(  28) = (   0.2499998   0.5000000   0.7647148  )
        29        O      tau(  29) = (   0.7499995   0.0000000   0.2592128  )
        30        O      tau(  30) = (   0.7499980   0.0000000   0.7647195  )
        31        O      tau(  31) = (   0.7500001   0.5000000   0.2592107  )
        32        O      tau(  32) = (   0.7500002   0.5000000   0.7647148  )
        33        O      tau(  33) = (   0.0000000   0.2500005   0.2592128  )
        34        O      tau(  34) = (   0.0000000   0.2500020   0.7647195  )
        35        O      tau(  35) = (   0.0000000   0.7499995   0.2592128  )
        36        O      tau(  36) = (   0.0000000   0.7499980   0.7647195  )
        37        O      tau(  37) = (   0.5000000   0.2499999   0.2592107  )
        38        O      tau(  38) = (   0.5000000   0.2499998   0.7647148  )
        39        O      tau(  39) = (   0.5000000   0.7500001   0.2592107  )
        40        O      tau(  40) = (   0.5000000   0.7500002   0.7647148  )

     number of k points=    40
                       cart. coord. in units 2pi/alat
        k(    1) = (   0.0000000   0.0000000   0.0000000), wk =   0.0092593
        k(    2) = (   0.0000000   0.0000000   0.1648500), wk =   0.0185185
        k(    3) = (   0.0000000   0.0000000   0.3297000), wk =   0.0185185
        k(    4) = (   0.0000000   0.0000000  -0.4945501), wk =   0.0092593
        k(    5) = (   0.0000000   0.1666667   0.0000000), wk =   0.0370370
        k(    6) = (   0.0000000   0.1666667   0.1648500), wk =   0.0740741
        k(    7) = (   0.0000000   0.1666667   0.3297000), wk =   0.0740741
        k(    8) = (   0.0000000   0.1666667  -0.4945501), wk =   0.0370370
        k(    9) = (   0.0000000   0.3333333   0.0000000), wk =   0.0370370
        k(   10) = (   0.0000000   0.3333333   0.1648500), wk =   0.0740741
        k(   11) = (   0.0000000   0.3333333   0.3297000), wk =   0.0740741
        k(   12) = (   0.0000000   0.3333333  -0.4945501), wk =   0.0370370
        k(   13) = (   0.0000000  -0.5000000   0.0000000), wk =   0.0185185
        k(   14) = (   0.0000000  -0.5000000   0.1648500), wk =   0.0370370
        k(   15) = (   0.0000000  -0.5000000   0.3297000), wk =   0.0370370
        k(   16) = (   0.0000000  -0.5000000  -0.4945501), wk =   0.0185185
        k(   17) = (   0.1666667   0.1666667   0.0000000), wk =   0.0370370
        k(   18) = (   0.1666667   0.1666667   0.1648500), wk =   0.0740741
        k(   19) = (   0.1666667   0.1666667   0.3297000), wk =   0.0740741
        k(   20) = (   0.1666667   0.1666667  -0.4945501), wk =   0.0370370
        k(   21) = (   0.1666667   0.3333333   0.0000000), wk =   0.0740741
        k(   22) = (   0.1666667   0.3333333   0.1648500), wk =   0.1481481
        k(   23) = (   0.1666667   0.3333333   0.3297000), wk =   0.1481481
        k(   24) = (   0.1666667   0.3333333  -0.4945501), wk =   0.0740741
        k(   25) = (   0.1666667  -0.5000000   0.0000000), wk =   0.0370370
        k(   26) = (   0.1666667  -0.5000000   0.1648500), wk =   0.0740741
        k(   27) = (   0.1666667  -0.5000000   0.3297000), wk =   0.0740741
        k(   28) = (   0.1666667  -0.5000000  -0.4945501), wk =   0.0370370
        k(   29) = (   0.3333333   0.3333333   0.0000000), wk =   0.0370370
        k(   30) = (   0.3333333   0.3333333   0.1648500), wk =   0.0740741
        k(   31) = (   0.3333333   0.3333333   0.3297000), wk =   0.0740741
        k(   32) = (   0.3333333   0.3333333  -0.4945501), wk =   0.0370370
        k(   33) = (   0.3333333  -0.5000000   0.0000000), wk =   0.0370370
        k(   34) = (   0.3333333  -0.5000000   0.1648500), wk =   0.0740741
        k(   35) = (   0.3333333  -0.5000000   0.3297000), wk =   0.0740741
        k(   36) = (   0.3333333  -0.5000000  -0.4945501), wk =   0.0370370
        k(   37) = (  -0.5000000  -0.5000000   0.0000000), wk =   0.0092593
        k(   38) = (  -0.5000000  -0.5000000   0.1648500), wk =   0.0185185
        k(   39) = (  -0.5000000  -0.5000000   0.3297000), wk =   0.0185185
        k(   40) = (  -0.5000000  -0.5000000  -0.4945501), wk =   0.0092593

     Dense  grid:   949235 G-vectors     FFT dimensions: ( 125, 125, 125)

     Smooth grid:   335575 G-vectors     FFT dimensions: (  90,  90,  90)

     Estimated max dynamical RAM per process >     123.23 MB

     Estimated total dynamical RAM >      19.94 GB

     The initial density is read from file :
     ./tmp/80_ecut_6_kmesh_PBE.save/charge-density

     Starting wfcs from file
     Checking if some PAW data can be deallocated... 

     total cpu time spent up to now is        4.9 secs

     per-process dynamical memory:   154.2 Mb

     Self-consistent Calculation

     iteration #  1     ecut=    80.00 Ry     beta= 0.30
     Davidson diagonalization with overlap
     ethr =  1.00E-05,  avg # of iterations =  1.5

     Threshold (ethr) on eigenvalues was too large:
     Diagonalizing with lowered threshold

     Davidson diagonalization with overlap
     ethr =  1.47E-11,  avg # of iterations =  2.0

     total cpu time spent up to now is       11.7 secs

     total energy              =   -5964.63493855 Ry
     estimated scf accuracy    <       0.00000005 Ry

     iteration #  2     ecut=    80.00 Ry     beta= 0.30
     Davidson diagonalization with overlap
     ethr =  1.64E-11,  avg # of iterations =  2.4

     total cpu time spent up to now is       15.3 secs

     total energy              =   -5964.63493856 Ry
     estimated scf accuracy    <          9.4E-09 Ry

     iteration #  3     ecut=    80.00 Ry     beta= 0.30
     Davidson diagonalization with overlap
     ethr =  2.95E-12,  avg # of iterations =  2.1

     total cpu time spent up to now is       18.8 secs

     total energy              =   -5964.63493857 Ry
     estimated scf accuracy    <          6.5E-10 Ry

     iteration #  4     ecut=    80.00 Ry     beta= 0.30
     Davidson diagonalization with overlap
     ethr =  2.03E-13,  avg # of iterations =  6.5

     total cpu time spent up to now is       24.4 secs

     total energy              =   -5964.63493857 Ry
     estimated scf accuracy    <          1.8E-10 Ry

     iteration #  5     ecut=    80.00 Ry     beta= 0.30
     Davidson diagonalization with overlap
     ethr =  1.00E-13,  avg # of iterations =  2.0

     total cpu time spent up to now is       28.0 secs

     total energy              =   -5964.63493857 Ry
     estimated scf accuracy    <          1.2E-10 Ry

     iteration #  6     ecut=    80.00 Ry     beta= 0.30
     Davidson diagonalization with overlap
     ethr =  1.00E-13,  avg # of iterations =  1.9

     total cpu time spent up to now is       31.4 secs

     total energy              =   -5964.63493857 Ry
     estimated scf accuracy    <          2.9E-10 Ry

     iteration #  7     ecut=    80.00 Ry     beta= 0.30
     Davidson diagonalization with overlap
     ethr =  1.00E-13,  avg # of iterations =  4.2

     total cpu time spent up to now is       36.5 secs

     total energy              =   -5964.63493857 Ry
     estimated scf accuracy    <          2.5E-10 Ry

     iteration #  8     ecut=    80.00 Ry     beta= 0.30
     Davidson diagonalization with overlap
     ethr =  1.00E-13,  avg # of iterations =  1.0

     total cpu time spent up to now is       39.5 secs

     End of self-consistent calculation

          k = 0.0000 0.0000 0.0000 ( 42051 PWs)   bands (ev):

   -46.1071 -46.1062 -46.1061 -46.1061 -46.1052 -46.1052 -46.1050 -46.1042
   -22.4422 -22.4387 -22.4387 -22.4360 -22.3940 -22.3918 -22.3918 -22.3897
   -22.3880 -22.3880 -22.3847 -22.3847 -22.3845 -22.3845 -22.3821 -22.3821
   -22.3338 -22.3338 -22.3320 -22.3320 -22.3317 -22.3317 -22.3300 -22.3300
   -14.4582 -14.3466 -14.3372 -14.3371 -14.2677 -14.2677 -14.2597 -14.1993
    -6.7735  -6.7735  -6.7212  -6.5307  -6.2524  -6.1394  -6.1394  -5.9049
    -5.9049  -5.9041  -5.8435  -5.8435  -5.8096  -5.7775  -5.7456  -5.7456
    -5.7426  -5.7426  -5.7341  -5.6682  -5.5748  -5.5748  -5.5132  -5.5132
    -0.3543  -0.3543  -0.2921   0.2988   0.2988   0.3149   0.3149   0.3648
     0.3705   0.3705   0.3743   0.3743   0.5275   0.5275   0.5323   0.5324
     0.5492   0.5492   0.7380   0.7422   0.7422   0.7625   0.7625   0.8063
     5.9194   6.0770   6.1022   6.1022   6.2944   6.2944   6.3336   6.3490
     6.4059   6.4059   6.5583   6.5583   6.5588   6.5801   6.5958   7.5252
     7.5252   7.5767   7.5767   7.6241   7.6241   7.6250   7.6250   7.6383
     7.6383   7.7375   7.7375   7.9229   7.9229   7.9525   8.0507   8.0854
     8.0854   8.0904   8.0904   8.3846   8.3846   8.4537   8.4572   8.4695
     8.4695   8.5500   8.5500   8.6149   8.6904   8.6904   8.7146   8.7146
     9.0492   9.0492   9.2279   9.3428   9.3428   9.3757   9.3757   9.4725
     9.4725   9.4813   9.4813   9.4995   9.4996   9.7141   9.7141   9.9943
    10.0591  10.0591  10.1756  10.1756  10.2458  10.2458  10.3372  10.4077
    12.2289  12.3751  12.5471  12.5471  12.6636  12.6636  13.9441  13.9441
    13.9726  13.9726  14.0001  14.0001  14.0062  14.0062  14.0208  14.0208
    14.0227  14.0227  14.3639  14.3639  14.3928  14.4623  14.4628  14.5492
    14.5492  14.6096  14.6096  14.6146  14.6174  15.0984  15.2985  15.2985
    15.3435  15.4899  16.2945  16.2945  16.4903  16.8974  17.1086  17.1086

          k = 0.0000 0.0000 0.1649 ( 42003 PWs)   bands (ev):

   -46.1071 -46.1063 -46.1060 -46.1060 -46.1052 -46.1052 -46.1050 -46.1042
   -22.4390 -22.4355 -22.4355 -22.4329 -22.3973 -22.3950 -22.3950 -22.3929
   -22.3877 -22.3877 -22.3850 -22.3850 -22.3843 -22.3843 -22.3823 -22.3823
   -22.3337 -22.3337 -22.3321 -22.3321 -22.3316 -22.3316 -22.3301 -22.3301
   -14.4509 -14.3542 -14.3326 -14.3326 -14.2724 -14.2724 -14.2557 -14.2034
    -6.7403  -6.7403  -6.6993  -6.5286  -6.2198  -6.2078  -6.2078  -5.9063
    -5.8765  -5.8765  -5.8398  -5.8398  -5.8075  -5.7796  -5.7712  -5.7320
    -5.7320  -5.7299  -5.7299  -5.6963  -5.5868  -5.5868  -5.5286  -5.5285
    -0.3127  -0.3127  -0.2344   0.2523   0.2523   0.3421   0.3421   0.3788
     0.3788   0.3842   0.3842   0.3949   0.5168   0.5168   0.5187   0.5187
     0.5615   0.5615   0.6534   0.7286   0.7286   0.7298   0.7298   0.7771
     5.9637   6.0784   6.1582   6.1582   6.3656   6.3656   6.3936   6.3936
     6.4410   6.4714   6.5811   6.5948   6.6150   6.6150   6.6368   7.5299
     7.5299   7.5743   7.5743   7.6030   7.6030   7.6652   7.6652   7.6735
     7.6735   7.7867   7.7868   7.7887   7.7887   7.8560   7.9167   7.9167
     7.9279   8.0658   8.0658   8.4083   8.4083   8.4224   8.4916   8.4916
     8.4980   8.5337   8.5344   8.5344   8.7232   8.7232   8.9742   8.9742
     9.0109   9.0109   9.1661   9.2838   9.2838   9.3767   9.3767   9.4120
     9.4120   9.4241   9.4241   9.4314   9.4314   9.7347   9.7347   9.8422
    10.0348  10.0348  10.1369  10.1369  10.1658  10.1658  10.3418  10.4029
    12.2383  12.3649  12.6595  12.6595  12.7650  12.7650  13.9167  13.9167
    13.9353  13.9353  13.9463  13.9463  13.9709  13.9709  14.0049  14.0049
    14.0578  14.0578  14.3195  14.3195  14.4072  14.4621  14.4622  14.5624
    14.5624  14.6017  14.6817  14.6817  14.7951  15.2893  15.2893  15.3116
    15.4744  15.6202  16.3757  16.3757  16.3968  16.8906  17.1955  17.2776

          k = 0.0000 0.0000 0.3297 ( 41916 PWs)   bands (ev):

   -46.1069 -46.1064 -46.1058 -46.1058 -46.1054 -46.1054 -46.1048 -46.1044
   -22.4302 -22.4270 -22.4270 -22.4245 -22.4061 -22.4036 -22.4036 -22.4014
   -22.3871 -22.3871 -22.3855 -22.3855 -22.3839 -22.3839 -22.3827 -22.3827
   -22.3334 -22.3334 -22.3324 -22.3324 -22.3313 -22.3313 -22.3304 -22.3304
   -14.4308 -14.3750 -14.3200 -14.3200 -14.2853 -14.2853 -14.2448 -14.2145
    -6.6464  -6.6464  -6.6428  -6.5369  -6.3504  -6.3504  -6.1294  -5.8959
    -5.8707  -5.8416  -5.8416  -5.8319  -5.8319  -5.8016  -5.7856  -5.7674
    -5.7027  -5.7027  -5.6870  -5.6870  -5.6189  -5.6189  -5.5707  -5.5707
    -0.1979  -0.1979  -0.0704   0.1276   0.1276   0.4031   0.4032   0.4113
     0.4113   0.4185   0.4185   0.4374   0.4766   0.4836   0.4836   0.4878
     0.4878   0.5954   0.5954   0.6424   0.6424   0.6918   0.6918   0.6970
     6.0359   6.0797   6.2557   6.2557   6.3627   6.3627   6.5737   6.5737
     6.5840   6.5919   6.7396   6.7914   6.8261   6.8261   6.9112   7.3230
     7.3230   7.4729   7.4729   7.5418   7.5418   7.5671   7.5671   7.5863
     7.5979   7.7563   7.7563   7.7704   7.7704   7.8926   7.8926   7.9305
     7.9305   7.9465   8.0042   8.0042   8.3355   8.3355   8.4826   8.4826
     8.6235   8.7268   8.7268   8.7534   8.7988   8.7988   8.8189   8.8189
     9.0066   9.1379   9.1379   9.2118   9.2118   9.2448   9.2448   9.3053
     9.3053   9.4314   9.4314   9.4856   9.5274   9.5274   9.7932   9.7932
     9.9632   9.9632   9.9677   9.9677  10.0103  10.0103  10.3546  10.3898
    12.2642  12.3373  12.9501  12.9501  13.0300  13.0300  13.6691  13.6691
    13.7001  13.7001  13.9519  13.9519  13.9661  13.9661  14.0322  14.0322
    14.1555  14.1555  14.2131  14.2131  14.4431  14.4431  14.4471  14.4612
    14.4616  14.5594  14.9470  14.9470  15.2253  15.2505  15.2505  15.8295
    15.8356  15.9901  16.1265  16.6409  16.6409  16.7917  16.8150  17.1616

          k = 0.0000 0.0000-0.4946 ( 41964 PWs)   bands (ev):

   -46.1067 -46.1067 -46.1056 -46.1056 -46.1056 -46.1056 -46.1046 -46.1046
   -22.4182 -22.4182 -22.4153 -22.4153 -22.4153 -22.4153 -22.4130 -22.4130
   -22.3864 -22.3864 -22.3863 -22.3863 -22.3833 -22.3833 -22.3833 -22.3833
   -22.3329 -22.3329 -22.3329 -22.3329 -22.3309 -22.3309 -22.3308 -22.3308
   -14.4031 -14.4031 -14.3028 -14.3028 -14.3027 -14.3027 -14.2297 -14.2296
    -6.5780  -6.5779  -6.5081  -6.5081  -6.5079  -6.5079  -6.0024  -6.0023
    -5.8467  -5.8466  -5.8287  -5.8287  -5.8287  -5.8287  -5.7937  -5.7936
    -5.6616  -5.6616  -5.6614  -5.6614  -5.6287  -5.6287  -5.6286  -5.6286
    -0.0377  -0.0377  -0.0376  -0.0376   0.1708   0.1710   0.4406   0.4407
     0.4407   0.4408   0.4491   0.4491   0.4491   0.4491   0.5277   0.5277
     0.5278   0.5278   0.5872   0.5873   0.6429   0.6429   0.6429   0.6429
     6.0716   6.0717   6.3198   6.3198   6.3199   6.3199   6.5879   6.5880
     6.9020   6.9020   6.9022   6.9022   7.1607   7.1608   7.1704   7.1704
     7.1705   7.1705   7.2009   7.2010   7.3850   7.3852   7.5555   7.5555
     7.5557   7.5557   7.8392   7.8392   7.8392   7.8392   7.8990   7.8990
     7.8991   7.8991   8.1293   8.1293   8.1295   8.1295   8.6156   8.6156
     8.6157   8.6157   8.8066   8.8068   8.9664   8.9664   8.9664   8.9664
     8.9875   8.9876   8.9876   8.9876   9.0884   9.0884   9.1951   9.1951
     9.1952   9.1952   9.7236   9.7236   9.7236   9.7236   9.7763   9.7764
     9.7764   9.7764   9.8779   9.8779   9.8780   9.8780  10.3720  10.3722
    12.3003  12.3004  13.3197  13.3197  13.3198  13.3198  13.3720  13.3720
    13.3721  13.3721  13.9592  13.9592  13.9592  13.9592  14.1029  14.1029
    14.1029  14.1030  14.2943  14.2943  14.2944  14.2944  14.4611  14.4612
    14.5026  14.5027  15.1498  15.1498  15.1498  15.1498  15.7128  15.7129
    16.3161  16.3163  16.4193  16.4195  16.5392  16.5394  17.0751  17.0751

          k = 0.0000 0.1667 0.0000 ( 42013 PWs)   bands (ev):

   -46.1070 -46.1062 -46.1061 -46.1060 -46.1053 -46.1051 -46.1051 -46.1042
   -22.4420 -22.4389 -22.4385 -22.4362 -22.3939 -22.3920 -22.3917 -22.3899
   -22.3877 -22.3847 -22.3846 -22.3843 -22.3823 -22.3812 -22.3810 -22.3787
   -22.3375 -22.3355 -22.3353 -22.3337 -22.3335 -22.3319 -22.3318 -22.3301
   -14.4503 -14.3455 -14.3414 -14.3321 -14.2731 -14.2650 -14.2632 -14.2039
    -6.7501  -6.7421  -6.6878  -6.5346  -6.2926  -6.1889  -6.1043  -5.8990
    -5.8940  -5.8899  -5.8461  -5.8350  -5.8065  -5.7713  -5.7466  -5.7458
    -5.7379  -5.7349  -5.7269  -5.6838  -5.6150  -5.5870  -5.5451  -5.5282
    -0.3119  -0.2989  -0.2442   0.2671   0.3117   0.3223   0.3261   0.3267
     0.3754   0.3855   0.3967   0.4011   0.5098   0.5201   0.5205   0.5369
     0.5410   0.5539   0.6525   0.7239   0.7269   0.7284   0.7371   0.7743
     5.9673   6.1023   6.1351   6.1537   6.3234   6.3410   6.3913   6.4207
     6.4222   6.5123   6.5586   6.5654   6.6374   6.6489   6.6641   7.5614
     7.5634   7.5733   7.5759   7.6224   7.6293   7.6346   7.6359   7.6628
     7.6892   7.7334   7.7663   7.8240   7.9153   7.9196   7.9200   7.9513
     7.9616   8.0397   8.0672   8.1433   8.1677   8.3247   8.4998   8.5256
     8.5278   8.5612   8.6527   8.6820   8.7453   8.7506   8.9395   8.9410
     8.9867   9.0561   9.1123   9.1918   9.3129   9.3381   9.3794   9.4021
     9.4638   9.5101   9.5158   9.5412   9.5467   9.5893   9.6184   9.8267
     9.9848  10.0588  10.1356  10.1739  10.1802  10.2396  10.2945  10.3297
    12.3746  12.5075  12.5573  12.6057  12.6542  12.7165  13.8469  13.8781
    13.8893  13.9117  13.9527  13.9853  14.0024  14.0069  14.0099  14.0197
    14.0208  14.0381  14.3112  14.3414  14.3804  14.5534  14.5554  14.5562
    14.5615  14.5950  14.6181  14.6864  14.7336  15.1133  15.2870  15.4804
    15.5212  15.6244  16.2239  16.3935  16.5735  16.9570  17.2103  17.3117

          k = 0.0000 0.1667 0.1649 ( 41983 PWs)   bands (ev):

   -46.1070 -46.1062 -46.1061 -46.1059 -46.1053 -46.1052 -46.1050 -46.1043
   -22.4388 -22.4358 -22.4354 -22.4331 -22.3971 -22.3951 -22.3948 -22.3930
   -22.3875 -22.3848 -22.3845 -22.3841 -22.3825 -22.3814 -22.3808 -22.3788
   -22.3374 -22.3357 -22.3352 -22.3336 -22.3336 -22.3320 -22.3318 -22.3302
   -14.4431 -14.3489 -14.3407 -14.3275 -14.2780 -14.2679 -14.2610 -14.2081
    -6.7183  -6.7088  -6.6675  -6.5297  -6.2599  -6.2378  -6.1747  -5.9027
    -5.8780  -5.8639  -5.8431  -5.8310  -5.8042  -5.7915  -5.7739  -5.7359
    -5.7242  -5.7207  -5.7179  -5.7111  -5.6185  -5.5968  -5.5596  -5.5417
    -0.2830  -0.2714  -0.1662   0.2608   0.2811   0.2952   0.3245   0.3359
     0.3686   0.3955   0.4186   0.4424   0.4727   0.4969   0.5034   0.5301
     0.5489   0.5923   0.6536   0.6549   0.6947   0.7135   0.7142   0.7538
     6.0160   6.1364   6.1583   6.2171   6.3800   6.4129   6.4292   6.4780
     6.4982   6.5298   6.6153   6.6214   6.6384   6.6787   6.6971   7.5498
     7.5629   7.5778   7.6042   7.6183   7.6201   7.6326   7.6630   7.6692
     7.7142   7.7186   7.7547   7.7849   7.8097   7.8645   7.8676   7.9140
     7.9276   7.9792   7.9908   8.0499   8.1109   8.3475   8.4658   8.5007
     8.5317   8.5779   8.5907   8.7776   8.8253   8.9124   8.9325   8.9623
     9.0144   9.0357   9.0810   9.1949   9.3017   9.3226   9.3586   9.3712
     9.4289   9.4573   9.4622   9.4634   9.4842   9.6181   9.6399   9.7235
     9.9581   9.9975  10.0961  10.1034  10.1388  10.1577  10.2972  10.3341
    12.3831  12.4981  12.6687  12.7036  12.7562  12.8150  13.8493  13.8731
    13.8963  13.8970  13.9178  13.9367  13.9522  13.9535  13.9573  14.0064
    14.0094  14.0542  14.2609  14.3357  14.3556  14.5047  14.5390  14.5548
    14.5919  14.6176  14.6867  14.8330  14.8773  15.2778  15.3256  15.5144
    15.6054  15.7528  16.3045  16.4587  16.4792  16.9799  17.2700  17.3297

          k = 0.0000 0.1667 0.3297 ( 41980 PWs)   bands (ev):

   -46.1068 -46.1064 -46.1059 -46.1058 -46.1055 -46.1053 -46.1049 -46.1044
   -22.4300 -22.4272 -22.4268 -22.4247 -22.4060 -22.4038 -22.4034 -22.4015
   -22.3869 -22.3854 -22.3841 -22.3836 -22.3829 -22.3820 -22.3804 -22.3792
   -22.3370 -22.3360 -22.3348 -22.3339 -22.3332 -22.3323 -22.3314 -22.3306
   -14.4236 -14.3691 -14.3276 -14.3151 -14.2914 -14.2806 -14.2499 -14.2193
    -6.6287  -6.6161  -6.6148  -6.5297  -6.3563  -6.3185  -6.1687  -5.9016
    -5.8973  -5.8543  -5.8375  -5.8292  -5.8222  -5.7978  -5.7862  -5.7740
    -5.7088  -5.6931  -5.6917  -5.6822  -5.6380  -5.6232  -5.5982  -5.5788
    -0.1947  -0.1595   0.0089   0.1266   0.1590   0.3360   0.3645   0.3741
     0.3840   0.4129   0.4230   0.4601   0.4628   0.4709   0.4796   0.5007
     0.5211   0.5824   0.6047   0.6293   0.6512   0.6572   0.6773   0.6961
     6.0940   6.1379   6.2534   6.3327   6.3519   6.4624   6.6251   6.6413
     6.6476   6.6497   6.7223   6.8129   6.8283   6.8847   6.9107   7.3048
     7.3482   7.4637   7.5226   7.5374   7.5566   7.5669   7.5891   7.5941
     7.6133   7.6858   7.6914   7.7732   7.7859   7.8957   7.9050   7.9111
     7.9213   7.9278   7.9948   8.0396   8.1117   8.1395   8.3399   8.4203
     8.5998   8.6195   8.7278   8.7372   8.7533   8.8717   8.8733   9.0334
     9.0379   9.1204   9.1231   9.1820   9.1915   9.3070   9.3351   9.3489
     9.3791   9.4142   9.4413   9.4788   9.4966   9.4979   9.6957   9.7012
     9.8856   9.8989   9.9030   9.9590   9.9952  10.0049  10.3051  10.3288
    12.4065  12.4730  12.9569  12.9655  13.0226  13.0716  13.6517  13.6713
    13.6943  13.7224  13.8558  13.8737  13.9317  13.9688  13.9968  14.0416
    14.0617  14.1405  14.1476  14.2285  14.3759  14.3948  14.4268  14.5064
    14.6094  14.6162  14.9469  15.1349  15.2400  15.2962  15.4779  15.8520
    15.9440  16.1195  16.2063  16.5691  16.6841  16.8686  16.8936  17.2879

          k = 0.0000 0.1667-0.4946 ( 41958 PWs)   bands (ev):

   -46.1066 -46.1066 -46.1057 -46.1057 -46.1056 -46.1056 -46.1047 -46.1047
   -22.4180 -22.4180 -22.4155 -22.4155 -22.4152 -22.4152 -22.4131 -22.4131
   -22.3861 -22.3861 -22.3835 -22.3835 -22.3828 -22.3828 -22.3798 -22.3798
   -22.3365 -22.3365 -22.3344 -22.3344 -22.3328 -22.3328 -22.3310 -22.3310
   -14.3966 -14.3965 -14.3097 -14.3096 -14.2980 -14.2979 -14.2347 -14.2346
    -6.5600  -6.5598  -6.4989  -6.4988  -6.4764  -6.4763  -6.0393  -6.0391
    -5.8551  -5.8550  -5.8386  -5.8386  -5.8176  -5.8175  -5.7886  -5.7885
    -5.6723  -5.6721  -5.6586  -5.6585  -5.6474  -5.6473  -5.6302  -5.6301
    -0.0436  -0.0436  -0.0028  -0.0027   0.2363   0.2364   0.3649   0.3649
     0.4086   0.4087   0.4200   0.4200   0.4614   0.4614   0.4866   0.4867
     0.5649   0.5649   0.6125   0.6126   0.6291   0.6292   0.6506   0.6507
     6.1305   6.1306   6.3132   6.3133   6.4113   6.4114   6.6451   6.6452
     6.9313   6.9314   6.9508   6.9509   7.1334   7.1336   7.1754   7.1756
     7.1782   7.1782   7.2166   7.2168   7.3581   7.3583   7.5740   7.5741
     7.6022   7.6023   7.8007   7.8008   7.8516   7.8517   7.8856   7.8856
     7.8972   7.8973   8.0467   8.0467   8.1293   8.1295   8.3589   8.3590
     8.5528   8.5529   8.7374   8.7374   8.9325   8.9325   8.9440   8.9441
     9.0157   9.0157   9.1572   9.1574   9.1782   9.1782   9.2446   9.2446
     9.2614   9.2614   9.6665   9.6665   9.7135   9.7135   9.7622   9.7622
     9.7897   9.7897   9.7904   9.7904   9.7994   9.7995  10.3168  10.3169
    12.4393  12.4394  13.3128  13.3129  13.3239  13.3240  13.3659  13.3660
    13.4029  13.4030  13.8645  13.8645  13.9831  13.9832  14.0146  14.0147
    14.1164  14.1164  14.2143  14.2144  14.2816  14.2816  14.4497  14.4497
    14.6140  14.6140  15.1432  15.1432  15.3683  15.3683  15.7879  15.7880
    16.4100  16.4102  16.4533  16.4535  16.6662  16.6663  17.0013  17.0014

          k = 0.0000 0.3333 0.0000 ( 41965 PWs)   bands (ev):

   -46.1069 -46.1063 -46.1060 -46.1058 -46.1054 -46.1053 -46.1049 -46.1044
   -22.4413 -22.4396 -22.4380 -22.4367 -22.3935 -22.3924 -22.3913 -22.3903
   -22.3871 -22.3853 -22.3841 -22.3828 -22.3745 -22.3716 -22.3714 -22.3692
   -22.3475 -22.3452 -22.3450 -22.3431 -22.3333 -22.3323 -22.3315 -22.3305
   -14.4285 -14.3680 -14.3272 -14.3181 -14.2877 -14.2794 -14.2508 -14.2166
    -6.6889  -6.6544  -6.5942  -6.5582  -6.3968  -6.3109  -6.0068  -5.8832
    -5.8634  -5.8535  -5.8471  -5.8123  -5.7845  -5.7814  -5.7590  -5.7566
    -5.7306  -5.7260  -5.7217  -5.7050  -5.6842  -5.6266  -5.6197  -5.5695
    -0.1946  -0.1569  -0.0959   0.1390   0.1926   0.3491   0.3588   0.4049
     0.4054   0.4163   0.4248   0.4644   0.4697   0.4707   0.4733   0.4886
     0.5037   0.5786   0.5873   0.6373   0.6671   0.6858   0.6861   0.6888
     6.0472   6.1008   6.2278   6.2384   6.2989   6.3556   6.5232   6.5599
     6.5651   6.6368   6.7488   6.8067   6.8501   6.9198   6.9288   7.2695
     7.4210   7.4815   7.5535   7.6071   7.6218   7.6248   7.6262   7.6413
     7.6434   7.6597   7.7429   7.7649   7.7723   7.8273   7.8326   7.8884
     7.9356   7.9853   8.0054   8.0606   8.1454   8.1647   8.2827   8.6023
     8.6842   8.7114   8.7167   8.7262   8.7349   8.8391   8.8578   8.8823
     8.8996   9.0620   9.1411   9.2207   9.2726   9.3685   9.3708   9.3901
     9.4028   9.4622   9.4831   9.5128   9.5302   9.6139   9.6143   9.6694
     9.8186   9.9320   9.9933  10.0052  10.1223  10.1568  10.1930  10.2307
    12.5621  12.6293  12.7529  12.8374  12.8385  12.9219  13.5747  13.5975
    13.6156  13.6259  13.9856  13.9897  14.0091  14.0136  14.0154  14.0166
    14.1142  14.1158  14.1862  14.2175  14.4197  14.4254  14.4278  14.5494
    14.5665  14.5719  14.9066  14.9300  15.1261  15.1744  15.2407  15.8628
    15.9961  16.0070  16.0510  16.7052  16.8319  16.9268  16.9565  17.1844

          k = 0.0000 0.3333 0.1649 ( 41947 PWs)   bands (ev):

   -46.1068 -46.1063 -46.1060 -46.1057 -46.1055 -46.1052 -46.1050 -46.1045
   -22.4381 -22.4364 -22.4349 -22.4336 -22.3967 -22.3955 -22.3944 -22.3934
   -22.3869 -22.3852 -22.3843 -22.3830 -22.3743 -22.3718 -22.3712 -22.3693
   -22.3473 -22.3454 -22.3449 -22.3432 -22.3332 -22.3321 -22.3316 -22.3306
   -14.4219 -14.3628 -14.3341 -14.3136 -14.2932 -14.2752 -14.2554 -14.2208
    -6.6610  -6.6211  -6.5794  -6.5458  -6.3638  -6.3282  -6.0845  -5.8888
    -5.8594  -5.8558  -5.8527  -5.8275  -5.8074  -5.7839  -5.7691  -5.7507
    -5.7410  -5.7216  -5.6953  -5.6936  -5.6797  -5.6382  -5.6237  -5.5779
    -0.1769  -0.1570   0.0026   0.1696   0.1800   0.2883   0.3509   0.3623
     0.3808   0.4029   0.4267   0.4477   0.4642   0.4659   0.4989   0.5153
     0.5173   0.5672   0.6011   0.6235   0.6518   0.6685   0.6730   0.6885
     6.1024   6.1568   6.2377   6.3113   6.3470   6.4002   6.5853   6.6166
     6.6228   6.7052   6.7717   6.7867   6.8530   6.9283   6.9564   7.3089
     7.3703   7.4762   7.5019   7.5926   7.6040   7.6288   7.6403   7.6510
     7.6767   7.6805   7.6836   7.7404   7.8118   7.8329   7.8567   7.8945
     7.9014   7.9237   7.9943   8.0194   8.0549   8.1062   8.1860   8.5368
     8.5649   8.5661   8.7449   8.7501   8.7615   8.7663   8.9304   8.9662
     9.0539   9.1221   9.1400   9.2191   9.2901   9.2976   9.3910   9.4061
     9.4144   9.4323   9.4460   9.5123   9.5167   9.5580   9.5604   9.6381
     9.7849   9.8806   9.9213   9.9916  10.0924  10.1451  10.1540  10.1952
    12.6543  12.7327  12.7762  12.8299  12.9015  13.0086  13.5782  13.6109
    13.6128  13.6789  13.9026  13.9210  13.9316  13.9966  14.0250  14.0358
    14.0440  14.1065  14.1222  14.2311  14.3599  14.3801  14.4122  14.5030
    14.6791  14.6936  14.9051  15.1093  15.2323  15.2564  15.3364  15.9702
    16.0510  16.0859  16.1227  16.7347  16.7359  16.9897  17.0159  17.3166

          k = 0.0000 0.3333 0.3297 ( 41966 PWs)   bands (ev):

   -46.1066 -46.1062 -46.1061 -46.1057 -46.1056 -46.1051 -46.1051 -46.1046
   -22.4294 -22.4278 -22.4264 -22.4251 -22.4055 -22.4042 -22.4030 -22.4019
   -22.3863 -22.3848 -22.3847 -22.3834 -22.3738 -22.3723 -22.3708 -22.3697
   -22.3469 -22.3458 -22.3445 -22.3436 -22.3329 -22.3319 -22.3318 -22.3309
   -14.4036 -14.3530 -14.3483 -14.3081 -14.3015 -14.2678 -14.2639 -14.2324
    -6.5849  -6.5450  -6.5270  -6.5223  -6.3868  -6.2710  -6.2306  -5.9884
    -5.8948  -5.8702  -5.8539  -5.8200  -5.7958  -5.7940  -5.7793  -5.7571
    -5.7288  -5.7072  -5.6855  -5.6692  -5.6674  -5.6652  -5.6351  -5.6014
    -0.1329  -0.0524   0.1437   0.1774   0.1783   0.2470   0.2552   0.2992
     0.3493   0.3654   0.4110   0.4144   0.4554   0.5042   0.5365   0.5437
     0.5469   0.5474   0.5575   0.5860   0.6384   0.6446   0.6560   0.6779
     6.1885   6.2355   6.2474   6.3263   6.4988   6.6775   6.7325   6.7663
     6.8116   6.8352   6.8499   6.8604   6.8878   6.9682   7.1011   7.2002
     7.3504   7.4011   7.4091   7.4182   7.4419   7.5691   7.5751   7.6065
     7.7015   7.7059   7.7278   7.7328   7.7789   7.7934   7.8487   7.8981
     7.9060   7.9338   7.9415   7.9435   7.9574   8.1956   8.2174   8.2571
     8.3058   8.3652   8.5416   8.5890   8.8250   8.8287   8.9699   9.0192
     9.1569   9.1930   9.2635   9.2869   9.2950   9.3055   9.3642   9.3679
     9.3967   9.4266   9.4305   9.4838   9.4975   9.5657   9.6235   9.6435
     9.6971   9.7392   9.8205   9.9360   9.9453   9.9942  10.1487  10.1588
    12.7474  12.8094  12.9839  13.0020  13.0879  13.2350  13.5868  13.5883
    13.6706  13.6714  13.6778  13.7086  13.8193  13.8211  13.9655  14.0229
    14.0681  14.0849  14.1253  14.2062  14.2687  14.2709  14.3645  14.3941
    14.8208  14.8980  14.9398  15.1989  15.5136  15.5715  15.8624  16.0175
    16.2592  16.3492  16.4584  16.4885  16.8520  16.9387  17.1163  17.2190

          k = 0.0000 0.3333-0.4946 ( 41980 PWs)   bands (ev):

   -46.1064 -46.1064 -46.1059 -46.1059 -46.1054 -46.1054 -46.1049 -46.1048
   -22.4175 -22.4175 -22.4161 -22.4160 -22.4147 -22.4147 -22.4136 -22.4136
   -22.3856 -22.3856 -22.3841 -22.3841 -22.3731 -22.3731 -22.3703 -22.3703
   -22.3464 -22.3463 -22.3441 -22.3440 -22.3324 -22.3324 -22.3314 -22.3314
   -14.3785 -14.3784 -14.3283 -14.3283 -14.2848 -14.2847 -14.2483 -14.2482
    -6.5183  -6.5182  -6.4824  -6.4823  -6.3886  -6.3884  -6.1370  -6.1369
    -5.8741  -5.8741  -5.8627  -5.8627  -5.7870  -5.7869  -5.7696  -5.7694
    -5.7025  -5.7024  -5.6908  -5.6907  -5.6511  -5.6510  -5.6348  -5.6346
    -0.0153  -0.0153   0.0946   0.0947   0.2169   0.2170   0.3708   0.3709
     0.3734   0.3735   0.3769   0.3770   0.3778   0.3778   0.4954   0.4955
     0.5922   0.5923   0.6160   0.6160   0.6164   0.6164   0.6438   0.6438
     6.2260   6.2261   6.2976   6.2977   6.6465   6.6465   6.8668   6.8669
     6.9976   6.9977   7.0527   7.0528   7.0638   7.0639   7.1262   7.1263
     7.1910   7.1912   7.3075   7.3077   7.3914   7.3916   7.5426   7.5427
     7.5437   7.5438   7.7199   7.7200   7.8715   7.8715   7.8851   7.8852
     7.9353   7.9353   7.9887   7.9887   8.0297   8.0298   8.1460   8.1461
     8.3578   8.3578   8.3954   8.3955   8.8644   8.8645   8.9650   8.9651
     9.1533   9.1533   9.2683   9.2683   9.3055   9.3055   9.3099   9.3099
     9.5036   9.5038   9.5279   9.5279   9.5859   9.5859   9.6963   9.6963
     9.7319   9.7319   9.7516   9.7516   9.8099   9.8099  10.1479  10.1481
    12.7810  12.7811  13.3369  13.3370  13.3450  13.3451  13.3684  13.3684
    13.5307  13.5308  13.6054  13.6055  13.7938  13.7939  14.0094  14.0095
    14.0545  14.0546  14.1533  14.1534  14.2451  14.2451  14.3221  14.3221
    14.8777  14.8777  15.1153  15.1153  15.8634  15.8634  16.0375  16.0376
    16.4797  16.4799  16.6649  16.6650  16.7771  16.7773  17.0360  17.1286

          k = 0.0000-0.5000 0.0000 ( 41958 PWs)   bands (ev):

   -46.1066 -46.1066 -46.1057 -46.1057 -46.1055 -46.1055 -46.1047 -46.1047
   -22.4404 -22.4404 -22.4373 -22.4373 -22.3929 -22.3929 -22.3908 -22.3908
   -22.3862 -22.3862 -22.3834 -22.3834 -22.3610 -22.3610 -22.3585 -22.3585
   -22.3582 -22.3582 -22.3561 -22.3561 -22.3328 -22.3328 -22.3310 -22.3310
   -14.3985 -14.3985 -14.3076 -14.3075 -14.2988 -14.2988 -14.2337 -14.2337
    -6.6146  -6.6146  -6.5295  -6.5295  -6.4589  -6.4589  -5.8712  -5.8712
    -5.8656  -5.8656  -5.8187  -5.8187  -5.7880  -5.7880  -5.7835  -5.7835
    -5.7372  -5.7372  -5.7207  -5.7206  -5.6630  -5.6630  -5.6265  -5.6265
    -0.0305  -0.0305   0.0188   0.0188   0.1472   0.1472   0.4059   0.4059
     0.4084   0.4084   0.4462   0.4462   0.4594   0.4594   0.5183   0.5183
     0.5708   0.5708   0.5768   0.5769   0.6313   0.6314   0.6359   0.6359
     6.0889   6.0889   6.2684   6.2684   6.3081   6.3081   6.5624   6.5624
     6.8542   6.8542   6.9779   6.9780   7.1651   7.1652   7.1977   7.1978
     7.2187   7.2188   7.2916   7.2916   7.3718   7.3718   7.6191   7.6191
     7.6582   7.6582   7.8506   7.8506   7.8884   7.8884   7.8899   7.8899
     7.8966   7.8966   7.9553   7.9553   8.0076   8.0076   8.4774   8.4774
     8.6931   8.6932   8.7787   8.7787   8.8765   8.8765   8.9126   8.9126
     8.9717   8.9717   9.1279   9.1279   9.1556   9.1556   9.2962   9.2962
     9.3119   9.3119   9.6377   9.6377   9.7621   9.7621   9.7639   9.7639
     9.7833   9.7833   9.8781   9.8781   9.9045   9.9045  10.2110  10.2110
    12.5966  12.5966  13.1818  13.1818  13.2104  13.2104  13.2416  13.2416
    13.2601  13.2602  14.0072  14.0072  14.0126  14.0126  14.0606  14.0606
    14.0876  14.0876  14.2559  14.2559  14.2643  14.2643  14.4873  14.4873
    14.5720  14.5720  15.0814  15.0815  15.1264  15.1264  15.6441  15.6441
    16.3973  16.3974  16.5414  16.5414  16.6274  16.6274  17.1779  17.1780

          k = 0.0000-0.5000 0.1649 ( 41940 PWs)   bands (ev):

   -46.1065 -46.1065 -46.1058 -46.1058 -46.1055 -46.1055 -46.1047 -46.1047
   -22.4373 -22.4373 -22.4342 -22.4342 -22.3961 -22.3961 -22.3939 -22.3939
   -22.3860 -22.3860 -22.3836 -22.3836 -22.3608 -22.3608 -22.3586 -22.3586
   -22.3581 -22.3581 -22.3563 -22.3563 -22.3327 -22.3327 -22.3311 -22.3311
   -14.3925 -14.3925 -14.3138 -14.3138 -14.2945 -14.2945 -14.2382 -14.2382
    -6.5935  -6.5934  -6.4962  -6.4962  -6.4553  -6.4553  -5.9639  -5.9639
    -5.8686  -5.8686  -5.8137  -5.8137  -5.7771  -5.7770  -5.7699  -5.7699
    -5.7320  -5.7319  -5.7264  -5.7264  -5.6599  -5.6599  -5.6283  -5.6283
    -0.0069  -0.0069   0.0035   0.0036   0.2284   0.2284   0.3371   0.3371
     0.3921   0.3922   0.4174   0.4174   0.4704   0.4704   0.4786   0.4786
     0.5961   0.5961   0.5985   0.5985   0.6192   0.6193   0.6429   0.6429
     6.1454   6.1454   6.3035   6.3035   6.3633   6.3633   6.6195   6.6195
     6.9075   6.9075   6.9934   6.9934   7.1476   7.1476   7.1869   7.1869
     7.2031   7.2031   7.3249   7.3249   7.3532   7.3532   7.6221   7.6222
     7.6941   7.6942   7.7893   7.7893   7.8849   7.8849   7.8896   7.8896
     7.8998   7.8999   7.9567   7.9567   7.9774   7.9774   8.3005   8.3005
     8.6227   8.6227   8.6475   8.6475   8.9329   8.9329   8.9718   8.9718
     9.0579   9.0579   9.1558   9.1558   9.1822   9.1822   9.2839   9.2839
     9.3181   9.3181   9.5951   9.5951   9.7199   9.7199   9.7207   9.7207
     9.7803   9.7803   9.8664   9.8664   9.8944   9.8944  10.1581  10.1581
    12.7011  12.7011  13.1882  13.1882  13.2358  13.2358  13.2426  13.2426
    13.3295  13.3295  13.9260  13.9260  13.9823  13.9823  14.0287  14.0287
    14.0996  14.0996  14.1851  14.1851  14.2518  14.2518  14.4412  14.4412
    14.6940  14.6940  15.1210  15.1210  15.2840  15.2841  15.7205  15.7205
    16.4770  16.4770  16.6459  16.6460  16.6725  16.6726  17.1310  17.1310

          k = 0.0000-0.5000 0.3297 ( 41934 PWs)   bands (ev):

   -46.1064 -46.1064 -46.1059 -46.1059 -46.1053 -46.1053 -46.1049 -46.1049
   -22.4286 -22.4286 -22.4258 -22.4258 -22.4049 -22.4049 -22.4025 -22.4025
   -22.3855 -22.3855 -22.3841 -22.3841 -22.3604 -22.3604 -22.3591 -22.3591
   -22.3577 -22.3577 -22.3567 -22.3567 -22.3323 -22.3323 -22.3314 -22.3314
   -14.3762 -14.3761 -14.3307 -14.3307 -14.2828 -14.2827 -14.2502 -14.2502
    -6.5405  -6.5405  -6.4562  -6.4562  -6.4024  -6.4024  -6.1095  -6.1095
    -5.8774  -5.8774  -5.8573  -5.8573  -5.7609  -5.7609  -5.7426  -5.7426
    -5.7351  -5.7351  -5.7315  -5.7314  -5.6519  -5.6519  -5.6337  -5.6337
     0.0016   0.0016   0.0985   0.0985   0.2017   0.2017   0.3668   0.3668
     0.3725   0.3725   0.3738   0.3738   0.3772   0.3772   0.5008   0.5008
     0.5866   0.5867   0.6118   0.6118   0.6293   0.6293   0.6350   0.6350
     6.2332   6.2332   6.2923   6.2923   6.6123   6.6123   6.8434   6.8434
     7.0276   7.0276   7.0466   7.0466   7.0899   7.0899   7.1077   7.1077
     7.2166   7.2166   7.3162   7.3162   7.4489   7.4489   7.5335   7.5335
     7.5518   7.5518   7.7727   7.7727   7.8686   7.8686   7.8960   7.8960
     7.8987   7.8988   7.9847   7.9847   8.0054   8.0054   8.0606   8.0606
     8.3433   8.3433   8.4436   8.4436   8.8728   8.8728   8.9692   8.9692
     9.2326   9.2326   9.2358   9.2358   9.2860   9.2860   9.3406   9.3406
     9.3719   9.3719   9.4872   9.4872   9.5613   9.5613   9.7392   9.7392
     9.8065   9.8065   9.8374   9.8374   9.8738   9.8738  10.0031  10.0031
    12.9665  12.9665  13.2120  13.2120  13.2187  13.2188  13.3509  13.3509
    13.5120  13.5120  13.6884  13.6884  13.7822  13.7822  13.9992  13.9992
    14.0908  14.0908  14.1346  14.1346  14.2172  14.2172  14.3294  14.3294
    14.9105  14.9105  15.0991  15.0991  15.7800  15.7801  15.9892  15.9892
    16.6097  16.6098  16.6988  16.6988  16.8443  16.8443  17.0460  17.0462

          k = 0.0000-0.5000-0.4946 ( 41948 PWs)   bands (ev):

   -46.1061 -46.1061 -46.1061 -46.1061 -46.1051 -46.1051 -46.1051 -46.1051
   -22.4168 -22.4168 -22.4168 -22.4168 -22.4142 -22.4142 -22.4141 -22.4141
   -22.3848 -22.3848 -22.3848 -22.3848 -22.3597 -22.3597 -22.3597 -22.3597
   -22.3572 -22.3572 -22.3572 -22.3572 -22.3319 -22.3319 -22.3319 -22.3319
   -14.3536 -14.3536 -14.3535 -14.3535 -14.2666 -14.2666 -14.2665 -14.2665
    -6.4848  -6.4848  -6.4846  -6.4846  -6.2652  -6.2652  -6.2650  -6.2650
    -5.8809  -5.8809  -5.8808  -5.8808  -5.7447  -5.7447  -5.7446  -5.7446
    -5.7357  -5.7357  -5.7356  -5.7356  -5.6422  -5.6422  -5.6421  -5.6421
     0.0762   0.0762   0.0763   0.0763   0.2327   0.2327   0.2327   0.2328
     0.3586   0.3586   0.3586   0.3586   0.5150   0.5150   0.5150   0.5150
     0.5431   0.5431   0.5432   0.5432   0.6465   0.6465   0.6466   0.6466
     6.2746   6.2746   6.2747   6.2747   6.9007   6.9007   6.9008   6.9008
     7.0656   7.0656   7.0657   7.0657   7.1745   7.1745   7.1747   7.1747
     7.2485   7.2485   7.2486   7.2486   7.3242   7.3242   7.3244   7.3244
     7.6959   7.6959   7.6960   7.6960   7.8350   7.8350   7.8351   7.8351
     7.8873   7.8873   7.8874   7.8874   8.1156   8.1156   8.1156   8.1156
     8.2295   8.2295   8.2296   8.2296   8.8738   8.8738   8.8738   8.8738
     9.3147   9.3147   9.3147   9.3147   9.3548   9.3548   9.3548   9.3548
     9.3878   9.3878   9.3879   9.3879   9.6943   9.6943   9.6943   9.6943
     9.7971   9.7971   9.7971   9.7971   9.8712   9.8712   9.8714   9.8714
    13.1815  13.1815  13.1815  13.1815  13.3694  13.3694  13.3695  13.3695
    13.5437  13.5438  13.5438  13.5438  13.7546  13.7546  13.7547  13.7547
    14.1665  14.1665  14.1666  14.1666  14.2072  14.2072  14.2072  14.2072
    15.0424  15.0424  15.0424  15.0424  16.3157  16.3157  16.3158  16.3158
    16.4211  16.4212  16.4212  16.4213  17.0227  17.0228  17.2823  17.2825

          k = 0.1667 0.1667 0.0000 ( 42015 PWs)   bands (ev):

   -46.1070 -46.1061 -46.1061 -46.1061 -46.1052 -46.1052 -46.1052 -46.1043
   -22.4417 -22.4387 -22.4387 -22.4364 -22.3937 -22.3918 -22.3918 -22.3900
   -22.3841 -22.3841 -22.3813 -22.3811 -22.3811 -22.3811 -22.3789 -22.3788
   -22.3375 -22.3372 -22.3354 -22.3354 -22.3354 -22.3353 -22.3336 -22.3336
   -14.4425 -14.3402 -14.3402 -14.3363 -14.2705 -14.2685 -14.2685 -14.2086
    -6.7204  -6.7204  -6.6544  -6.5358  -6.3231  -6.1542  -6.1542  -5.8927
    -5.8806  -5.8806  -5.8375  -5.8375  -5.8057  -5.7648  -5.7570  -5.7476
    -5.7272  -5.7272  -5.7214  -5.6976  -5.6643  -5.5893  -5.5597  -5.5597
    -0.3023  -0.2290  -0.1847   0.2731   0.2731   0.3042   0.3497   0.3497
     0.3701   0.3710   0.3863   0.4486   0.4598   0.5053   0.5053   0.5398
     0.5398   0.5791   0.6526   0.6526   0.7101   0.7144   0.7144   0.7412
     6.0181   6.1541   6.1542   6.1982   6.3149   6.4404   6.4404   6.4958
     6.4958   6.5020   6.6044   6.6595   6.6595   6.6827   6.6945   7.5239
     7.5956   7.5956   7.6027   7.6027   7.6304   7.6598   7.6681   7.6681
     7.7132   7.7339   7.7588   7.7588   7.7978   7.8803   7.9129   7.9522
     7.9996   7.9997   8.0137   8.0244   8.1093   8.2033   8.2033   8.5557
     8.5558   8.6798   8.7067   8.7067   8.8252   8.8651   8.9130   8.9936
     8.9949   8.9949   9.2051   9.2209   9.2364   9.2364   9.3545   9.4162
     9.4469   9.4469   9.5069   9.5069   9.5776   9.5776   9.5822   9.6170
    10.0014  10.0268  10.1382  10.1382  10.1414  10.1984  10.2560  10.2582
    12.4812  12.6026  12.6247  12.6382  12.7073  12.7073  13.8551  13.8551
    13.8801  13.8934  13.8934  13.9170  13.9170  13.9403  13.9792  14.0031
    14.0354  14.0354  14.2849  14.3277  14.3277  14.5025  14.5381  14.5439
    14.6948  14.6948  14.7088  14.7821  14.7896  15.1261  15.5120  15.5120
    15.6173  15.7496  16.3205  16.3205  16.6423  17.0646  17.2368  17.3998

          k = 0.1667 0.1667 0.1649 ( 41994 PWs)   bands (ev):

   -46.1069 -46.1061 -46.1060 -46.1060 -46.1052 -46.1052 -46.1051 -46.1044
   -22.4386 -22.4356 -22.4356 -22.4333 -22.3969 -22.3950 -22.3950 -22.3932
   -22.3839 -22.3839 -22.3813 -22.3813 -22.3811 -22.3809 -22.3791 -22.3790
   -22.3373 -22.3371 -22.3356 -22.3355 -22.3353 -22.3353 -22.3338 -22.3337
   -14.4356 -14.3435 -14.3355 -14.3354 -14.2734 -14.2734 -14.2664 -14.2128
    -6.6884  -6.6884  -6.6357  -6.5284  -6.2904  -6.2046  -6.2045  -5.8978
    -5.8673  -5.8673  -5.8342  -5.8342  -5.8109  -5.8030  -5.7675  -5.7376
    -5.7244  -5.7154  -5.7154  -5.7146  -5.6545  -5.6005  -5.5724  -5.5724
    -0.2635  -0.2317  -0.0927   0.2613   0.2895   0.2895   0.3116   0.3569
     0.3569   0.3755   0.3760   0.4537   0.4654   0.4654   0.4928   0.5520
     0.5558   0.5558   0.6561   0.6578   0.6578   0.7021   0.7021   0.7367
     6.0731   6.2003   6.2179   6.2179   6.4188   6.4826   6.4826   6.4980
     6.4980   6.5944   6.6670   6.6832   6.6935   6.7077   6.7077   7.5421
     7.5551   7.5551   7.6055   7.6055   7.6502   7.6502   7.6607   7.6813
     7.6827   7.7381   7.7945   7.8026   7.8026   7.8326   7.8326   7.8798
     7.9083   7.9272   7.9672   7.9969   8.1375   8.1424   8.1424   8.4970
     8.5824   8.5825   8.7606   8.7836   8.8991   8.9329   8.9329   8.9651
     8.9652   8.9916   9.2241   9.2241   9.2393   9.2636   9.3570   9.3570
     9.3959   9.4620   9.4950   9.4950   9.5110   9.5110   9.5461   9.6059
     9.9483   9.9673  10.0676  10.1032  10.1032  10.1127  10.2590  10.2726
    12.4957  12.6157  12.7033  12.7283  12.8061  12.8061  13.8604  13.8604
    13.8899  13.9029  13.9029  13.9083  13.9083  13.9146  13.9226  13.9552
    13.9552  13.9748  14.2775  14.2775  14.2991  14.4768  14.4878  14.5027
    14.7826  14.7883  14.8401  14.8401  14.8941  15.3376  15.5047  15.5047
    15.7356  15.8747  16.3848  16.3848  16.5467  17.0713  17.3440  17.3681

          k = 0.1667 0.1667 0.3297 ( 41972 PWs)   bands (ev):

   -46.1068 -46.1063 -46.1058 -46.1058 -46.1054 -46.1054 -46.1049 -46.1045
   -22.4298 -22.4271 -22.4271 -22.4249 -22.4058 -22.4036 -22.4036 -22.4017
   -22.3834 -22.3834 -22.3818 -22.3818 -22.3807 -22.3805 -22.3795 -22.3794
   -22.3369 -22.3368 -22.3359 -22.3358 -22.3350 -22.3350 -22.3341 -22.3341
   -14.4165 -14.3633 -14.3225 -14.3225 -14.2867 -14.2867 -14.2552 -14.2243
    -6.5985  -6.5985  -6.5890  -6.5210  -6.3248  -6.3248  -6.1990  -5.9283
    -5.8968  -5.8427  -5.8427  -5.8278  -5.8278  -5.7955  -5.7907  -5.7751
    -5.7099  -5.6963  -5.6875  -5.6875  -5.6558  -5.6308  -5.6063  -5.6063
    -0.1596  -0.1564   0.0860   0.1461   0.1620   0.3224   0.3224   0.3856
     0.3923   0.3947   0.3947   0.4076   0.4077   0.4371   0.4912   0.5075
     0.5356   0.5356   0.5732   0.6683   0.6683   0.6840   0.6840   0.7103
     6.1609   6.2036   6.3301   6.3301   6.4492   6.4492   6.6797   6.6797
     6.6849   6.6910   6.7055   6.8404   6.8928   6.8928   6.9079   7.3103
     7.3103   7.4883   7.5080   7.5348   7.5348   7.6121   7.6121   7.6145
     7.6469   7.6469   7.6837   7.7440   7.7957   7.8637   7.8908   7.9055
     7.9180   7.9180   7.9435   8.0850   8.0893   8.1331   8.1331   8.2197
     8.5570   8.5881   8.6494   8.6494   8.8219   8.8219   8.9932   9.0152
     9.1098   9.1098   9.2195   9.2199   9.2199   9.3102   9.3102   9.3328
     9.3993   9.4394   9.4394   9.4822   9.4823   9.5193   9.5719   9.6734
     9.8227   9.8713   9.8803   9.9298   9.9876   9.9876  10.2622  10.2751
    12.5234  12.5911  12.9753  12.9761  13.0634  13.0634  13.6460  13.6709
    13.7148  13.7148  13.8733  13.8733  13.9061  13.9061  13.9424  13.9424
    14.0359  14.0713  14.1569  14.1569  14.3384  14.3559  14.3625  14.4506
    14.7836  14.7861  15.1376  15.1376  15.3382  15.4689  15.4689  15.8653
    16.0576  16.2336  16.2696  16.6090  16.6090  16.9292  16.9736  17.4574

          k = 0.1667 0.1667-0.4946 ( 41944 PWs)   bands (ev):

   -46.1065 -46.1065 -46.1056 -46.1056 -46.1056 -46.1056 -46.1047 -46.1047
   -22.4178 -22.4178 -22.4154 -22.4154 -22.4154 -22.4154 -22.4133 -22.4133
   -22.3826 -22.3826 -22.3826 -22.3826 -22.3801 -22.3801 -22.3800 -22.3799
   -22.3365 -22.3364 -22.3363 -22.3363 -22.3345 -22.3345 -22.3345 -22.3345
   -14.3901 -14.3900 -14.3048 -14.3047 -14.3047 -14.3046 -14.2398 -14.2397
    -6.5412  -6.5411  -6.4682  -6.4682  -6.4681  -6.4681  -6.0687  -6.0686
    -5.8605  -5.8604  -5.8277  -5.8277  -5.8277  -5.8277  -5.7854  -5.7853
    -5.6734  -5.6732  -5.6710  -5.6709  -5.6493  -5.6493  -5.6492  -5.6492
    -0.0152  -0.0151  -0.0072  -0.0071   0.3013   0.3013   0.3583   0.3584
     0.3584   0.3584   0.4146   0.4146   0.4282   0.4283   0.4677   0.4678
     0.4678   0.4678   0.6527   0.6528   0.6764   0.6764   0.6765   0.6765
     6.1985   6.1986   6.4024   6.4024   6.4025   6.4025   6.6877   6.6878
     6.9640   6.9640   6.9641   6.9641   7.1039   7.1041   7.1461   7.1462
     7.2245   7.2245   7.2246   7.2246   7.3751   7.3753   7.6222   7.6222
     7.6223   7.6224   7.7358   7.7359   7.8520   7.8521   7.8532   7.8533
     7.9106   7.9107   8.0531   8.0531   8.0532   8.0532   8.3453   8.3454
     8.3577   8.3578   8.7224   8.7224   8.7225   8.7225   9.1182   9.1183
     9.1199   9.1200   9.1471   9.1471   9.1472   9.1472   9.3228   9.3228
     9.3228   9.3228   9.6205   9.6205   9.7009   9.7009   9.7113   9.7113
     9.7721   9.7722   9.7732   9.7733   9.7733   9.7733  10.2684  10.2686
    12.5575  12.5576  13.3117  13.3118  13.3306  13.3307  13.3954  13.3954
    13.3954  13.3954  13.8896  13.8896  13.8897  13.8897  14.0294  14.0294
    14.0294  14.0294  14.1921  14.1921  14.2102  14.2103  14.3933  14.3933
    14.7846  14.7846  15.3639  15.3639  15.3639  15.3639  15.8430  15.8431
    16.4791  16.4793  16.5045  16.5047  16.7724  16.7725  17.0086  17.0086

          k = 0.1667 0.3333 0.0000 ( 41992 PWs)   bands (ev):

   -46.1068 -46.1063 -46.1059 -46.1059 -46.1054 -46.1054 -46.1050 -46.1045
   -22.4411 -22.4394 -22.4382 -22.4369 -22.3933 -22.3922 -22.3915 -22.3904
   -22.3835 -22.3818 -22.3806 -22.3793 -22.3743 -22.3716 -22.3715 -22.3693
   -22.3473 -22.3452 -22.3451 -22.3432 -22.3369 -22.3358 -22.3350 -22.3340
   -14.4213 -14.3622 -14.3257 -14.3221 -14.2854 -14.2830 -14.2560 -14.2214
    -6.6642  -6.6382  -6.5606  -6.5516  -6.4078  -6.2766  -6.0576  -5.8744
    -5.8548  -5.8447  -5.8421  -5.8146  -5.7908  -5.7899  -5.7702  -5.7596
    -5.7494  -5.7344  -5.7209  -5.6977  -5.6967  -5.6399  -5.6157  -5.5991
    -0.2079  -0.1057  -0.0136   0.1326   0.2238   0.2943   0.3266   0.3816
     0.3935   0.4164   0.4266   0.4465   0.4528   0.4610   0.4663   0.5040
     0.5242   0.5714   0.6149   0.6500   0.6505   0.6535   0.6720   0.6731
     6.1008   6.1527   6.2319   6.2948   6.3165   6.4551   6.5770   6.5957
     6.6260   6.7221   6.7839   6.7935   6.8735   6.9251   6.9296   7.2321
     7.4293   7.4908   7.5641   7.5864   7.5896   7.6311   7.6327   7.6611
     7.6645   7.6680   7.6827   7.7669   7.7960   7.8091   7.8438   7.8933
     7.9280   7.9513   7.9774   8.0449   8.1448   8.1748   8.1984   8.3060
     8.6100   8.6637   8.7031   8.7120   8.7336   8.7901   8.9515   8.9629
     8.9920   9.1200   9.1316   9.1536   9.2838   9.2918   9.3031   9.3925
     9.4178   9.4302   9.4417   9.4573   9.5745   9.5948   9.6264   9.6642
     9.8732   9.9221   9.9821  10.0024  10.0542  10.1385  10.1463  10.1787
    12.6082  12.6824  12.8159  12.8595  12.9133  12.9256  13.5839  13.6074
    13.6156  13.6623  13.8848  13.9139  13.9141  13.9873  14.0165  14.0266
    14.0267  14.1099  14.1487  14.2031  14.3603  14.3726  14.4066  14.4958
    14.7088  14.7223  14.9393  15.0998  15.1354  15.2422  15.4678  15.9993
    16.0488  16.0971  16.0992  16.6272  16.8663  17.0159  17.0539  17.2935

          k = 0.1667 0.3333 0.1649 ( 41951 PWs)   bands (ev):

   -46.1067 -46.1062 -46.1060 -46.1058 -46.1054 -46.1053 -46.1051 -46.1045
   -22.4379 -22.4362 -22.4351 -22.4338 -22.3965 -22.3954 -22.3946 -22.3936
   -22.3833 -22.3816 -22.3808 -22.3795 -22.3741 -22.3717 -22.3714 -22.3695
   -22.3471 -22.3452 -22.3450 -22.3434 -22.3368 -22.3357 -22.3351 -22.3341
   -14.4148 -14.3570 -14.3289 -14.3211 -14.2884 -14.2812 -14.2607 -14.2258
    -6.6360  -6.6059  -6.5471  -6.5376  -6.3751  -6.2950  -6.1132  -5.8811
    -5.8762  -5.8529  -5.8436  -5.8367  -5.8103  -5.7881  -5.7664  -5.7513
    -5.7449  -5.7253  -5.7142  -5.6936  -5.6910  -5.6500  -5.6234  -5.6071
    -0.1758  -0.1206   0.0797   0.1590   0.2075   0.2828   0.2997   0.3790
     0.3794   0.3902   0.3950   0.3967   0.4238   0.4453   0.4863   0.5053
     0.5322   0.5513   0.5728   0.6616   0.6645   0.6800   0.6918   0.6994
     6.1660   6.2177   6.3138   6.3158   6.3937   6.4443   6.6273   6.6346
     6.6696   6.7637   6.7727   6.8256   6.8795   6.9234   6.9661   7.2621
     7.3642   7.4658   7.5321   7.5619   7.6113   7.6168   7.6245   7.6770
     7.6791   7.6816   7.6961   7.7348   7.8272   7.8358   7.8473   7.8732
     7.8951   7.9321   7.9338   8.0458   8.0694   8.0717   8.1715   8.2352
     8.5295   8.5548   8.6321   8.6975   8.7090   8.8931   8.9304   9.0374
     9.0518   9.1617   9.1661   9.2053   9.2179   9.2509   9.3434   9.3989
     9.4132   9.4186   9.4614   9.4951   9.4999   9.5712   9.5968   9.6415
     9.8285   9.8678   9.9119   9.9856  10.0326  10.1047  10.1339  10.1524
    12.6985  12.7818  12.8399  12.9173  12.9186  12.9996  13.5922  13.6231
    13.6555  13.6681  13.8986  13.8990  13.9261  13.9304  13.9426  13.9454
    14.0072  14.0407  14.1397  14.1628  14.3224  14.3339  14.3569  14.4459
    14.8525  14.8635  15.1005  15.1183  15.2906  15.3450  15.4609  16.0468
    16.0984  16.1582  16.2193  16.6551  16.7683  17.0794  17.0904  17.5225

          k = 0.1667 0.3333 0.3297 ( 41942 PWs)   bands (ev):

   -46.1066 -46.1061 -46.1060 -46.1057 -46.1056 -46.1052 -46.1051 -46.1047
   -22.4292 -22.4276 -22.4266 -22.4253 -22.4053 -22.4041 -22.4032 -22.4021
   -22.3828 -22.3813 -22.3812 -22.3799 -22.3736 -22.3722 -22.3710 -22.3699
   -22.3467 -22.3456 -22.3447 -22.3437 -22.3365 -22.3355 -22.3354 -22.3345
   -14.3970 -14.3474 -14.3427 -14.3085 -14.3031 -14.2736 -14.2696 -14.2376
    -6.5588  -6.5171  -6.5153  -6.5091  -6.3562  -6.2835  -6.2383  -6.0063
    -5.8901  -5.8616  -5.8443  -5.8214  -5.8099  -5.8011  -5.7812  -5.7565
    -5.7300  -5.7044  -5.7043  -5.6848  -5.6760  -5.6731  -5.6442  -5.6285
    -0.1036  -0.0576   0.1610   0.1955   0.2324   0.2356   0.2524   0.3039
     0.3147   0.3611   0.3801   0.3908   0.4017   0.4272   0.4476   0.4658
     0.4772   0.5864   0.5915   0.6497   0.6940   0.6968   0.7155   0.7251
     6.2699   6.3150   6.3254   6.4179   6.4897   6.6615   6.7091   6.7897
     6.7915   6.8277   6.8545   6.9507   6.9511   6.9567   7.1044   7.1943
     7.3385   7.3567   7.3724   7.3764   7.5331   7.6067   7.6069   7.6403
     7.6537   7.6856   7.6962   7.7150   7.8269   7.8580   7.8629   7.8797
     7.8965   7.8986   7.9125   7.9333   7.9584   8.1455   8.1881   8.2000
     8.2377   8.3151   8.4717   8.5145   8.7029   8.7746   8.8883   9.0544
     9.1623   9.2162   9.2299   9.3054   9.3060   9.3145   9.3816   9.3875
     9.4011   9.4667   9.4797   9.4849   9.5435   9.6048   9.6063   9.6139
     9.7143   9.7425   9.7990   9.9060   9.9223   9.9716  10.1243  10.1251
    12.8173  12.8941  13.0121  13.0402  13.1026  13.2252  13.6106  13.6220
    13.6621  13.6852  13.6964  13.7280  13.8068  13.8096  13.9303  13.9731
    13.9835  13.9998  14.0339  14.1891  14.2009  14.2016  14.2965  14.3301
    15.0428  15.0996  15.1387  15.4301  15.5219  15.5705  15.8713  16.0131
    16.3707  16.3792  16.4842  16.5674  16.7686  16.9751  17.1871  17.2132

          k = 0.1667 0.3333-0.4946 ( 41964 PWs)   bands (ev):

   -46.1063 -46.1063 -46.1058 -46.1058 -46.1054 -46.1054 -46.1049 -46.1049
   -22.4173 -22.4173 -22.4159 -22.4159 -22.4149 -22.4149 -22.4137 -22.4137
   -22.3821 -22.3820 -22.3806 -22.3805 -22.3729 -22.3729 -22.3705 -22.3704
   -22.3462 -22.3462 -22.3442 -22.3442 -22.3360 -22.3360 -22.3349 -22.3349
   -14.3724 -14.3723 -14.3231 -14.3230 -14.2912 -14.2911 -14.2537 -14.2536
    -6.4974  -6.4973  -6.4545  -6.4544  -6.3839  -6.3838  -6.1517  -6.1516
    -5.8734  -5.8733  -5.8532  -5.8531  -5.7973  -5.7973  -5.7695  -5.7694
    -5.7083  -5.7082  -5.6933  -5.6931  -5.6689  -5.6687  -5.6547  -5.6546
     0.0106   0.0107   0.0782   0.0783   0.2285   0.2285   0.3395   0.3396
     0.3432   0.3432   0.3653   0.3653   0.4269   0.4269   0.4375   0.4375
     0.4442   0.4442   0.6650   0.6650   0.7071   0.7071   0.7158   0.7158
     6.3094   6.3095   6.3830   6.3831   6.6250   6.6251   6.8692   6.8693
     6.9916   6.9917   7.0155   7.0157   7.0633   7.0634   7.1101   7.1101
     7.2538   7.2539   7.3767   7.3768   7.3797   7.3798   7.5096   7.5097
     7.5911   7.5912   7.7467   7.7468   7.7906   7.7907   7.8751   7.8751
     7.9429   7.9429   7.9664   7.9664   8.0818   8.0819   8.0844   8.0845
     8.2870   8.2871   8.3406   8.3406   8.6913   8.6914   8.9139   8.9140
     9.2112   9.2113   9.2945   9.2945   9.3100   9.3100   9.4012   9.4012
     9.5245   9.5245   9.5449   9.5450   9.5938   9.5938   9.6932   9.6932
     9.7204   9.7204   9.7361   9.7361   9.7883   9.7883  10.1187  10.1189
    12.8607  12.8607  13.3408  13.3409  13.3705  13.3706  13.3860  13.3860
    13.5201  13.5202  13.6363  13.6364  13.8109  13.8109  13.9658  13.9658
    13.9946  13.9947  14.0691  14.0692  14.1642  14.1643  14.2567  14.2567
    15.0893  15.0894  15.3414  15.3414  15.8659  15.8660  16.0505  16.0506
    16.4949  16.4951  16.7593  16.7594  16.7784  16.7785  17.0943  17.0945

          k = 0.1667-0.5000 0.0000 ( 41916 PWs)   bands (ev):

   -46.1065 -46.1065 -46.1056 -46.1056 -46.1056 -46.1056 -46.1047 -46.1047
   -22.4402 -22.4402 -22.4375 -22.4375 -22.3928 -22.3928 -22.3910 -22.3910
   -22.3826 -22.3826 -22.3800 -22.3800 -22.3608 -22.3608 -22.3584 -22.3584
   -22.3583 -22.3583 -22.3563 -22.3563 -22.3364 -22.3364 -22.3345 -22.3345
   -14.3920 -14.3920 -14.3057 -14.3057 -14.3027 -14.3027 -14.2388 -14.2388
    -6.5981  -6.5981  -6.5238  -6.5238  -6.4250  -6.4250  -5.9217  -5.9217
    -5.8562  -5.8562  -5.8186  -5.8186  -5.7891  -5.7891  -5.7850  -5.7850
    -5.7313  -5.7313  -5.7293  -5.7293  -5.6567  -5.6567  -5.6507  -5.6507
    -0.0472  -0.0472   0.0570   0.0570   0.2183   0.2183   0.3350   0.3350
     0.3787   0.3787   0.4187   0.4187   0.4590   0.4590   0.5365   0.5365
     0.5504   0.5504   0.6046   0.6046   0.6254   0.6254   0.6391   0.6391
     6.1415   6.1415   6.2699   6.2699   6.3997   6.3997   6.6214   6.6214
     6.8622   6.8622   7.0442   7.0443   7.1333   7.1334   7.1836   7.1836
     7.2261   7.2261   7.2925   7.2925   7.3636   7.3636   7.6488   7.6488
     7.6616   7.6616   7.8075   7.8075   7.8524   7.8524   7.8884   7.8884
     7.9337   7.9337   7.9543   7.9543   8.0281   8.0281   8.4104   8.4104
     8.4978   8.4978   8.6692   8.6692   8.8986   8.8986   8.9668   8.9668
     9.0354   9.0354   9.0710   9.0710   9.1049   9.1049   9.3240   9.3241
     9.3620   9.3620   9.6543   9.6543   9.7546   9.7546   9.7680   9.7680
     9.7883   9.7884   9.8204   9.8204   9.9138   9.9138  10.1600  10.1600
    12.6483  12.6483  13.2028  13.2028  13.2292  13.2292  13.2518  13.2518
    13.3047  13.3047  13.9024  13.9024  14.0047  14.0047  14.0124  14.0124
    14.0787  14.0787  14.1861  14.1861  14.2461  14.2461  14.4340  14.4340
    14.7183  14.7183  15.0898  15.0898  15.3454  15.3454  15.7244  15.7244
    16.5151  16.5151  16.6383  16.6383  16.6491  16.6492  17.0927  17.0927

          k = 0.1667-0.5000 0.1649 ( 41930 PWs)   bands (ev):

   -46.1065 -46.1065 -46.1057 -46.1057 -46.1056 -46.1056 -46.1048 -46.1048
   -22.4371 -22.4371 -22.4344 -22.4344 -22.3960 -22.3960 -22.3941 -22.3941
   -22.3825 -22.3825 -22.3801 -22.3801 -22.3607 -22.3607 -22.3585 -22.3585
   -22.3583 -22.3583 -22.3564 -22.3564 -22.3363 -22.3363 -22.3346 -22.3346
   -14.3861 -14.3861 -14.3088 -14.3088 -14.3013 -14.3012 -14.2433 -14.2433
    -6.5762  -6.5762  -6.4913  -6.4913  -6.4225  -6.4225  -5.9896  -5.9896
    -5.8593  -5.8593  -5.8123  -5.8123  -5.7893  -5.7893  -5.7790  -5.7790
    -5.7358  -5.7358  -5.7269  -5.7269  -5.6573  -5.6573  -5.6528  -5.6528
    -0.0196  -0.0196   0.0363   0.0364   0.2957   0.2957   0.3301   0.3301
     0.3344   0.3345   0.4144   0.4144   0.4254   0.4254   0.4635   0.4635
     0.5009   0.5009   0.6459   0.6459   0.6680   0.6680   0.6747   0.6747
     6.2084   6.2084   6.3621   6.3621   6.3930   6.3930   6.6619   6.6619
     6.9059   6.9059   7.0396   7.0396   7.1169   7.1169   7.1487   7.1487
     7.2389   7.2390   7.3236   7.3236   7.3729   7.3729   7.6671   7.6671
     7.6883   7.6883   7.7402   7.7402   7.8458   7.8458   7.8647   7.8647
     7.9546   7.9546   7.9587   7.9587   7.9768   7.9768   8.3135   8.3135
     8.4165   8.4166   8.5864   8.5864   8.8435   8.8435   8.9718   8.9718
     9.1211   9.1211   9.1433   9.1433   9.1456   9.1456   9.3055   9.3056
     9.3905   9.3905   9.6298   9.6298   9.6952   9.6952   9.7331   9.7331
     9.7667   9.7667   9.8365   9.8365   9.9018   9.9018  10.1139  10.1139
    12.7476  12.7476  13.2174  13.2175  13.2575  13.2575  13.2973  13.2973
    13.3204  13.3204  13.9261  13.9261  13.9266  13.9266  14.0012  14.0012
    14.0177  14.0177  14.1593  14.1593  14.1887  14.1887  14.3838  14.3838
    14.8611  14.8611  15.2921  15.2921  15.3421  15.3421  15.7792  15.7792
    16.5896  16.5896  16.6596  16.6596  16.7555  16.7555  17.0961  17.0961

          k = 0.1667-0.5000 0.3297 ( 41930 PWs)   bands (ev):

   -46.1063 -46.1063 -46.1059 -46.1059 -46.1054 -46.1054 -46.1050 -46.1050
   -22.4284 -22.4284 -22.4260 -22.4260 -22.4047 -22.4047 -22.4027 -22.4027
   -22.3820 -22.3820 -22.3806 -22.3806 -22.3602 -22.3602 -22.3589 -22.3589
   -22.3579 -22.3579 -22.3568 -22.3568 -22.3359 -22.3359 -22.3350 -22.3350
   -14.3700 -14.3700 -14.3254 -14.3254 -14.2892 -14.2891 -14.2557 -14.2557
    -6.5207  -6.5207  -6.4270  -6.4270  -6.4000  -6.4000  -6.1206  -6.1206
    -5.8693  -5.8693  -5.8535  -5.8535  -5.7648  -5.7648  -5.7610  -5.7610
    -5.7411  -5.7410  -5.7298  -5.7298  -5.6604  -5.6604  -5.6581  -5.6581
     0.0241   0.0241   0.0835   0.0836   0.2123   0.2123   0.3333   0.3334
     0.3380   0.3380   0.3669   0.3669   0.4238   0.4239   0.4389   0.4389
     0.4563   0.4563   0.6600   0.6600   0.7031   0.7031   0.7181   0.7181
     6.3151   6.3151   6.3782   6.3782   6.5979   6.5979   6.8400   6.8400
     7.0289   7.0289   7.0354   7.0354   7.0438   7.0438   7.1042   7.1042
     7.2722   7.2722   7.3757   7.3758   7.4296   7.4296   7.5149   7.5149
     7.6001   7.6002   7.7810   7.7810   7.7829   7.7829   7.8912   7.8912
     7.9089   7.9090   7.9834   7.9834   8.0289   8.0289   8.0686   8.0686
     8.3077   8.3077   8.3242   8.3243   8.7540   8.7540   8.8295   8.8295
     9.2304   9.2304   9.2913   9.2913   9.2942   9.2942   9.4150   9.4150
     9.4338   9.4338   9.5437   9.5437   9.5602   9.5602   9.7194   9.7194
     9.7845   9.7845   9.8234   9.8234   9.8768   9.8768   9.9793   9.9793
    13.0011  13.0011  13.2495  13.2495  13.2752  13.2752  13.3665  13.3665
    13.5009  13.5009  13.6934  13.6934  13.8016  13.8016  13.9840  13.9840
    13.9960  13.9960  14.0547  14.0547  14.1413  14.1413  14.2613  14.2613
    15.1227  15.1227  15.3252  15.3252  15.7891  15.7891  16.0022  16.0022
    16.6185  16.6186  16.7996  16.7996  16.8442  16.8442  17.0954  17.0956

          k = 0.1667-0.5000-0.4946 ( 41964 PWs)   bands (ev):

   -46.1061 -46.1061 -46.1061 -46.1061 -46.1052 -46.1052 -46.1052 -46.1052
   -22.4166 -22.4166 -22.4166 -22.4166 -22.4143 -22.4143 -22.4143 -22.4143
   -22.3813 -22.3813 -22.3813 -22.3813 -22.3596 -22.3596 -22.3596 -22.3596
   -22.3574 -22.3574 -22.3573 -22.3573 -22.3355 -22.3355 -22.3354 -22.3354
   -14.3479 -14.3479 -14.3478 -14.3478 -14.2725 -14.2725 -14.2725 -14.2724
    -6.4605  -6.4605  -6.4604  -6.4604  -6.2677  -6.2677  -6.2676  -6.2676
    -5.8747  -5.8747  -5.8746  -5.8746  -5.7541  -5.7541  -5.7540  -5.7540
    -5.7376  -5.7376  -5.7375  -5.7375  -5.6622  -5.6622  -5.6621  -5.6621
     0.0949   0.0949   0.0950   0.0950   0.2042   0.2042   0.2042   0.2042
     0.3392   0.3392   0.3392   0.3392   0.4326   0.4326   0.4326   0.4326
     0.5750   0.5750   0.5750   0.5750   0.7304   0.7304   0.7304   0.7304
     6.3597   6.3598   6.3598   6.3599   6.8595   6.8595   6.8596   6.8596
     7.0078   7.0078   7.0078   7.0078   7.2472   7.2472   7.2472   7.2472
     7.2472   7.2473   7.2473   7.2473   7.3899   7.3899   7.3900   7.3900
     7.6199   7.6199   7.6199   7.6200   7.8914   7.8914   7.8914   7.8914
     7.8915   7.8915   7.8916   7.8916   8.0840   8.0840   8.0840   8.0840
     8.1714   8.1714   8.1715   8.1715   8.7269   8.7269   8.7269   8.7269
     9.3222   9.3222   9.3223   9.3223   9.4113   9.4113   9.4113   9.4113
     9.4589   9.4589   9.4590   9.4590   9.6924   9.6924   9.6924   9.6924
     9.7697   9.7697   9.7697   9.7697   9.8695   9.8695   9.8696   9.8696
    13.2274  13.2274  13.2274  13.2275  13.3891  13.3891  13.3892  13.3892
    13.5616  13.5616  13.5617  13.5617  13.7412  13.7413  13.7413  13.7413
    14.0846  14.0846  14.0846  14.0846  14.1286  14.1286  14.1286  14.1286
    15.2715  15.2715  15.2715  15.2715  16.3282  16.3282  16.3283  16.3284
    16.4178  16.4179  16.4180  16.4180  17.1863  17.1864  17.1865  17.1865

          k = 0.3333 0.3333 0.0000 ( 41914 PWs)   bands (ev):

   -46.1066 -46.1061 -46.1061 -46.1057 -46.1055 -46.1052 -46.1052 -46.1047
   -22.4405 -22.4388 -22.4388 -22.4374 -22.3929 -22.3919 -22.3919 -22.3908
   -22.3737 -22.3737 -22.3724 -22.3719 -22.3710 -22.3710 -22.3699 -22.3696
   -22.3471 -22.3465 -22.3456 -22.3456 -22.3449 -22.3445 -22.3436 -22.3436
   -14.4015 -14.3463 -14.3462 -14.3084 -14.3019 -14.2702 -14.2701 -14.2346
    -6.5986  -6.5986  -6.5445  -6.4663  -6.4465  -6.1812  -6.1812  -5.8992
    -5.8478  -5.8289  -5.8289  -5.8201  -5.8201  -5.7945  -5.7945  -5.7609
    -5.7594  -5.7295  -5.7207  -5.6944  -5.6944  -5.6736  -5.6736  -5.6282
    -0.1560   0.0035   0.1408   0.1408   0.1610   0.2824   0.3090   0.3090
     0.3189   0.3575   0.4013   0.4013   0.4472   0.5291   0.5356   0.5356
     0.5371   0.5371   0.5557   0.5926   0.6361   0.6392   0.6602   0.6603
     6.1841   6.2333   6.2333   6.2850   6.4889   6.7112   6.7112   6.7239
     6.7239   6.8071   6.9624   6.9683   6.9751   6.9751   6.9820   7.0875
     7.3336   7.4001   7.4886   7.4886   7.5488   7.5532   7.6069   7.6069
     7.7314   7.7531   7.7531   7.7652   7.7966   7.7966   7.8448   7.8448
     7.8958   7.9271   7.9480   7.9683   7.9903   8.2607   8.2607   8.3107
     8.3107   8.3594   8.5924   8.6171   8.6171   8.6268   8.7800   8.9158
     9.0889   9.0889   9.1749   9.2180   9.3050   9.3449   9.3994   9.4148
     9.4751   9.4751   9.5134   9.5134   9.5287   9.5287   9.7088   9.7088
     9.8150   9.8807   9.8830   9.9267   9.9983   9.9983  10.0586  10.0703
    12.7620  12.8889  12.8889  12.9385  13.0280  13.1640  13.5351  13.6073
    13.6073  13.6599  13.6599  13.7019  13.7957  13.7957  13.9791  14.0086
    14.0463  14.0880  14.0880  14.1958  14.2470  14.2470  14.3545  14.3724
    14.9021  14.9532  14.9532  15.1400  15.5081  15.5499  16.0087  16.0087
    16.3848  16.3886  16.3912  16.3912  16.9926  17.0908  17.2358  17.2688

          k = 0.3333 0.3333 0.1649 ( 41964 PWs)   bands (ev):

   -46.1065 -46.1060 -46.1060 -46.1058 -46.1055 -46.1052 -46.1052 -46.1047
   -22.4373 -22.4357 -22.4357 -22.4343 -22.3961 -22.3950 -22.3950 -22.3940
   -22.3735 -22.3735 -22.3723 -22.3717 -22.3712 -22.3712 -22.3701 -22.3698
   -22.3470 -22.3464 -22.3455 -22.3455 -22.3450 -22.3447 -22.3438 -22.3438
   -14.3954 -14.3413 -14.3412 -14.3147 -14.2975 -14.2754 -14.2753 -14.2392
    -6.5695  -6.5695  -6.5260  -6.4576  -6.4147  -6.2032  -6.2032  -5.9519
    -5.8571  -5.8352  -5.8352  -5.8181  -5.8181  -5.7902  -5.7814  -5.7750
    -5.7525  -5.7339  -5.7219  -5.6936  -5.6936  -5.6800  -5.6800  -5.6375
    -0.1250  -0.0193   0.1602   0.1602   0.2471   0.2801   0.2801   0.2861
     0.2878   0.3529   0.3779   0.3779   0.4019   0.4125   0.4655   0.4655
     0.4823   0.5879   0.5879   0.6508   0.6852   0.7021   0.7136   0.7137
     6.2662   6.3148   6.3148   6.3783   6.4811   6.7033   6.7033   6.7306
     6.7306   6.8159   6.9621   6.9670   7.0070   7.0119   7.0120   7.1088
     7.3377   7.3568   7.4287   7.4287   7.5654   7.6221   7.6315   7.6315
     7.6799   7.6799   7.7398   7.7539   7.8595   7.8595   7.8627   7.8661
     7.8661   7.8955   7.9207   7.9554   7.9865   8.1273   8.1274   8.3034
     8.3034   8.3432   8.4842   8.5085   8.6255   8.6255   8.7332   8.8656
     9.1781   9.1842   9.1842   9.2974   9.3614   9.3631   9.4005   9.4005
     9.4465   9.4512   9.4643   9.4643   9.5922   9.5922   9.6812   9.6812
     9.7551   9.8501   9.8622   9.8804   9.9743   9.9743  10.0476  10.0607
    12.8464  12.9741  12.9741  12.9918  13.0460  13.1541  13.5913  13.6292
    13.6292  13.6733  13.6733  13.7352  13.7843  13.7843  13.9218  13.9635
    13.9939  14.0084  14.0084  14.1782  14.1848  14.1848  14.2942  14.3139
    15.0969  15.1339  15.1339  15.3484  15.5125  15.5474  16.0061  16.0061
    16.4134  16.4134  16.4672  16.4905  16.8901  17.1171  17.2647  17.3064

          k = 0.3333 0.3333 0.3297 ( 41953 PWs)   bands (ev):

   -46.1064 -46.1059 -46.1058 -46.1058 -46.1054 -46.1054 -46.1053 -46.1049
   -22.4287 -22.4272 -22.4272 -22.4258 -22.4049 -22.4037 -22.4037 -22.4025
   -22.3730 -22.3730 -22.3718 -22.3717 -22.3717 -22.3713 -22.3706 -22.3702
   -22.3466 -22.3460 -22.3454 -22.3451 -22.3451 -22.3450 -22.3441 -22.3441
   -14.3786 -14.3320 -14.3275 -14.3275 -14.2895 -14.2894 -14.2853 -14.2516
    -6.4895  -6.4895  -6.4829  -6.4425  -6.3263  -6.2732  -6.2732  -6.0651
    -5.8738  -5.8372  -5.8372  -5.8312  -5.8170  -5.8170  -5.7785  -5.7510
    -5.7460  -5.7290  -5.7262  -5.6956  -5.6956  -5.6931  -5.6930  -5.6627
    -0.0399  -0.0044   0.1973   0.2127   0.2127   0.2363   0.2506   0.2506
     0.3024   0.3159   0.3160   0.3399   0.3542   0.3732   0.3732   0.3984
     0.4083   0.6707   0.6776   0.6776   0.7317   0.7576   0.7576   0.7638
     6.4127   6.4694   6.4748   6.4748   6.6200   6.6496   6.6496   6.8464
     6.8464   6.9232   6.9616   6.9642   7.0780   7.1290   7.1290   7.1610
     7.2055   7.2676   7.2676   7.3954   7.6009   7.6009   7.6038   7.6648
     7.6811   7.6811   7.7003   7.7186   7.8108   7.8197   7.8197   7.8956
     7.8972   7.9081   7.9130   7.9130   8.0102   8.0102   8.0408   8.1684
     8.2569   8.2830   8.2830   8.2935   8.4624   8.4624   8.6482   8.7096
     9.3009   9.3488   9.3488   9.3595   9.3595   9.4037   9.4056   9.4790
     9.4790   9.5035   9.5319   9.5516   9.6233   9.6233   9.6402   9.6402
     9.6807   9.7407   9.7624   9.7967   9.8915   9.8915  10.0265  10.0389
    13.0128  13.1261  13.1493  13.1537  13.1969  13.1969  13.6822  13.6822
    13.6945  13.7274  13.7274  13.7334  13.7334  13.7386  13.7386  13.8152
    13.8152  13.8309  14.0303  14.0303  14.0350  14.1136  14.1467  14.1777
    15.5223  15.5394  15.5394  15.5411  15.5726  15.8736  15.9801  15.9801
    16.5131  16.5131  16.5898  16.6908  16.8023  17.0392  17.1726  17.1917

          k = 0.3333 0.3333-0.4946 ( 41948 PWs)   bands (ev):

   -46.1062 -46.1061 -46.1056 -46.1056 -46.1056 -46.1056 -46.1051 -46.1051
   -22.4168 -22.4168 -22.4154 -22.4154 -22.4154 -22.4154 -22.4142 -22.4142
   -22.3724 -22.3724 -22.3724 -22.3724 -22.3712 -22.3712 -22.3708 -22.3707
   -22.3460 -22.3460 -22.3456 -22.3455 -22.3446 -22.3446 -22.3446 -22.3446
   -14.3555 -14.3554 -14.3086 -14.3086 -14.3085 -14.3085 -14.2686 -14.2685
    -6.4469  -6.4468  -6.3798  -6.3798  -6.3797  -6.3797  -6.2005  -6.2003
    -5.8704  -5.8703  -5.8256  -5.8256  -5.8256  -5.8256  -5.7624  -5.7622
    -5.7353  -5.7352  -5.6989  -5.6989  -5.6988  -5.6987  -5.6963  -5.6962
     0.0777   0.0778   0.0850   0.0850   0.2591   0.2592   0.2592   0.2592
     0.2912   0.2913   0.2913   0.2913   0.3215   0.3216   0.3515   0.3516
     0.5667   0.5667   0.7439   0.7439   0.7439   0.7440   0.7753   0.7753
     6.4622   6.4624   6.5780   6.5780   6.5780   6.5780   6.9088   6.9089
     6.9620   6.9621   7.0654   7.0654   7.0655   7.0655   7.1112   7.1113
     7.3682   7.3682   7.3682   7.3682   7.4121   7.4122   7.4961   7.4962
     7.6623   7.6624   7.7302   7.7302   7.7303   7.7303   7.8989   7.8990
     7.9248   7.9248   7.9789   7.9789   7.9789   7.9789   8.0557   8.0558
     8.1388   8.1388   8.3056   8.3056   8.3056   8.3056   8.6124   8.6124
     9.3534   9.3534   9.3534   9.3534   9.4356   9.4357   9.5250   9.5251
     9.6040   9.6040   9.6041   9.6041   9.6309   9.6309   9.6465   9.6466
     9.6688   9.6689   9.7342   9.7342   9.7343   9.7343  10.0220  10.0222
    13.0829  13.0830  13.4082  13.4083  13.4340  13.4341  13.4872  13.4872
    13.4873  13.4873  13.7316  13.7316  13.7316  13.7317  13.8561  13.8561
    13.8561  13.8562  13.9350  13.9350  13.9763  13.9764  14.0938  14.0938
    15.5325  15.5325  15.8624  15.8624  15.8624  15.8624  16.1231  16.1232
    16.5061  16.5063  16.7909  16.7909  16.7910  16.7910  17.2208  17.2210

          k = 0.3333-0.5000 0.0000 ( 41940 PWs)   bands (ev):

   -46.1063 -46.1063 -46.1058 -46.1058 -46.1054 -46.1054 -46.1049 -46.1049
   -22.4397 -22.4397 -22.4381 -22.4381 -22.3924 -22.3924 -22.3913 -22.3913
   -22.3729 -22.3729 -22.3704 -22.3704 -22.3603 -22.3603 -22.3589 -22.3589
   -22.3579 -22.3579 -22.3567 -22.3567 -22.3462 -22.3462 -22.3442 -22.3442
   -14.3740 -14.3740 -14.3242 -14.3242 -14.2894 -14.2893 -14.2525 -14.2524
    -6.5596  -6.5596  -6.5160  -6.5160  -6.3301  -6.3301  -6.0451  -6.0450
    -5.8269  -5.8269  -5.8115  -5.8115  -5.7935  -5.7935  -5.7858  -5.7858
    -5.7558  -5.7558  -5.7103  -5.7103  -5.7075  -5.7075  -5.6592  -5.6592
    -0.0287  -0.0287   0.1538   0.1538   0.1908   0.1908   0.3454   0.3454
     0.3608   0.3608   0.3658   0.3658   0.4297   0.4297   0.4904   0.4905
     0.5724   0.5724   0.6057   0.6057   0.6217   0.6217   0.6419   0.6419
     6.2225   6.2225   6.2702   6.2702   6.6331   6.6331   6.8169   6.8169
     6.8845   6.8846   7.0782   7.0782   7.1008   7.1008   7.1940   7.1940
     7.2961   7.2961   7.3374   7.3375   7.3705   7.3706   7.5639   7.5639
     7.6057   7.6057   7.7616   7.7616   7.8794   7.8794   7.8809   7.8809
     7.9187   7.9187   8.0659   8.0660   8.0747   8.0747   8.0993   8.0993
     8.4070   8.4070   8.5071   8.5071   8.5505   8.5506   8.6754   8.6754
     9.1899   9.1899   9.1986   9.1986   9.3596   9.3597   9.3853   9.3853
     9.4396   9.4397   9.6501   9.6501   9.6749   9.6749   9.7363   9.7364
     9.7377   9.7377   9.8165   9.8165   9.9246   9.9246  10.0051  10.0051
    12.8491  12.8492  13.2231  13.2231  13.2413  13.2413  13.3321  13.3321
    13.4821  13.4821  13.6326  13.6326  13.7919  13.7919  13.9888  13.9888
    14.0537  14.0537  14.1192  14.1192  14.2097  14.2098  14.3062  14.3062
    14.9509  14.9509  15.0962  15.0962  15.8498  15.8498  16.0074  16.0074
    16.6244  16.6244  16.7922  16.7923  16.8387  16.8387  16.9712  16.9712

          k = 0.3333-0.5000 0.1649 ( 41956 PWs)   bands (ev):

   -46.1063 -46.1063 -46.1057 -46.1057 -46.1055 -46.1055 -46.1050 -46.1050
   -22.4365 -22.4365 -22.4350 -22.4350 -22.3956 -22.3956 -22.3945 -22.3945
   -22.3728 -22.3728 -22.3706 -22.3706 -22.3602 -22.3602 -22.3588 -22.3588
   -22.3581 -22.3581 -22.3569 -22.3569 -22.3461 -22.3461 -22.3443 -22.3443
   -14.3685 -14.3685 -14.3195 -14.3195 -14.2951 -14.2951 -14.2573 -14.2573
    -6.5354  -6.5354  -6.4856  -6.4856  -6.3318  -6.3317  -6.0760  -6.0760
    -5.8307  -5.8307  -5.8112  -5.8112  -5.8096  -5.8096  -5.7815  -5.7815
    -5.7570  -5.7570  -5.7131  -5.7131  -5.7109  -5.7109  -5.6649  -5.6649
    -0.0035  -0.0035   0.1242   0.1242   0.2028   0.2028   0.3171   0.3171
     0.3549   0.3549   0.3810   0.3810   0.4247   0.4247   0.4347   0.4347
     0.4434   0.4434   0.6634   0.6634   0.7034   0.7034   0.7084   0.7084
     6.3067   6.3067   6.3581   6.3581   6.6146   6.6146   6.8157   6.8157
     6.9055   6.9055   7.0358   7.0358   7.1104   7.1104   7.1731   7.1731
     7.3281   7.3281   7.3668   7.3668   7.3820   7.3820   7.5757   7.5757
     7.6064   7.6064   7.7766   7.7766   7.7876   7.7876   7.8843   7.8843
     7.9321   7.9321   8.0395   8.0395   8.0491   8.0491   8.1149   8.1149
     8.2925   8.2926   8.4708   8.4708   8.4820   8.4820   8.6427   8.6427
     9.2564   9.2564   9.2767   9.2767   9.3474   9.3475   9.3670   9.3670
     9.5027   9.5027   9.6021   9.6021   9.6349   9.6349   9.7400   9.7400
     9.7600   9.7600   9.7863   9.7863   9.9077   9.9077   9.9789   9.9789
    12.9330  12.9330  13.2771  13.2771  13.2903  13.2903  13.3474  13.3474
    13.4712  13.4712  13.6634  13.6634  13.8065  13.8065  13.9708  13.9708
    13.9733  13.9734  14.0439  14.0440  14.1390  14.1390  14.2454  14.2454
    15.1380  15.1380  15.2992  15.2992  15.8521  15.8521  16.0180  16.0180
    16.6298  16.6298  16.8386  16.8386  16.8762  16.8762  17.0333  17.0333

          k = 0.3333-0.5000 0.3297 ( 41962 PWs)   bands (ev):

   -46.1061 -46.1061 -46.1057 -46.1057 -46.1056 -46.1056 -46.1051 -46.1051
   -22.4279 -22.4279 -22.4265 -22.4265 -22.4043 -22.4043 -22.4031 -22.4031
   -22.3723 -22.3723 -22.3710 -22.3710 -22.3597 -22.3597 -22.3585 -22.3585
   -22.3584 -22.3584 -22.3573 -22.3573 -22.3457 -22.3457 -22.3447 -22.3447
   -14.3532 -14.3532 -14.3109 -14.3108 -14.3065 -14.3065 -14.2706 -14.2706
    -6.4725  -6.4725  -6.4014  -6.4014  -6.3484  -6.3484  -6.1636  -6.1636
    -5.8442  -5.8442  -5.8437  -5.8437  -5.7994  -5.7994  -5.7756  -5.7756
    -5.7529  -5.7529  -5.7223  -5.7223  -5.7151  -5.7151  -5.6812  -5.6812
     0.0641   0.0641   0.1138   0.1138   0.2355   0.2355   0.2384   0.2384
     0.2978   0.2978   0.3216   0.3216   0.3253   0.3253   0.3415   0.3415
     0.5690   0.5690   0.7391   0.7391   0.7458   0.7458   0.7725   0.7725
     6.4637   6.4637   6.5640   6.5640   6.5736   6.5736   6.8977   6.8977
     6.9191   6.9191   7.0143   7.0143   7.1270   7.1270   7.1450   7.1450
     7.3641   7.3641   7.4030   7.4031   7.4658   7.4658   7.4817   7.4817
     7.6497   7.6497   7.7302   7.7302   7.7442   7.7442   7.8992   7.8992
     7.9607   7.9607   7.9781   7.9782   7.9854   7.9854   8.0956   8.0956
     8.1253   8.1253   8.2265   8.2265   8.3897   8.3897   8.4690   8.4690
     9.3576   9.3576   9.3934   9.3934   9.4185   9.4185   9.4737   9.4737
     9.5726   9.5726   9.5774   9.5775   9.5792   9.5793   9.7224   9.7224
     9.7327   9.7327   9.7596   9.7596   9.8697   9.8697   9.9029   9.9029
    13.1498  13.1498  13.3652  13.3652  13.4170  13.4171  13.4391  13.4391
    13.4668  13.4668  13.7532  13.7532  13.7540  13.7540  13.8478  13.8478
    13.8481  13.8481  13.9136  13.9136  13.9721  13.9721  14.0934  14.0934
    15.5551  15.5551  15.8020  15.8020  15.8504  15.8504  16.0882  16.0883
    16.6099  16.6100  16.8427  16.8427  16.8476  16.8476  17.1468  17.1468

          k = 0.3333-0.5000-0.4946 ( 41924 PWs)   bands (ev):

   -46.1059 -46.1059 -46.1059 -46.1059 -46.1054 -46.1054 -46.1054 -46.1054
   -22.4161 -22.4161 -22.4161 -22.4161 -22.4148 -22.4148 -22.4148 -22.4148
   -22.3717 -22.3717 -22.3717 -22.3717 -22.3591 -22.3591 -22.3591 -22.3591
   -22.3578 -22.3578 -22.3578 -22.3578 -22.3452 -22.3452 -22.3452 -22.3452
   -14.3322 -14.3322 -14.3321 -14.3321 -14.2887 -14.2887 -14.2886 -14.2886
    -6.3987  -6.3987  -6.3986  -6.3986  -6.2838  -6.2838  -6.2837  -6.2837
    -5.8563  -5.8563  -5.8562  -5.8562  -5.7835  -5.7835  -5.7834  -5.7834
    -5.7389  -5.7389  -5.7388  -5.7388  -5.7025  -5.7025  -5.7024  -5.7024
     0.1437   0.1437   0.1438   0.1438   0.1814   0.1814   0.1814   0.1814
     0.2799   0.2799   0.2800   0.2800   0.3052   0.3052   0.3052   0.3053
     0.6853   0.6853   0.6854   0.6854   0.7889   0.7889   0.7890   0.7890
     6.5336   6.5336   6.5337   6.5337   6.7601   6.7601   6.7602   6.7602
     7.0605   7.0605   7.0605   7.0605   7.2512   7.2512   7.2513   7.2513
     7.2716   7.2716   7.2717   7.2717   7.5105   7.5105   7.5106   7.5106
     7.6011   7.6011   7.6011   7.6011   7.9046   7.9046   7.9047   7.9047
     7.9106   7.9107   7.9107   7.9107   8.0149   8.0149   8.0149   8.0149
     8.0649   8.0649   8.0649   8.0649   8.3443   8.3443   8.3444   8.3444
     9.4425   9.4425   9.4426   9.4426   9.4794   9.4794   9.4794   9.4794
     9.6142   9.6142   9.6143   9.6143   9.6654   9.6654   9.6654   9.6654
     9.6995   9.6995   9.6995   9.6995   9.8473   9.8473   9.8475   9.8475
    13.3730  13.3730  13.3731  13.3731  13.4871  13.4872  13.4872  13.4872
    13.6080  13.6080  13.6081  13.6081  13.7011  13.7012  13.7012  13.7012
    13.8765  13.8765  13.8765  13.8765  13.9280  13.9280  13.9280  13.9280
    15.8071  15.8071  15.8071  15.8072  16.3565  16.3566  16.3567  16.3567
    16.4068  16.4068  16.4069  16.4069  16.8908  16.8908  16.8908  16.8908

          k =-0.5000-0.5000 0.0000 ( 41836 PWs)   bands (ev):

   -46.1061 -46.1061 -46.1061 -46.1061 -46.1052 -46.1052 -46.1052 -46.1052
   -22.4389 -22.4389 -22.4389 -22.4389 -22.3919 -22.3919 -22.3919 -22.3919
   -22.3600 -22.3600 -22.3600 -22.3600 -22.3592 -22.3592 -22.3592 -22.3592
   -22.3575 -22.3575 -22.3575 -22.3575 -22.3571 -22.3571 -22.3571 -22.3571
   -14.3493 -14.3493 -14.3493 -14.3493 -14.2710 -14.2710 -14.2710 -14.2710
    -6.5257  -6.5257  -6.5257  -6.5257  -6.1936  -6.1936  -6.1936  -6.1936
    -5.8017  -5.8017  -5.8017  -5.8017  -5.7783  -5.7782  -5.7782  -5.7782
    -5.7756  -5.7756  -5.7756  -5.7756  -5.6798  -5.6797  -5.6797  -5.6797
     0.0555   0.0555   0.0555   0.0555   0.2890   0.2890   0.2891   0.2891
     0.3387   0.3387   0.3387   0.3387   0.5047   0.5047   0.5047   0.5047
     0.5339   0.5339   0.5340   0.5340   0.6464   0.6464   0.6464   0.6464
     6.2601   6.2601   6.2601   6.2601   6.8936   6.8936   6.8936   6.8936
     6.9106   6.9107   6.9107   6.9107   7.3029   7.3029   7.3029   7.3029
     7.3161   7.3162   7.3162   7.3162   7.3693   7.3693   7.3693   7.3693
     7.6955   7.6955   7.6955   7.6956   7.8489   7.8489   7.8489   7.8489
     7.9065   7.9065   7.9065   7.9066   8.2211   8.2211   8.2211   8.2211
     8.2416   8.2417   8.2417   8.2417   8.5209   8.5209   8.5209   8.5209
     9.2559   9.2559   9.2559   9.2559   9.4837   9.4837   9.4837   9.4837
     9.5177   9.5177   9.5177   9.5177   9.6880   9.6880   9.6880   9.6880
     9.7764   9.7764   9.7764   9.7765   9.8985   9.8985   9.8985   9.8985
    13.1219  13.1219  13.1219  13.1219  13.3412  13.3412  13.3412  13.3412
    13.5368  13.5368  13.5368  13.5368  13.7313  13.7313  13.7313  13.7313
    14.1455  14.1455  14.1455  14.1455  14.1806  14.1806  14.1806  14.1806
    15.0664  15.0665  15.0665  15.0665  16.3601  16.3601  16.3601  16.3601
    16.4415  16.4415  16.4415  16.4415  17.1346  17.3235  17.3267  17.3278

          k =-0.5000-0.5000 0.1649 ( 41912 PWs)   bands (ev):

   -46.1060 -46.1060 -46.1060 -46.1060 -46.1052 -46.1052 -46.1052 -46.1052
   -22.4358 -22.4358 -22.4358 -22.4358 -22.3950 -22.3950 -22.3950 -22.3950
   -22.3598 -22.3598 -22.3598 -22.3598 -22.3591 -22.3591 -22.3591 -22.3591
   -22.3577 -22.3577 -22.3577 -22.3577 -22.3572 -22.3572 -22.3572 -22.3572
   -14.3442 -14.3441 -14.3441 -14.3441 -14.2764 -14.2763 -14.2763 -14.2763
    -6.4984  -6.4984  -6.4984  -6.4984  -6.2046  -6.2046  -6.2046  -6.2046
    -5.8127  -5.8127  -5.8127  -5.8127  -5.7837  -5.7836  -5.7836  -5.7836
    -5.7719  -5.7719  -5.7719  -5.7719  -5.6866  -5.6866  -5.6866  -5.6866
     0.0746   0.0746   0.0746   0.0746   0.2482   0.2482   0.2483   0.2483
     0.3199   0.3199   0.3199   0.3199   0.4317   0.4317   0.4317   0.4317
     0.5734   0.5734   0.5735   0.5735   0.7255   0.7255   0.7255   0.7255
     6.3470   6.3470   6.3470   6.3470   6.8542   6.8542   6.8542   6.8542
     6.9038   6.9038   6.9038   6.9038   7.3055   7.3055   7.3055   7.3055
     7.3639   7.3639   7.3639   7.3639   7.3957   7.3957   7.3957   7.3958
     7.6095   7.6095   7.6095   7.6095   7.9020   7.9020   7.9020   7.9020
     7.9129   7.9130   7.9130   7.9130   8.1792   8.1792   8.1792   8.1792
     8.1864   8.1864   8.1864   8.1864   8.4509   8.4509   8.4509   8.4509
     9.3323   9.3323   9.3323   9.3323   9.4473   9.4473   9.4473   9.4473
     9.5330   9.5330   9.5330   9.5330   9.6860   9.6860   9.6860   9.6860
     9.7791   9.7791   9.7791   9.7791   9.8751   9.8751   9.8751   9.8752
    13.1935  13.1935  13.1935  13.1935  13.3770  13.3770  13.3770  13.3770
    13.5523  13.5523  13.5523  13.5523  13.7175  13.7175  13.7175  13.7175
    14.0704  14.0704  14.0704  14.0705  14.1089  14.1090  14.1090  14.1090
    15.2695  15.2695  15.2695  15.2695  16.3688  16.3688  16.3688  16.3688
    16.4382  16.4382  16.4382  16.4382  17.2213  17.2213  17.2213  17.2213

          k =-0.5000-0.5000 0.3297 ( 41880 PWs)   bands (ev):

   -46.1058 -46.1058 -46.1058 -46.1058 -46.1054 -46.1054 -46.1054 -46.1054
   -22.4272 -22.4272 -22.4272 -22.4272 -22.4037 -22.4037 -22.4037 -22.4037
   -22.3594 -22.3594 -22.3594 -22.3594 -22.3587 -22.3587 -22.3587 -22.3587
   -22.3581 -22.3581 -22.3581 -22.3581 -22.3576 -22.3576 -22.3576 -22.3576
   -14.3300 -14.3300 -14.3300 -14.3300 -14.2909 -14.2908 -14.2908 -14.2908
    -6.4247  -6.4246  -6.4246  -6.4246  -6.2476  -6.2476  -6.2476  -6.2476
    -5.8284  -5.8284  -5.8284  -5.8284  -5.8039  -5.8039  -5.8039  -5.8039
    -5.7543  -5.7543  -5.7543  -5.7542  -5.7050  -5.7050  -5.7050  -5.7050
     0.1267   0.1267   0.1267   0.1267   0.2092   0.2092   0.2093   0.2093
     0.2683   0.2683   0.2683   0.2683   0.3064   0.3064   0.3064   0.3064
     0.6877   0.6877   0.6877   0.6877   0.7852   0.7852   0.7852   0.7852
     6.5290   6.5290   6.5290   6.5290   6.7590   6.7590   6.7590   6.7591
     6.9836   6.9836   6.9836   6.9836   7.3144   7.3144   7.3144   7.3144
     7.3492   7.3492   7.3492   7.3492   7.4734   7.4734   7.4734   7.4734
     7.5844   7.5844   7.5844   7.5844   7.9335   7.9335   7.9335   7.9336
     7.9370   7.9370   7.9370   7.9370   8.0793   8.0793   8.0793   8.0793
     8.0803   8.0803   8.0803   8.0803   8.1897   8.1897   8.1897   8.1897
     9.4702   9.4702   9.4702   9.4702   9.4830   9.4830   9.4830   9.4830
     9.5708   9.5708   9.5708   9.5708   9.6583   9.6583   9.6583   9.6584
     9.7758   9.7758   9.7758   9.7758   9.8185   9.8185   9.8185   9.8185
    13.3798  13.3798  13.3798  13.3798  13.4861  13.4861  13.4861  13.4861
    13.5970  13.5970  13.5970  13.5970  13.6768  13.6769  13.6769  13.6769
    13.8830  13.8830  13.8830  13.8830  13.9193  13.9193  13.9193  13.9193
    15.7760  15.7760  15.7760  15.7760  16.3891  16.3891  16.3891  16.3891
    16.4280  16.4280  16.4280  16.4280  16.8963  16.8963  16.8963  16.8963

          k =-0.5000-0.5000-0.4946 ( 41912 PWs)   bands (ev):

   -46.1056 -46.1056 -46.1056 -46.1056 -46.1056 -46.1056 -46.1056 -46.1056
   -22.4155 -22.4155 -22.4155 -22.4155 -22.4155 -22.4155 -22.4155 -22.4155
   -22.3588 -22.3588 -22.3588 -22.3588 -22.3588 -22.3588 -22.3588 -22.3588
   -22.3582 -22.3582 -22.3582 -22.3582 -22.3581 -22.3581 -22.3581 -22.3581
   -14.3106 -14.3106 -14.3105 -14.3105 -14.3105 -14.3104 -14.3104 -14.3104
    -6.3292  -6.3292  -6.3292  -6.3292  -6.3291  -6.3291  -6.3291  -6.3291
    -5.8245  -5.8244  -5.8244  -5.8244  -5.8244  -5.8244  -5.8244  -5.8243
    -5.7299  -5.7299  -5.7299  -5.7299  -5.7298  -5.7298  -5.7298  -5.7298
     0.1976   0.1976   0.1976   0.1976   0.1977   0.1977   0.1977   0.1977
     0.2264   0.2264   0.2265   0.2265   0.2265   0.2265   0.2265   0.2265
     0.7702   0.7702   0.7702   0.7702   0.7702   0.7702   0.7702   0.7702
     6.6555   6.6555   6.6555   6.6556   6.6556   6.6556   6.6556   6.6556
     7.2410   7.2410   7.2410   7.2410   7.2411   7.2411   7.2411   7.2411
     7.3303   7.3303   7.3303   7.3303   7.3303   7.3304   7.3304   7.3304
     7.8473   7.8473   7.8473   7.8473   7.8473   7.8473   7.8473   7.8474
     7.9844   7.9844   7.9844   7.9844   7.9844   7.9844   7.9844   7.9845
     7.9899   7.9899   7.9899   7.9899   7.9900   7.9900   7.9900   7.9900
     9.5764   9.5764   9.5764   9.5764   9.5764   9.5764   9.5764   9.5764
     9.5816   9.5816   9.5816   9.5816   9.5816   9.5816   9.5816   9.5816
     9.7722   9.7722   9.7722   9.7722   9.7723   9.7723   9.7723   9.7723
    13.5914  13.5914  13.5914  13.5914  13.5914  13.5915  13.5915  13.5915
    13.6649  13.6649  13.6649  13.6649  13.6649  13.6649  13.6649  13.6649
    13.6947  13.6947  13.6947  13.6947  13.6947  13.6947  13.6947  13.6948
    16.3788  16.3788  16.3788  16.3788  16.3789  16.3790  16.3790  16.3790
    16.4109  16.4109  16.4109  16.4109  16.4109  16.4109  16.4109  16.4109

     highest occupied, lowest unoccupied level (ev):    10.4077   12.2289

!    total energy              =   -5964.63493857 Ry
     total all-electron energy =   -147449.088511 Ry
     estimated scf accuracy    <          8.0E-11 Ry

     The total energy is the sum of the following terms:
     one-electron contribution =    -550.51935195 Ry
     hartree contribution      =     483.91508746 Ry
     xc contribution           =    -491.51351363 Ry
     ewald contribution        =   -1653.96634398 Ry
     one-center paw contrib.   =   -3752.55081646 Ry

     convergence has been achieved in   8 iterations

     Forces acting on atoms (cartesian axes, Ry/au):

     atom    1 type  1   force =     0.00000000    0.00000000   -0.00097909
     atom    2 type  1   force =     0.00000000    0.00000000   -0.00094737
     atom    3 type  1   force =     0.00000000    0.00000000   -0.00096761
     atom    4 type  1   force =     0.00000000    0.00000000   -0.00095400
     atom    5 type  1   force =     0.00000000    0.00000000   -0.00096761
     atom    6 type  1   force =     0.00000000    0.00000000   -0.00095400
     atom    7 type  1   force =     0.00000000    0.00000000   -0.00098354
     atom    8 type  1   force =     0.00000000    0.00000000   -0.00094571
     atom    9 type  2   force =    -0.00000006   -0.00000006    0.00025899
     atom   10 type  2   force =    -0.00000068   -0.00000068    0.00026920
     atom   11 type  2   force =    -0.00000006    0.00000006    0.00025899
     atom   12 type  2   force =    -0.00000068    0.00000068    0.00026920
     atom   13 type  2   force =     0.00000006   -0.00000006    0.00025899
     atom   14 type  2   force =     0.00000068   -0.00000068    0.00026920
     atom   15 type  2   force =     0.00000006    0.00000006    0.00025899
     atom   16 type  2   force =     0.00000068    0.00000068    0.00026920
     atom   17 type  3   force =    -0.00000157   -0.00000157   -0.00015800
     atom   18 type  3   force =    -0.00000256   -0.00000256   -0.00014868
     atom   19 type  3   force =    -0.00000157    0.00000157   -0.00015800
     atom   20 type  3   force =    -0.00000256    0.00000256   -0.00014868
     atom   21 type  3   force =     0.00000157   -0.00000157   -0.00015800
     atom   22 type  3   force =     0.00000256   -0.00000256   -0.00014868
     atom   23 type  3   force =     0.00000157    0.00000157   -0.00015800
     atom   24 type  3   force =     0.00000256    0.00000256   -0.00014868
     atom   25 type  3   force =    -0.00000213    0.00000000    0.00042011
     atom   26 type  3   force =    -0.00000582    0.00000000    0.00042473
     atom   27 type  3   force =     0.00000050    0.00000000    0.00042444
     atom   28 type  3   force =     0.00000281    0.00000000    0.00043395
     atom   29 type  3   force =     0.00000213    0.00000000    0.00042011
     atom   30 type  3   force =     0.00000582    0.00000000    0.00042473
     atom   31 type  3   force =    -0.00000050    0.00000000    0.00042444
     atom   32 type  3   force =    -0.00000281    0.00000000    0.00043395
     atom   33 type  3   force =     0.00000000   -0.00000213    0.00042011
     atom   34 type  3   force =     0.00000000   -0.00000582    0.00042473
     atom   35 type  3   force =     0.00000000    0.00000213    0.00042011
     atom   36 type  3   force =     0.00000000    0.00000582    0.00042473
     atom   37 type  3   force =     0.00000000    0.00000050    0.00042444
     atom   38 type  3   force =     0.00000000    0.00000281    0.00043395
     atom   39 type  3   force =     0.00000000   -0.00000050    0.00042444
     atom   40 type  3   force =     0.00000000   -0.00000281    0.00043395

     Total force =     0.003325     Total SCF correction =     0.000003


     Computing stress (Cartesian axis) and pressure

          total   stress  (Ry/bohr**3)                   (kbar)     P=       42.21
   0.00025741   0.00000000   0.00000000           37.87        0.00        0.00
   0.00000000   0.00025741   0.00000000            0.00       37.87        0.00
   0.00000000   0.00000000   0.00034602            0.00        0.00       50.90


     Writing all to output data dir ./tmp/80_ecut_6_kmesh_PBE.save/ :
     XML data file, charge density, pseudopotentials, collected wavefunctions

     init_run     :      1.78s CPU      3.81s WALL (       1 calls)
     electrons    :     33.71s CPU     34.63s WALL (       1 calls)
     forces       :      0.88s CPU      0.91s WALL (       1 calls)
     stress       :      2.24s CPU      2.31s WALL (       1 calls)

     Called by init_run:
     wfcinit      :      0.63s CPU      2.59s WALL (       1 calls)
     potinit      :      0.45s CPU      0.51s WALL (       1 calls)
     hinit0       :      0.14s CPU      0.15s WALL (       1 calls)

     Called by electrons:
     c_bands      :     28.63s CPU     29.27s WALL (       9 calls)
     sum_band     :      3.86s CPU      4.00s WALL (       9 calls)
     v_of_rho     :      0.32s CPU      0.38s WALL (       9 calls)
     newd         :      0.42s CPU      0.44s WALL (       9 calls)
     PAW_pot      :      0.43s CPU      0.44s WALL (       9 calls)
     mix_rho      :      0.02s CPU      0.02s WALL (       9 calls)

     Called by c_bands:
     init_us_2    :      0.94s CPU      0.95s WALL (     100 calls)
     cegterg      :     25.64s CPU     26.25s WALL (      45 calls)

     Called by *egterg:
     cdiaghg      :      2.68s CPU      2.78s WALL (     150 calls)
     h_psi        :     13.50s CPU     13.77s WALL (     160 calls)
     s_psi        :      2.11s CPU      2.14s WALL (     160 calls)
     g_psi        :      0.03s CPU      0.03s WALL (     115 calls)

     Called by h_psi:
     h_psi:calbec :      2.57s CPU      2.65s WALL (     160 calls)
     vloc_psi     :      8.72s CPU      8.81s WALL (     160 calls)
                                        0.00s GPU  (     160 calls)
     add_vuspsi   :      2.10s CPU      2.13s WALL (     160 calls)

     General routines
     calbec       :      5.61s CPU      5.80s WALL (     290 calls)
     fft          :      0.30s CPU      0.39s WALL (     141 calls)
     ffts         :      0.31s CPU      0.31s WALL (      18 calls)
     fftw         :      9.85s CPU      9.94s WALL (   50828 calls)
     interpolate  :      0.33s CPU      0.33s WALL (       9 calls)

     Parallel routines

     PWSCF        :     39.98s CPU     44.66s WALL


   This run was terminated on:   0:16:36  21May2026            

=------------------------------------------------------------------------------=
   JOB DONE.
=------------------------------------------------------------------------------=
