
     Program PWSCF v.7.5 starts on 21May2026 at  0:16:23 

     This program is part of the open-source Quantum ESPRESSO suite
     for quantum simulation of materials; please cite
         "P. Giannozzi et al., J. Phys.:Condens. Matter 21 395502 (2009);
         "P. Giannozzi et al., J. Phys.:Condens. Matter 29 465901 (2017);
         "P. Giannozzi et al., J. Chem. Phys. 152 154105 (2020);
          URL http://www.quantum-espresso.org", 
     in publications or presentations arising from this work. More details at
     http://www.quantum-espresso.org/quote

     Parallel version (MPI & OpenMP), running on     192 processor cores
     Number of MPI processes:               192
     Threads/MPI process:                     1

     MPI processes distributed on     1 nodes
     259124 MiB available memory on the printing compute node when the environment starts

     Waiting for input...
     Reading input from standard input

     Current dimensions of program PWSCF are:
     Max number of different atomic species (ntypx) = 10
     Max number of k-points (npk) =  40000
     Max angular momentum in pseudopotentials (lmaxx) =  4
     file Ba.pbe-spn-kjpaw_psl.1.0.0.UPF: wavefunction(s)  5S 6S renormalized
     file Ti.pbe-spn-kjpaw_psl.1.0.0.UPF: wavefunction(s)  3S 3P 3D renormalized
     file O.pbe-n-kjpaw_psl.1.0.0.UPF: wavefunction(s)  2S 2P renormalized

     IMPORTANT: XC functional enforced from input :
     Exchange-correlation= PBE
                           (   1   4   3   4   0   0   0)
     Any further DFT definition will be discarded
     Please, verify this is what you really want

     Found identity + ( -0.5000 -0.5000  0.0000) symmetry
     This is a supercell, fractional translations are disabled

     K-points division:     npool     =       8
     R & G space division:  proc/nbgrp/npool/nimage =      24
     Subspace diagonalization in iterative solution of the eigenvalue problem:
     one sub-group per band group will be used
     ELPA distributed-memory algorithm (size of sub-group:  2*  2 procs)


     Parallelization info
     --------------------
     sticks:   dense  smooth     PW     G-vecs:    dense   smooth      PW
     Min         543     271     73                47197    16689    2333
     Max         545     272     74                47200    16692    2336
     Sum       13053    6525   1757              1132751   400585   56003

     Using Slab Decomposition



     bravais-lattice index     =            6
     lattice parameter (alat)  =      15.0876  a.u.
     unit-cell volume          =    3472.3239 (a.u.)^3
     number of atoms/cell      =           40
     number of atomic types    =            3
     number of electrons       =       320.00
     number of Kohn-Sham states=          200
     kinetic-energy cutoff     =      90.0000  Ry
     charge density cutoff     =     720.0000  Ry
     scf convergence threshold =      1.0E-10
     mixing beta               =       0.3000
     number of iterations used =           16  plain     mixing
     Exchange-correlation= PBE
                           (   1   4   3   4   0   0   0)

     celldm(1)=  15.087600  celldm(2)=   0.000000  celldm(3)=   1.011020
     celldm(4)=   0.000000  celldm(5)=   0.000000  celldm(6)=   0.000000

     crystal axes: (cart. coord. in units of alat)
               a(1) = (   1.000000   0.000000   0.000000 )  
               a(2) = (   0.000000   1.000000   0.000000 )  
               a(3) = (   0.000000   0.000000   1.011020 )  

     reciprocal axes: (cart. coord. in units 2 pi/alat)
               b(1) = (  1.000000  0.000000  0.000000 )  
               b(2) = (  0.000000  1.000000  0.000000 )  
               b(3) = (  0.000000  0.000000  0.989100 )  


     PseudoPot. # 1 for Ba read from file:
     /home/kylay/scratch/BTO/pseuds/Ba.pbe-spn-kjpaw_psl.1.0.0.UPF
     MD5 check sum: 7cfe25f1fe7574a4710541d5a11d6531
     Pseudo is Projector augmented-wave + core cor, Zval = 10.0
     Generated using &quot;atomic&quot; code by A. Dal Corso  v.6.2.2
     Shape of augmentation charge: PSQ
     Using radial grid of 1251 points,  7 beta functions with: 
                l(1) =   0
                l(2) =   0
                l(3) =   0
                l(4) =   1
                l(5) =   1
                l(6) =   2
                l(7) =   2
     Q(r) pseudized with 0 coefficients 


     PseudoPot. # 2 for Ti read from file:
     /home/kylay/scratch/BTO/pseuds/Ti.pbe-spn-kjpaw_psl.1.0.0.UPF
     MD5 check sum: 01f69b0d8ba4438b2e03ac6ea4af1c0b
     Pseudo is Projector augmented-wave + core cor, Zval = 12.0
     Generated using &quot;atomic&quot; code by A. Dal Corso  v.6.2.2
     Shape of augmentation charge: PSQ
     Using radial grid of 1177 points,  6 beta functions with: 
                l(1) =   0
                l(2) =   0
                l(3) =   1
                l(4) =   1
                l(5) =   2
                l(6) =   2
     Q(r) pseudized with 0 coefficients 


     PseudoPot. # 3 for O  read from file:
     /home/kylay/scratch/BTO/pseuds/O.pbe-n-kjpaw_psl.1.0.0.UPF
     MD5 check sum: e99d9cef9b487d1ca56f5b95ecd0fd7a
     Pseudo is Projector augmented-wave + core cor, Zval =  6.0
     Generated using &quot;atomic&quot; code by A. Dal Corso  v.6.3
     Shape of augmentation charge: PSQ
     Using radial grid of 1095 points,  4 beta functions with: 
                l(1) =   0
                l(2) =   0
                l(3) =   1
                l(4) =   1
     Q(r) pseudized with 0 coefficients 


     atomic species   valence    mass     pseudopotential
     Ba               10.00   137.32700     Ba( 1.00)
     Ti               12.00    47.86700     Ti( 1.00)
     O                 6.00    15.99900     O ( 1.00)

      8 Sym. Ops. (no inversion) found



   Cartesian axes

     site n.     atom                  positions (alat units)
         1        Ba     tau(   1) = (   0.0000000   0.0000000  -0.0010787  )
         2        Ba     tau(   2) = (   0.0000000   0.0000000   0.5044220  )
         3        Ba     tau(   3) = (   0.0000000   0.5000000  -0.0010832  )
         4        Ba     tau(   4) = (   0.0000000   0.5000000   0.5044235  )
         5        Ba     tau(   5) = (   0.5000000   0.0000000  -0.0010832  )
         6        Ba     tau(   6) = (   0.5000000   0.0000000   0.5044235  )
         7        Ba     tau(   7) = (   0.5000000   0.5000000  -0.0010766  )
         8        Ba     tau(   8) = (   0.5000000   0.5000000   0.5044202  )
         9        Ti     tau(   9) = (   0.2500002   0.2500002   0.2436990  )
        10        Ti     tau(  10) = (   0.2500007   0.2500007   0.7492042  )
        11        Ti     tau(  11) = (   0.2500002   0.7499998   0.2436990  )
        12        Ti     tau(  12) = (   0.2500007   0.7499993   0.7492042  )
        13        Ti     tau(  13) = (   0.7499998   0.2500002   0.2436990  )
        14        Ti     tau(  14) = (   0.7499993   0.2500007   0.7492042  )
        15        Ti     tau(  15) = (   0.7499998   0.7499998   0.2436990  )
        16        Ti     tau(  16) = (   0.7499993   0.7499993   0.7492042  )
        17        O      tau(  17) = (   0.2500011   0.2500011   0.0113903  )
        18        O      tau(  18) = (   0.2500007   0.2500007   0.5168954  )
        19        O      tau(  19) = (   0.2500011   0.7499989   0.0113903  )
        20        O      tau(  20) = (   0.2500007   0.7499993   0.5168954  )
        21        O      tau(  21) = (   0.7499989   0.2500011   0.0113903  )
        22        O      tau(  22) = (   0.7499993   0.2500007   0.5168954  )
        23        O      tau(  23) = (   0.7499989   0.7499989   0.0113903  )
        24        O      tau(  24) = (   0.7499993   0.7499993   0.5168954  )
        25        O      tau(  25) = (   0.2500005   0.0000000   0.2592128  )
        26        O      tau(  26) = (   0.2500020   0.0000000   0.7647195  )
        27        O      tau(  27) = (   0.2499999   0.5000000   0.2592107  )
        28        O      tau(  28) = (   0.2499998   0.5000000   0.7647148  )
        29        O      tau(  29) = (   0.7499995   0.0000000   0.2592128  )
        30        O      tau(  30) = (   0.7499980   0.0000000   0.7647195  )
        31        O      tau(  31) = (   0.7500001   0.5000000   0.2592107  )
        32        O      tau(  32) = (   0.7500002   0.5000000   0.7647148  )
        33        O      tau(  33) = (   0.0000000   0.2500005   0.2592128  )
        34        O      tau(  34) = (   0.0000000   0.2500020   0.7647195  )
        35        O      tau(  35) = (   0.0000000   0.7499995   0.2592128  )
        36        O      tau(  36) = (   0.0000000   0.7499980   0.7647195  )
        37        O      tau(  37) = (   0.5000000   0.2499999   0.2592107  )
        38        O      tau(  38) = (   0.5000000   0.2499998   0.7647148  )
        39        O      tau(  39) = (   0.5000000   0.7500001   0.2592107  )
        40        O      tau(  40) = (   0.5000000   0.7500002   0.7647148  )

     number of k points=    75
                       cart. coord. in units 2pi/alat
        k(    1) = (   0.0000000   0.0000000   0.0000000), wk =   0.0039062
        k(    2) = (   0.0000000   0.0000000   0.1236375), wk =   0.0078125
        k(    3) = (   0.0000000   0.0000000   0.2472750), wk =   0.0078125
        k(    4) = (   0.0000000   0.0000000   0.3709125), wk =   0.0078125
        k(    5) = (   0.0000000   0.0000000  -0.4945501), wk =   0.0039062
        k(    6) = (   0.0000000   0.1250000   0.0000000), wk =   0.0156250
        k(    7) = (   0.0000000   0.1250000   0.1236375), wk =   0.0312500
        k(    8) = (   0.0000000   0.1250000   0.2472750), wk =   0.0312500
        k(    9) = (   0.0000000   0.1250000   0.3709125), wk =   0.0312500
        k(   10) = (   0.0000000   0.1250000  -0.4945501), wk =   0.0156250
        k(   11) = (   0.0000000   0.2500000   0.0000000), wk =   0.0156250
        k(   12) = (   0.0000000   0.2500000   0.1236375), wk =   0.0312500
        k(   13) = (   0.0000000   0.2500000   0.2472750), wk =   0.0312500
        k(   14) = (   0.0000000   0.2500000   0.3709125), wk =   0.0312500
        k(   15) = (   0.0000000   0.2500000  -0.4945501), wk =   0.0156250
        k(   16) = (   0.0000000   0.3750000   0.0000000), wk =   0.0156250
        k(   17) = (   0.0000000   0.3750000   0.1236375), wk =   0.0312500
        k(   18) = (   0.0000000   0.3750000   0.2472750), wk =   0.0312500
        k(   19) = (   0.0000000   0.3750000   0.3709125), wk =   0.0312500
        k(   20) = (   0.0000000   0.3750000  -0.4945501), wk =   0.0156250
        k(   21) = (   0.0000000  -0.5000000   0.0000000), wk =   0.0078125
        k(   22) = (   0.0000000  -0.5000000   0.1236375), wk =   0.0156250
        k(   23) = (   0.0000000  -0.5000000   0.2472750), wk =   0.0156250
        k(   24) = (   0.0000000  -0.5000000   0.3709125), wk =   0.0156250
        k(   25) = (   0.0000000  -0.5000000  -0.4945501), wk =   0.0078125
        k(   26) = (   0.1250000   0.1250000   0.0000000), wk =   0.0156250
        k(   27) = (   0.1250000   0.1250000   0.1236375), wk =   0.0312500
        k(   28) = (   0.1250000   0.1250000   0.2472750), wk =   0.0312500
        k(   29) = (   0.1250000   0.1250000   0.3709125), wk =   0.0312500
        k(   30) = (   0.1250000   0.1250000  -0.4945501), wk =   0.0156250
        k(   31) = (   0.1250000   0.2500000   0.0000000), wk =   0.0312500
        k(   32) = (   0.1250000   0.2500000   0.1236375), wk =   0.0625000
        k(   33) = (   0.1250000   0.2500000   0.2472750), wk =   0.0625000
        k(   34) = (   0.1250000   0.2500000   0.3709125), wk =   0.0625000
        k(   35) = (   0.1250000   0.2500000  -0.4945501), wk =   0.0312500
        k(   36) = (   0.1250000   0.3750000   0.0000000), wk =   0.0312500
        k(   37) = (   0.1250000   0.3750000   0.1236375), wk =   0.0625000
        k(   38) = (   0.1250000   0.3750000   0.2472750), wk =   0.0625000
        k(   39) = (   0.1250000   0.3750000   0.3709125), wk =   0.0625000
        k(   40) = (   0.1250000   0.3750000  -0.4945501), wk =   0.0312500
        k(   41) = (   0.1250000  -0.5000000   0.0000000), wk =   0.0156250
        k(   42) = (   0.1250000  -0.5000000   0.1236375), wk =   0.0312500
        k(   43) = (   0.1250000  -0.5000000   0.2472750), wk =   0.0312500
        k(   44) = (   0.1250000  -0.5000000   0.3709125), wk =   0.0312500
        k(   45) = (   0.1250000  -0.5000000  -0.4945501), wk =   0.0156250
        k(   46) = (   0.2500000   0.2500000   0.0000000), wk =   0.0156250
        k(   47) = (   0.2500000   0.2500000   0.1236375), wk =   0.0312500
        k(   48) = (   0.2500000   0.2500000   0.2472750), wk =   0.0312500
        k(   49) = (   0.2500000   0.2500000   0.3709125), wk =   0.0312500
        k(   50) = (   0.2500000   0.2500000  -0.4945501), wk =   0.0156250
        k(   51) = (   0.2500000   0.3750000   0.0000000), wk =   0.0312500
        k(   52) = (   0.2500000   0.3750000   0.1236375), wk =   0.0625000
        k(   53) = (   0.2500000   0.3750000   0.2472750), wk =   0.0625000
        k(   54) = (   0.2500000   0.3750000   0.3709125), wk =   0.0625000
        k(   55) = (   0.2500000   0.3750000  -0.4945501), wk =   0.0312500
        k(   56) = (   0.2500000  -0.5000000   0.0000000), wk =   0.0156250
        k(   57) = (   0.2500000  -0.5000000   0.1236375), wk =   0.0312500
        k(   58) = (   0.2500000  -0.5000000   0.2472750), wk =   0.0312500
        k(   59) = (   0.2500000  -0.5000000   0.3709125), wk =   0.0312500
        k(   60) = (   0.2500000  -0.5000000  -0.4945501), wk =   0.0156250
        k(   61) = (   0.3750000   0.3750000   0.0000000), wk =   0.0156250
        k(   62) = (   0.3750000   0.3750000   0.1236375), wk =   0.0312500
        k(   63) = (   0.3750000   0.3750000   0.2472750), wk =   0.0312500
        k(   64) = (   0.3750000   0.3750000   0.3709125), wk =   0.0312500
        k(   65) = (   0.3750000   0.3750000  -0.4945501), wk =   0.0156250
        k(   66) = (   0.3750000  -0.5000000   0.0000000), wk =   0.0156250
        k(   67) = (   0.3750000  -0.5000000   0.1236375), wk =   0.0312500
        k(   68) = (   0.3750000  -0.5000000   0.2472750), wk =   0.0312500
        k(   69) = (   0.3750000  -0.5000000   0.3709125), wk =   0.0312500
        k(   70) = (   0.3750000  -0.5000000  -0.4945501), wk =   0.0156250
        k(   71) = (  -0.5000000  -0.5000000   0.0000000), wk =   0.0039062
        k(   72) = (  -0.5000000  -0.5000000   0.1236375), wk =   0.0078125
        k(   73) = (  -0.5000000  -0.5000000   0.2472750), wk =   0.0078125
        k(   74) = (  -0.5000000  -0.5000000   0.3709125), wk =   0.0078125
        k(   75) = (  -0.5000000  -0.5000000  -0.4945501), wk =   0.0039062

     Dense  grid:  1132751 G-vectors     FFT dimensions: ( 135, 135, 135)

     Smooth grid:   400585 G-vectors     FFT dimensions: (  96,  96,  96)

     Estimated max dynamical RAM per process >     176.99 MB

     Estimated total dynamical RAM >      29.40 GB

     The initial density is read from file :
     ./tmp/90_ecut_8_kmesh_PBE.save/charge-density

     Starting wfcs from file
     Checking if some PAW data can be deallocated... 

     total cpu time spent up to now is        8.0 secs

     per-process dynamical memory:   200.4 Mb

     Self-consistent Calculation

     iteration #  1     ecut=    90.00 Ry     beta= 0.30
     Davidson diagonalization with overlap
     ethr =  1.00E-05,  avg # of iterations =  1.1

     Threshold (ethr) on eigenvalues was too large:
     Diagonalizing with lowered threshold

     Davidson diagonalization with overlap
     ethr =  7.15E-12,  avg # of iterations =  5.1

     total cpu time spent up to now is       23.6 secs

     total energy              =   -5964.63708221 Ry
     estimated scf accuracy    <       0.00000003 Ry

     iteration #  2     ecut=    90.00 Ry     beta= 0.30
     Davidson diagonalization with overlap
     ethr =  9.48E-12,  avg # of iterations =  2.0

     total cpu time spent up to now is       31.0 secs

     total energy              =   -5964.63708221 Ry
     estimated scf accuracy    <          5.7E-09 Ry

     iteration #  3     ecut=    90.00 Ry     beta= 0.30
     Davidson diagonalization with overlap
     ethr =  1.77E-12,  avg # of iterations =  5.1

     total cpu time spent up to now is       40.2 secs

     total energy              =   -5964.63708222 Ry
     estimated scf accuracy    <          3.4E-10 Ry

     iteration #  4     ecut=    90.00 Ry     beta= 0.30
     Davidson diagonalization with overlap
     ethr =  1.06E-13,  avg # of iterations =  6.9

     total cpu time spent up to now is       53.0 secs

     End of self-consistent calculation

          k = 0.0000 0.0000 0.0000 ( 50063 PWs)   bands (ev):

   -46.1070 -46.1062 -46.1060 -46.1060 -46.1051 -46.1051 -46.1050 -46.1041
   -22.4424 -22.4388 -22.4388 -22.4361 -22.3941 -22.3920 -22.3920 -22.3899
   -22.3881 -22.3881 -22.3849 -22.3849 -22.3846 -22.3846 -22.3823 -22.3823
   -22.3340 -22.3340 -22.3321 -22.3321 -22.3319 -22.3319 -22.3301 -22.3301
   -14.4583 -14.3467 -14.3373 -14.3373 -14.2679 -14.2678 -14.2599 -14.1994
    -6.7735  -6.7735  -6.7211  -6.5306  -6.2523  -6.1393  -6.1393  -5.9049
    -5.9049  -5.9041  -5.8435  -5.8435  -5.8096  -5.7774  -5.7456  -5.7456
    -5.7425  -5.7425  -5.7340  -5.6681  -5.5747  -5.5747  -5.5131  -5.5131
    -0.3543  -0.3543  -0.2922   0.2988   0.2988   0.3149   0.3149   0.3647
     0.3704   0.3705   0.3743   0.3743   0.5274   0.5274   0.5323   0.5323
     0.5491   0.5491   0.7379   0.7422   0.7422   0.7625   0.7625   0.8063
     5.9194   6.0770   6.1021   6.1021   6.2943   6.2943   6.3335   6.3489
     6.4059   6.4059   6.5582   6.5582   6.5587   6.5800   6.5958   7.5252
     7.5252   7.5766   7.5766   7.6240   7.6240   7.6250   7.6250   7.6382
     7.6382   7.7374   7.7374   7.9229   7.9229   7.9524   8.0506   8.0853
     8.0853   8.0903   8.0904   8.3845   8.3845   8.4537   8.4572   8.4695
     8.4695   8.5500   8.5500   8.6149   8.6904   8.6904   8.7145   8.7145
     9.0492   9.0492   9.2278   9.3427   9.3428   9.3756   9.3756   9.4725
     9.4725   9.4812   9.4812   9.4995   9.4995   9.7140   9.7140   9.9942
    10.0590  10.0590  10.1756  10.1756  10.2458  10.2458  10.3371  10.4077
    12.2288  12.3750  12.5469  12.5469  12.6634  12.6634  13.9440  13.9440
    13.9725  13.9725  13.9999  14.0000  14.0060  14.0060  14.0207  14.0207
    14.0226  14.0226  14.3638  14.3638  14.3927  14.4621  14.4626  14.5490
    14.5490  14.6094  14.6094  14.6144  14.6172  15.0982  15.2983  15.2983
    15.3434  15.4898  16.2943  16.2943  16.4902  16.8974  17.1086  17.1086

          k = 0.0000 0.0000 0.1236 ( 50066 PWs)   bands (ev):

   -46.1070 -46.1062 -46.1060 -46.1060 -46.1052 -46.1052 -46.1049 -46.1041
   -22.4405 -22.4370 -22.4370 -22.4344 -22.3960 -22.3937 -22.3937 -22.3917
   -22.3880 -22.3880 -22.3850 -22.3850 -22.3845 -22.3845 -22.3824 -22.3824
   -22.3339 -22.3339 -22.3322 -22.3322 -22.3318 -22.3318 -22.3302 -22.3302
   -14.4542 -14.3511 -14.3347 -14.3347 -14.2705 -14.2705 -14.2576 -14.2017
    -6.7547  -6.7547  -6.7086  -6.5291  -6.2338  -6.1802  -6.1802  -5.9057
    -5.8867  -5.8867  -5.8413  -5.8413  -5.8084  -5.7786  -5.7551  -5.7366
    -5.7366  -5.7366  -5.7366  -5.6842  -5.5815  -5.5815  -5.5218  -5.5218
    -0.3308  -0.3308  -0.2595   0.2723   0.2723   0.3303   0.3303   0.3751
     0.3751   0.3799   0.3799   0.3819   0.5213   0.5213   0.5245   0.5245
     0.5561   0.5561   0.6895   0.7344   0.7344   0.7438   0.7438   0.7897
     5.9460   6.0778   6.1355   6.1355   6.3345   6.3345   6.3944   6.3988
     6.3988   6.4188   6.5806   6.5889   6.5889   6.5952   6.6014   7.5279
     7.5279   7.5753   7.5753   7.6138   7.6138   7.6479   7.6479   7.6586
     7.6586   7.7665   7.7665   7.8959   7.8959   7.8977   7.9195   7.9195
     7.9808   8.0744   8.0744   8.3978   8.3978   8.4787   8.5004   8.5041
     8.5045   8.5046   8.5167   8.5167   8.7089   8.7089   8.9067   8.9067
     9.0057   9.0057   9.1925   9.3088   9.3088   9.3959   9.3959   9.4186
     9.4186   9.4447   9.4447   9.4608   9.4608   9.7257   9.7257   9.9060
    10.0453  10.0453  10.1541  10.1541  10.1999  10.1999  10.3397  10.4049
    12.2341  12.3691  12.6113  12.6113  12.7214  12.7214  13.9452  13.9452
    13.9553  13.9553  13.9715  13.9715  13.9721  13.9721  14.0023  14.0023
    14.0425  14.0425  14.3381  14.3381  14.4008  14.4620  14.4622  14.5823
    14.5823  14.6083  14.6269  14.6269  14.7188  15.2209  15.2934  15.2934
    15.4179  15.5635  16.3393  16.3393  16.4374  16.8950  17.2047  17.2068

          k = 0.0000 0.0000 0.2473 ( 50054 PWs)   bands (ev):

   -46.1069 -46.1063 -46.1059 -46.1059 -46.1053 -46.1053 -46.1048 -46.1042
   -22.4353 -22.4320 -22.4320 -22.4294 -22.4013 -22.3989 -22.3989 -22.3967
   -22.3876 -22.3876 -22.3854 -22.3854 -22.3843 -22.3843 -22.3826 -22.3826
   -22.3337 -22.3337 -22.3324 -22.3324 -22.3316 -22.3316 -22.3304 -22.3304
   -14.4423 -14.3634 -14.3273 -14.3273 -14.2782 -14.2782 -14.2511 -14.2084
    -6.7001  -6.7001  -6.6740  -6.5296  -6.2745  -6.2745  -6.1808  -5.9046
    -5.8566  -5.8566  -5.8359  -5.8359  -5.8147  -5.8049  -5.7821  -5.7283
    -5.7193  -5.7193  -5.7112  -5.7112  -5.6008  -5.6008  -5.5468  -5.5468
    -0.2632  -0.2632  -0.1644   0.1977   0.1977   0.3749   0.3749   0.3890
     0.3890   0.3958   0.3958   0.4304   0.5030   0.5030   0.5041   0.5041
     0.5570   0.5760   0.5760   0.6914   0.6914   0.7124   0.7124   0.7423
     6.0025   6.0794   6.2092   6.2092   6.3798   6.3798   6.4533   6.4533
     6.5696   6.5823   6.5935   6.6127   6.6980   6.6980   6.7461   7.5352
     7.5352   7.5545   7.5545   7.5589   7.5589   7.5712   7.5713   7.7117
     7.7117   7.7118   7.7118   7.7399   7.7836   7.8498   7.8498   7.9075
     7.9075   8.0405   8.0405   8.2077   8.4232   8.4232   8.4386   8.4386
     8.5516   8.6177   8.6178   8.6269   8.7636   8.7636   8.8930   8.8930
     9.0953   9.2179   9.2180   9.2257   9.2257   9.2848   9.2848   9.3504
     9.3505   9.3698   9.3698   9.4591   9.4591   9.6782   9.7596   9.7596
    10.0056  10.0056  10.0750  10.0750  10.0858  10.0858  10.3473  10.3972
    12.2494  12.3527  12.7882  12.7882  12.8818  12.8818  13.8097  13.8097
    13.8334  13.8334  13.9486  13.9486  13.9687  13.9687  14.0140  14.0140
    14.0997  14.0997  14.2704  14.2704  14.4243  14.4614  14.4617  14.5090
    14.5090  14.5831  14.8124  14.8124  14.9916  15.2750  15.2750  15.5488
    15.6288  15.7779  16.2822  16.4832  16.4832  16.8642  17.0278  17.4499

          k = 0.0000 0.0000 0.3709 ( 49986 PWs)   bands (ev):

   -46.1068 -46.1064 -46.1057 -46.1057 -46.1054 -46.1054 -46.1047 -46.1044
   -22.4276 -22.4244 -22.4244 -22.4219 -22.4091 -22.4065 -22.4065 -22.4043
   -22.3871 -22.3871 -22.3859 -22.3859 -22.3839 -22.3839 -22.3830 -22.3830
   -22.3334 -22.3334 -22.3327 -22.3327 -22.3313 -22.3313 -22.3307 -22.3307
   -14.4245 -14.3818 -14.3162 -14.3161 -14.2896 -14.2895 -14.2414 -14.2182
    -6.6260  -6.6150  -6.6150  -6.5437  -6.3899  -6.3899  -6.0999  -5.9020
    -5.8876  -5.8363  -5.8363  -5.8302  -5.8302  -5.7997  -5.7881  -5.7874
    -5.6931  -5.6931  -5.6732  -5.6732  -5.6290  -5.6290  -5.5842  -5.5842
    -0.1608  -0.1608  -0.0158   0.0883   0.0883   0.3721   0.4114   0.4115
     0.4200   0.4200   0.4436   0.4436   0.4730   0.4730   0.4786   0.4786
     0.5026   0.6063   0.6063   0.6149   0.6149   0.6713   0.6801   0.6801
     6.0486   6.0791   6.2750   6.2750   6.3530   6.3530   6.5849   6.5909
     6.6453   6.6453   6.8369   6.8900   6.9048   6.9048   7.0138   7.2111
     7.2111   7.4116   7.4116   7.4938   7.4976   7.5452   7.5452   7.5646
     7.5646   7.7787   7.7787   7.8024   7.8024   7.8065   7.8823   7.8823
     7.9765   7.9765   7.9818   7.9818   8.2864   8.2864   8.5101   8.5101
     8.6651   8.7504   8.7504   8.7882   8.7883   8.8279   8.8516   8.8517
     8.9579   9.0951   9.0951   9.1847   9.1847   9.1904   9.1904   9.2726
     9.2726   9.3848   9.5270   9.5270   9.5694   9.5694   9.8125   9.8125
     9.9031   9.9031   9.9462   9.9462   9.9624   9.9624  10.3586  10.3856
    12.2725  12.3284  13.0391  13.0391  13.1118  13.1118  13.5883  13.5883
    13.6238  13.6239  13.9535  13.9535  13.9643  13.9643  14.0451  14.0451
    14.1835  14.1835  14.1872  14.1872  14.4068  14.4068  14.4598  14.4609
    14.4613  14.5458  15.0078  15.0078  15.2327  15.2327  15.3482  15.9431
    15.9867  16.0344  16.1138  16.6961  16.7288  16.7369  16.7369  17.0072

          k = 0.0000 0.0000-0.4946 ( 50046 PWs)   bands (ev):

   -46.1066 -46.1066 -46.1056 -46.1056 -46.1056 -46.1056 -46.1045 -46.1045
   -22.4184 -22.4183 -22.4155 -22.4155 -22.4155 -22.4155 -22.4131 -22.4131
   -22.3865 -22.3865 -22.3865 -22.3865 -22.3835 -22.3835 -22.3834 -22.3834
   -22.3331 -22.3331 -22.3330 -22.3330 -22.3310 -22.3310 -22.3310 -22.3310
   -14.4033 -14.4032 -14.3030 -14.3029 -14.3029 -14.3028 -14.2299 -14.2298
    -6.5779  -6.5778  -6.5080  -6.5080  -6.5079  -6.5079  -6.0024  -6.0022
    -5.8467  -5.8466  -5.8287  -5.8287  -5.8286  -5.8286  -5.7936  -5.7935
    -5.6615  -5.6615  -5.6614  -5.6614  -5.6287  -5.6287  -5.6286  -5.6285
    -0.0377  -0.0377  -0.0376  -0.0376   0.1708   0.1709   0.4406   0.4406
     0.4407   0.4407   0.4490   0.4490   0.4491   0.4491   0.5276   0.5276
     0.5277   0.5277   0.5871   0.5872   0.6428   0.6428   0.6429   0.6429
     6.0716   6.0717   6.3198   6.3198   6.3199   6.3199   6.5879   6.5879
     6.9020   6.9020   6.9021   6.9021   7.1606   7.1607   7.1703   7.1703
     7.1705   7.1705   7.2009   7.2009   7.3849   7.3851   7.5555   7.5555
     7.5556   7.5556   7.8391   7.8391   7.8392   7.8392   7.8990   7.8990
     7.8991   7.8991   8.1293   8.1293   8.1294   8.1294   8.6155   8.6155
     8.6156   8.6156   8.8066   8.8067   8.9663   8.9663   8.9663   8.9664
     8.9875   8.9875   8.9876   8.9876   9.0883   9.0883   9.1951   9.1951
     9.1952   9.1952   9.7235   9.7235   9.7235   9.7235   9.7763   9.7763
     9.7763   9.7763   9.8779   9.8779   9.8780   9.8780  10.3720  10.3721
    12.3002  12.3003  13.3196  13.3196  13.3197  13.3197  13.3718  13.3718
    13.3719  13.3719  13.9590  13.9590  13.9591  13.9591  14.1028  14.1028
    14.1028  14.1028  14.2942  14.2942  14.2942  14.2942  14.4609  14.4610
    14.5024  14.5025  15.1496  15.1496  15.1497  15.1497  15.7127  15.7128
    16.3160  16.3162  16.4191  16.4193  16.5391  16.5393  17.0751  17.0751

          k = 0.0000 0.1250 0.0000 ( 50059 PWs)   bands (ev):

   -46.1070 -46.1061 -46.1060 -46.1060 -46.1052 -46.1051 -46.1050 -46.1041
   -22.4422 -22.4389 -22.4387 -22.4362 -22.3941 -22.3921 -22.3919 -22.3900
   -22.3880 -22.3860 -22.3848 -22.3848 -22.3829 -22.3826 -22.3824 -22.3803
   -22.3361 -22.3341 -22.3339 -22.3339 -22.3321 -22.3320 -22.3320 -22.3302
   -14.4538 -14.3438 -14.3420 -14.3344 -14.2709 -14.2653 -14.2629 -14.2021
    -6.7601  -6.7556  -6.7022  -6.5325  -6.2753  -6.1679  -6.1194  -5.9012
    -5.8987  -5.8964  -5.8449  -5.8386  -5.8081  -5.7739  -5.7442  -5.7411
    -5.7407  -5.7395  -5.7336  -5.6770  -5.5976  -5.5816  -5.5314  -5.5216
    -0.3303  -0.3228  -0.2652   0.2876   0.3060   0.3146   0.3212   0.3430
     0.3707   0.3806   0.3853   0.3895   0.5173   0.5256   0.5272   0.5351
     0.5421   0.5498   0.6907   0.7299   0.7335   0.7430   0.7480   0.7880
     5.9481   6.1023   6.1115   6.1332   6.3196   6.3276   6.3665   6.3902
     6.3974   6.4662   6.5584   6.5641   6.6088   6.6111   6.6312   7.5463
     7.5529   7.5691   7.6019   7.6027   7.6274   7.6327   7.6361   7.6461
     7.6672   7.7346   7.7541   7.8661   7.9187   7.9526   8.0108   8.0259
     8.0344   8.0487   8.0753   8.1206   8.1862   8.3504   8.4950   8.5025
     8.5561   8.5800   8.6367   8.6845   8.7215   8.7343   8.8146   8.9285
     8.9839   9.0131   9.1880   9.2091   9.3400   9.3536   9.3634   9.4316
     9.4798   9.4941   9.5007   9.5228   9.5398   9.6399   9.6586   9.8872
    10.0156  10.0705  10.1533  10.1782  10.2045  10.2424  10.3133  10.3629
    12.3134  12.4511  12.5523  12.5773  12.6581  12.6913  13.8888  13.9189
    13.9366  13.9485  13.9589  13.9915  13.9936  14.0012  14.0064  14.0200
    14.0215  14.0294  14.3333  14.3630  14.3731  14.5330  14.5533  14.5555
    14.5783  14.5839  14.6023  14.6310  14.6667  15.1075  15.2921  15.4210
    15.4273  15.5662  16.2548  16.3493  16.5366  16.9364  17.1633  17.3799

          k = 0.0000 0.1250 0.1236 ( 50092 PWs)   bands (ev):

   -46.1070 -46.1062 -46.1060 -46.1059 -46.1052 -46.1051 -46.1050 -46.1042
   -22.4404 -22.4372 -22.4369 -22.4345 -22.3959 -22.3938 -22.3937 -22.3918
   -22.3878 -22.3859 -22.3849 -22.3847 -22.3830 -22.3825 -22.3825 -22.3804
   -22.3360 -22.3342 -22.3338 -22.3338 -22.3322 -22.3321 -22.3319 -22.3303
   -14.4497 -14.3481 -14.3394 -14.3318 -14.2737 -14.2680 -14.2606 -14.2044
    -6.7417  -6.7368  -6.6902  -6.5301  -6.2568  -6.2010  -6.1611  -5.9034
    -5.8852  -5.8798  -5.8430  -5.8363  -5.8068  -5.7752  -5.7649  -5.7384
    -5.7323  -5.7310  -5.7281  -5.6929  -5.6016  -5.5878  -5.5398  -5.5297
    -0.3096  -0.3071  -0.2239   0.2781   0.2884   0.3033   0.3301   0.3457
     0.3687   0.3862   0.3953   0.4125   0.5006   0.5105   0.5166   0.5289
     0.5490   0.5731   0.6862   0.6882   0.7240   0.7257   0.7326   0.7743
     5.9762   6.1123   6.1356   6.1688   6.3603   6.3880   6.3907   6.4021
     6.4553   6.4586   6.5890   6.5991   6.6116   6.6361   6.6366   7.5481
     7.5555   7.5630   7.6014   7.6202   7.6285   7.6295   7.6502   7.6544
     7.6857   7.7638   7.7807   7.8296   7.8567   7.9168   7.9340   7.9344
     7.9489   8.0295   8.0651   8.0662   8.1803   8.3634   8.5221   8.5251
     8.5275   8.5372   8.5980   8.7398   8.8294   8.8316   8.9162   8.9225
     8.9628   8.9700   9.1454   9.2009   9.3303   9.3632   9.3728   9.3750
     9.4429   9.4667   9.4751   9.4850   9.4877   9.6539   9.6706   9.8244
    10.0011  10.0349  10.1339  10.1558  10.1594  10.1956  10.3153  10.3637
    12.3183  12.4456  12.6164  12.6368  12.7162  12.7484  13.8902  13.9167
    13.9400  13.9409  13.9506  13.9558  13.9725  13.9807  13.9811  13.9921
    14.0043  14.0408  14.3057  14.3474  14.3711  14.5435  14.5500  14.5552
    14.5687  14.5815  14.6305  14.7135  14.7609  15.2298  15.2871  15.4231
    15.4936  15.6393  16.2995  16.3891  16.4835  16.9458  17.2420  17.2973

          k = 0.0000 0.1250 0.2473 ( 50029 PWs)   bands (ev):

   -46.1069 -46.1063 -46.1059 -46.1058 -46.1053 -46.1052 -46.1049 -46.1043
   -22.4352 -22.4321 -22.4319 -22.4295 -22.4012 -22.3990 -22.3988 -22.3968
   -22.3875 -22.3856 -22.3853 -22.3844 -22.3834 -22.3827 -22.3823 -22.3807
   -22.3358 -22.3344 -22.3336 -22.3336 -22.3324 -22.3323 -22.3317 -22.3305
   -14.4381 -14.3603 -14.3318 -14.3244 -14.2815 -14.2756 -14.2541 -14.2111
    -6.6885  -6.6822  -6.6571  -6.5279  -6.2836  -6.2562  -6.2036  -5.9039
    -5.8629  -5.8494  -5.8383  -5.8306  -5.8294  -5.8031  -5.7791  -5.7360
    -5.7219  -5.7124  -5.7099  -5.7070  -5.6152  -5.6050  -5.5638  -5.5530
    -0.2571  -0.2405  -0.1188   0.1996   0.2146   0.3488   0.3531   0.3544
     0.3785   0.4023   0.4271   0.4623   0.4635   0.4911   0.4919   0.5115
     0.5662   0.5688   0.6016   0.6708   0.6806   0.6891   0.7040   0.7350
     6.0358   6.1140   6.2088   6.2487   6.3726   6.4380   6.4814   6.5082
     6.5615   6.6132   6.6225   6.6361   6.6985   6.7367   6.7505   7.5255
     7.5339   7.5342   7.5528   7.5625   7.5975   7.6050   7.6394   7.6731
     7.6928   7.6975   7.7138   7.7338   7.7573   7.8475   7.8555   7.9096
     7.9104   7.9898   8.0334   8.1553   8.1911   8.2398   8.4035   8.4268
     8.6134   8.6447   8.6501   8.7805   8.7941   8.8576   8.8852   8.8941
     9.0379   9.1520   9.1770   9.2195   9.2413   9.2558   9.3606   9.3661
     9.3888   9.3936   9.4230   9.4334   9.4345   9.6323   9.6941   9.7054
     9.9594   9.9721  10.0363  10.0716  10.0717  10.0850  10.3212  10.3605
    12.3324  12.4300  12.7926  12.8023  12.8772  12.9063  13.7961  13.8106
    13.8298  13.8433  13.8938  13.9172  13.9542  13.9562  13.9876  14.0179
    14.0424  14.0966  14.2329  14.2794  14.3944  14.4734  14.4991  14.5498
    14.5527  14.5545  14.8142  14.9119  15.0289  15.2688  15.4063  15.5577
    15.6989  15.8522  16.3275  16.4432  16.5187  16.9194  17.0704  17.5056

          k = 0.0000 0.1250 0.3709 ( 50070 PWs)   bands (ev):

   -46.1067 -46.1064 -46.1058 -46.1057 -46.1054 -46.1054 -46.1047 -46.1044
   -22.4274 -22.4245 -22.4243 -22.4220 -22.4090 -22.4066 -22.4064 -22.4043
   -22.3870 -22.3858 -22.3851 -22.3840 -22.3839 -22.3831 -22.3819 -22.3810
   -22.3355 -22.3347 -22.3334 -22.3333 -22.3327 -22.3326 -22.3314 -22.3307
   -14.4205 -14.3784 -14.3204 -14.3133 -14.2932 -14.2869 -14.2443 -14.2210
    -6.6118  -6.6058  -6.5971  -6.5378  -6.3903  -6.3718  -6.1222  -5.9206
    -5.8895  -5.8438  -5.8339  -5.8294  -5.8245  -5.7976  -5.7959  -5.7833
    -5.6970  -5.6885  -5.6780  -5.6713  -5.6384  -5.6304  -5.5991  -5.5879
    -0.1637  -0.1395   0.0310   0.0857   0.1065   0.3705   0.3841   0.3970
     0.4009   0.4187   0.4267   0.4269   0.4574   0.4629   0.4815   0.4858
     0.5288   0.5930   0.5989   0.6250   0.6274   0.6677   0.6720   0.6752
     6.0837   6.1140   6.2730   6.3218   6.3473   6.4088   6.6157   6.6213
     6.6755   6.6823   6.8259   6.8956   6.9066   6.9336   7.0105   7.2086
     7.2318   7.4101   7.4417   7.4668   7.4730   7.5595   7.5722   7.5792
     7.5910   7.6899   7.7524   7.7934   7.8036   7.8850   7.8927   7.9104
     7.9265   7.9631   7.9749   7.9777   8.1634   8.2860   8.2879   8.4743
     8.6108   8.7149   8.7296   8.7512   8.7940   8.8812   8.9217   8.9605
     8.9837   9.0514   9.1086   9.1209   9.1904   9.2454   9.2656   9.3031
     9.3265   9.3773   9.5165   9.5401   9.5545   9.5550   9.7551   9.7597
     9.8671   9.8976   9.9006   9.9033   9.9577   9.9580  10.3301  10.3520
    12.3542  12.4070  13.0413  13.0425  13.1078  13.1322  13.5769  13.5898
    13.6208  13.6362  13.8992  13.9114  13.9639  13.9808  13.9891  14.0511
    14.1355  14.1394  14.1821  14.1921  14.3666  14.3980  14.4296  14.5152
    14.5516  14.5536  15.0069  15.1234  15.2273  15.3640  15.3868  15.9983
    16.0052  16.0782  16.1865  16.6965  16.7426  16.7547  16.7683  17.0782

          k = 0.0000 0.1250-0.4946 ( 50064 PWs)   bands (ev):

   -46.1066 -46.1066 -46.1056 -46.1056 -46.1055 -46.1055 -46.1046 -46.1046
   -22.4182 -22.4182 -22.4156 -22.4156 -22.4154 -22.4154 -22.4132 -22.4132
   -22.3864 -22.3864 -22.3845 -22.3845 -22.3836 -22.3836 -22.3815 -22.3815
   -22.3351 -22.3351 -22.3330 -22.3330 -22.3330 -22.3330 -22.3311 -22.3311
   -14.3996 -14.3995 -14.3069 -14.3068 -14.3002 -14.3001 -14.2327 -14.2326
    -6.5675  -6.5674  -6.5026  -6.5025  -6.4900  -6.4899  -6.0234  -6.0233
    -5.8514  -5.8513  -5.8343  -5.8343  -5.8224  -5.8223  -5.7909  -5.7908
    -5.6676  -5.6674  -5.6598  -5.6597  -5.6395  -5.6394  -5.6295  -5.6294
    -0.0429  -0.0429  -0.0180  -0.0179   0.2097   0.2098   0.3950   0.3950
     0.4197   0.4198   0.4309   0.4309   0.4560   0.4560   0.5042   0.5043
     0.5515   0.5515   0.6032   0.6032   0.6350   0.6350   0.6497   0.6498
     6.1068   6.1069   6.3159   6.3160   6.3720   6.3721   6.6185   6.6186
     6.9189   6.9190   6.9303   6.9304   7.1452   7.1453   7.1731   7.1732
     7.1876   7.1877   7.1953   7.1955   7.3689   7.3690   7.5676   7.5677
     7.5822   7.5823   7.8429   7.8430   7.8466   7.8467   7.8663   7.8663
     7.8980   7.8982   8.0776   8.0778   8.1290   8.1291   8.4416   8.4417
     8.5796   8.5797   8.8230   8.8231   8.9107   8.9108   8.9525   8.9526
     8.9943   8.9943   9.0885   9.0887   9.1454   9.1455   9.2266   9.2267
     9.2435   9.2436   9.6907   9.6907   9.7175   9.7175   9.7681   9.7681
     9.7843   9.7843   9.8270   9.8271   9.8283   9.8284  10.3410  10.3412
    12.3803  12.3804  13.3131  13.3132  13.3219  13.3220  13.3685  13.3685
    13.3879  13.3880  13.9053  13.9053  13.9725  13.9726  14.0521  14.0522
    14.1104  14.1105  14.2483  14.2484  14.2870  14.2870  14.4719  14.4720
    14.5526  14.5526  15.1461  15.1461  15.2766  15.2767  15.7540  15.7542
    16.3694  16.3696  16.4400  16.4402  16.6107  16.6109  17.0335  17.0336

          k = 0.0000 0.2500 0.0000 ( 50054 PWs)   bands (ev):

   -46.1069 -46.1062 -46.1060 -46.1058 -46.1053 -46.1051 -46.1050 -46.1042
   -22.4418 -22.4393 -22.4384 -22.4365 -22.3938 -22.3923 -22.3917 -22.3902
   -22.3876 -22.3851 -22.3845 -22.3827 -22.3802 -22.3772 -22.3769 -22.3747
   -22.3420 -22.3399 -22.3397 -22.3378 -22.3337 -22.3322 -22.3318 -22.3304
   -14.4410 -14.3555 -14.3354 -14.3262 -14.2796 -14.2714 -14.2579 -14.2096
    -6.7230  -6.7043  -6.6476  -6.5426  -6.3387  -6.2438  -6.0621  -5.8922
    -5.8808  -5.8714  -5.8492  -5.8250  -5.7994  -5.7643  -5.7615  -5.7508
    -5.7327  -5.7219  -5.7083  -5.7023  -5.6620  -5.6012  -5.5815  -5.5460
    -0.2613  -0.2352  -0.1835   0.2110   0.2656   0.3275   0.3399   0.3604
     0.3880   0.3987   0.4284   0.4325   0.4896   0.4981   0.5065   0.5223
     0.5507   0.5572   0.5678   0.6884   0.7067   0.7074   0.7089   0.7367
     6.0099   6.1021   6.1888   6.1955   6.3122   6.3751   6.4108   6.5124
     6.5590   6.5657   6.5659   6.6393   6.7210   6.7639   6.7689   7.4621
     7.5408   7.5968   7.6233   7.6306   7.6341   7.6344   7.6691   7.6756
     7.7077   7.7079   7.7368   7.7378   7.7493   7.7973   7.8230   7.9045
     7.9457   8.0173   8.0426   8.1666   8.2044   8.2545   8.2938   8.5769
     8.5968   8.6090   8.6868   8.6930   8.8011   8.8113   8.8315   8.9183
     8.9672   9.1377   9.1821   9.2382   9.3017   9.3029   9.3228   9.4200
     9.4236   9.4736   9.5141   9.5236   9.5539   9.5576   9.5942   9.6819
     9.9074  10.0074  10.0829  10.0926  10.1857  10.2214  10.2387  10.2514
    12.5150  12.5894  12.6431  12.6553  12.6982  12.7978  13.7298  13.7611
    13.7649  13.7850  13.9657  13.9800  14.0056  14.0077  14.0182  14.0183
    14.0546  14.0677  14.2533  14.2844  14.3997  14.4943  14.5014  14.5615
    14.5678  14.5750  14.7620  14.8118  14.9347  15.1233  15.2697  15.6448
    15.7633  15.7845  16.1340  16.5223  16.6804  16.9822  17.1475  17.3512

          k = 0.0000 0.2500 0.1236 ( 50056 PWs)   bands (ev):

   -46.1069 -46.1061 -46.1060 -46.1058 -46.1053 -46.1051 -46.1050 -46.1043
   -22.4400 -22.4375 -22.4366 -22.4348 -22.3957 -22.3941 -22.3934 -22.3920
   -22.3875 -22.3850 -22.3846 -22.3828 -22.3801 -22.3773 -22.3769 -22.3748
   -22.3419 -22.3400 -22.3396 -22.3379 -22.3336 -22.3321 -22.3319 -22.3305
   -14.4371 -14.3526 -14.3395 -14.3236 -14.2825 -14.2691 -14.2606 -14.2120
    -6.7058  -6.6855  -6.6372  -6.5377  -6.3201  -6.2620  -6.1066  -5.8953
    -5.8726  -5.8596  -5.8479  -5.8224  -5.7983  -5.7951  -5.7666  -5.7456
    -5.7259  -5.7167  -5.7149  -5.7043  -5.6553  -5.6053  -5.5891  -5.5524
    -0.2434  -0.2391  -0.1258   0.2275   0.2626   0.2956   0.3350   0.3393
     0.3752   0.4045   0.4442   0.4587   0.4614   0.4809   0.4945   0.5291
     0.5509   0.5625   0.5967   0.6685   0.6766   0.7002   0.7014   0.7306
     6.0413   6.1355   6.1892   6.2385   6.3693   6.3711   6.4490   6.5640
     6.5892   6.5895   6.5976   6.6299   6.7219   6.7715   6.7864   7.4782
     7.5332   7.5941   7.6138   7.6268   7.6384   7.6438   7.6571   7.6727
     7.6740   7.6743   7.7613   7.7652   7.7698   7.7881   7.8172   7.9074
     7.9348   7.9709   8.0345   8.0398   8.0726   8.2668   8.3139   8.5411
     8.5886   8.6324   8.6347   8.7505   8.8292   8.8585   8.8758   8.9183
     8.9510   9.1692   9.1764   9.2544   9.2712   9.2970   9.3171   9.3925
     9.4412   9.4737   9.5028   9.5112   9.5252   9.5270   9.5685   9.6344
     9.8904   9.9698  10.0495  10.0696  10.1609  10.1738  10.2389  10.2587
    12.5297  12.6420  12.6505  12.7018  12.7444  12.8514  13.7314  13.7625
    13.7669  13.8113  13.9296  13.9573  13.9698  13.9702  14.0107  14.0205
    14.0361  14.0515  14.2207  14.2923  14.3738  14.4629  14.4919  14.5485
    14.6229  14.6374  14.7617  14.9064  14.9865  15.2449  15.2648  15.7119
    15.7614  15.8562  16.1782  16.5486  16.6268  17.0199  17.1816  17.3786

          k = 0.0000 0.2500 0.2473 ( 50073 PWs)   bands (ev):

   -46.1068 -46.1061 -46.1060 -46.1057 -46.1054 -46.1051 -46.1050 -46.1044
   -22.4349 -22.4325 -22.4316 -22.4298 -22.4009 -22.3992 -22.3985 -22.3970
   -22.3871 -22.3850 -22.3848 -22.3830 -22.3798 -22.3777 -22.3766 -22.3750
   -22.3417 -22.3402 -22.3394 -22.3381 -22.3334 -22.3321 -22.3319 -22.3307
   -14.4259 -14.3512 -14.3445 -14.3163 -14.2909 -14.2681 -14.2625 -14.2187
    -6.6565  -6.6308  -6.6091  -6.5277  -6.3153  -6.2663  -6.2038  -5.8997
    -5.8734  -5.8703  -5.8453  -5.8283  -5.8158  -5.7948  -5.7766  -5.7519
    -5.7308  -5.7103  -5.6952  -5.6928  -5.6531  -5.6171  -5.6101  -5.5707
    -0.2170  -0.1752  -0.0092   0.2087   0.2597   0.2637   0.2753   0.3437
     0.3674   0.3962   0.4210   0.4578   0.4635   0.4840   0.5147   0.5330
     0.5484   0.5890   0.5907   0.6128   0.6301   0.6790   0.6802   0.7113
     6.1076   6.1899   6.2075   6.3420   6.3539   6.5399   6.5639   6.6042
     6.6611   6.6900   6.7000   6.7081   6.7244   6.8039   6.8679   7.4282
     7.5081   7.5248   7.5409   7.5622   7.5874   7.6252   7.6352   7.6536
     7.6649   7.6705   7.7197   7.7738   7.7917   7.8481   7.8637   7.8697
     7.8753   7.9128   7.9138   8.0083   8.0091   8.3053   8.3203   8.3702
     8.4411   8.5821   8.7090   8.7222   8.7641   8.7927   8.8820   9.1298
     9.1425   9.1514   9.1729   9.1925   9.2993   9.3089   9.3678   9.3681
     9.3694   9.4334   9.4491   9.4758   9.4873   9.4987   9.5645   9.5750
     9.8428   9.9019   9.9318  10.0250  10.0593  10.0834  10.2397  10.2584
    12.5490  12.6370  12.8088  12.8641  12.8778  12.9994  13.7360  13.7501
    13.7866  13.7882  13.8131  13.8387  13.8848  13.8870  13.9809  14.0293
    14.0427  14.0875  14.1342  14.3052  14.3150  14.3774  14.4601  14.4826
    14.7018  14.7604  14.8169  15.1417  15.1888  15.2472  15.5725  15.7486
    15.9007  16.0667  16.3209  16.4688  16.6384  17.0268  17.1903  17.2799

          k = 0.0000 0.2500 0.3709 ( 50069 PWs)   bands (ev):

   -46.1066 -46.1063 -46.1059 -46.1056 -46.1055 -46.1052 -46.1048 -46.1045
   -22.4271 -22.4249 -22.4241 -22.4223 -22.4087 -22.4069 -22.4062 -22.4046
   -22.3866 -22.3855 -22.3844 -22.3834 -22.3793 -22.3781 -22.3763 -22.3754
   -22.3413 -22.3405 -22.3391 -22.3384 -22.3331 -22.3324 -22.3316 -22.3310
   -14.4090 -14.3686 -14.3324 -14.3054 -14.3033 -14.2793 -14.2525 -14.2288
    -6.5812  -6.5723  -6.5456  -6.5250  -6.3961  -6.3201  -6.1837  -5.9740
    -5.8930  -5.8605  -5.8447  -5.8171  -5.8094  -5.8082  -5.7888  -5.7716
    -5.7092  -5.6912  -5.6756  -5.6659  -5.6644  -5.6387  -5.6346  -5.5986
    -0.1449  -0.0780   0.0890   0.1389   0.1592   0.2678   0.3380   0.3488
     0.3594   0.3755   0.4244   0.4272   0.4460   0.4577   0.5066   0.5315
     0.5364   0.5740   0.5777   0.6211   0.6419   0.6459   0.6490   0.6776
     6.1590   6.1893   6.2681   6.3326   6.4452   6.5663   6.7281   6.7302
     6.7537   6.7851   6.7952   6.9120   6.9171   7.0066   7.0379   7.1857
     7.2841   7.3808   7.4053   7.4103   7.5401   7.5801   7.5887   7.5970
     7.6068   7.6454   7.6642   7.7812   7.8062   7.8287   7.8894   7.9202
     7.9344   7.9630   7.9763   8.0028   8.0105   8.0348   8.2966   8.3751
     8.3890   8.4515   8.6198   8.6547   8.8124   8.8260   8.9662   9.0000
     9.1349   9.1896   9.1951   9.2008   9.2698   9.2913   9.3184   9.3547
     9.3732   9.4064   9.4633   9.4921   9.5188   9.6201   9.6232   9.6654
     9.7702   9.7739   9.8340   9.8946   9.9387   9.9469  10.2422  10.2530
    12.5699  12.6168  13.0534  13.0817  13.0963  13.2114  13.5744  13.5942
    13.6080  13.6883  13.7430  13.7633  13.8351  13.9935  13.9961  14.0219
    14.0292  14.0684  14.1670  14.2165  14.2572  14.3495  14.3720  14.4345
    14.7369  14.7573  15.0020  15.2082  15.4053  15.5238  15.7048  16.0178
    16.1824  16.2165  16.3992  16.5736  16.8191  16.8444  16.8733  17.2895

          k = 0.0000 0.2500-0.4946 ( 50094 PWs)   bands (ev):

   -46.1065 -46.1065 -46.1057 -46.1057 -46.1054 -46.1054 -46.1047 -46.1047
   -22.4179 -22.4179 -22.4159 -22.4159 -22.4151 -22.4151 -22.4135 -22.4135
   -22.3861 -22.3860 -22.3839 -22.3839 -22.3787 -22.3787 -22.3758 -22.3758
   -22.3409 -22.3409 -22.3387 -22.3387 -22.3328 -22.3327 -22.3313 -22.3313
   -14.3889 -14.3888 -14.3179 -14.3179 -14.2924 -14.2923 -14.2408 -14.2407
    -6.5403  -6.5402  -6.4900  -6.4899  -6.4385  -6.4383  -6.0821  -6.0820
    -5.8644  -5.8643  -5.8497  -5.8497  -5.8043  -5.8042  -5.7810  -5.7809
    -5.6852  -5.6851  -5.6675  -5.6674  -5.6552  -5.6550  -5.6320  -5.6319
    -0.0370  -0.0369   0.0390   0.0391   0.2936   0.2937   0.3009   0.3009
     0.3874   0.3875   0.3973   0.3973   0.4385   0.4386   0.4760   0.4761
     0.5920   0.5920   0.6129   0.6130   0.6305   0.6306   0.6419   0.6419
     6.1822   6.1823   6.3060   6.3061   6.5165   6.5166   6.7314   6.7315
     6.9623   6.9624   7.0021   7.0022   7.0997   7.0999   7.1541   7.1541
     7.1820   7.1821   7.2846   7.2848   7.3326   7.3328   7.5770   7.5771
     7.6555   7.6556   7.6864   7.6865   7.8622   7.8623   7.8934   7.8935
     7.9335   7.9336   7.9845   7.9845   8.1331   8.1332   8.1927   8.1928
     8.4817   8.4818   8.5453   8.5453   8.8929   8.8930   8.9798   8.9799
     9.0747   9.0747   9.2327   9.2328   9.2792   9.2793   9.2876   9.2877
     9.3223   9.3224   9.6030   9.6030   9.6964   9.6964   9.7041   9.7041
     9.7472   9.7472   9.7554   9.7554   9.8014   9.8014  10.2467  10.2469
    12.5933  12.5934  13.3264  13.3265  13.3290  13.3291  13.3579  13.3580
    13.4524  13.4525  13.7516  13.7517  13.9149  13.9150  14.0129  14.0129
    14.1230  14.1231  14.1322  14.1323  14.2659  14.2660  14.3911  14.3911
    14.7508  14.7509  15.1328  15.1328  15.5998  15.5998  15.8892  15.8893
    16.4771  16.4773  16.5206  16.5208  16.8223  16.8225  16.9078  16.9079

          k = 0.0000 0.3750 0.0000 ( 50024 PWs)   bands (ev):

   -46.1067 -46.1063 -46.1058 -46.1057 -46.1054 -46.1053 -46.1048 -46.1044
   -22.4413 -22.4399 -22.4380 -22.4370 -22.3935 -22.3926 -22.3913 -22.3905
   -22.3870 -22.3857 -22.3841 -22.3831 -22.3715 -22.3687 -22.3684 -22.3663
   -22.3508 -22.3485 -22.3483 -22.3463 -22.3333 -22.3325 -22.3315 -22.3307
   -14.4217 -14.3754 -14.3227 -14.3137 -14.2926 -14.2841 -14.2469 -14.2208
    -6.6703  -6.6256  -6.5692  -6.5633  -6.4288  -6.3470  -5.9750  -5.8784
    -5.8560  -5.8533  -5.8331  -5.8052  -5.7936  -5.7728  -5.7641  -5.7542
    -5.7538  -5.7377  -5.7309  -5.6952  -5.6706  -5.6507  -5.6299  -5.5827
    -0.1566  -0.1148  -0.0425   0.0986   0.1515   0.3565   0.3618   0.3698
     0.4144   0.4263   0.4312   0.4506   0.4540   0.4785   0.4931   0.4950
     0.4962   0.5908   0.5984   0.6088   0.6446   0.6619   0.6728   0.6741
     6.0617   6.0993   6.2400   6.2593   6.2916   6.3447   6.5604   6.5644
     6.5941   6.7109   6.8493   6.9022   6.9297   7.0088   7.0278   7.1630
     7.3024   7.4298   7.4645   7.5396   7.5426   7.6130   7.6212   7.6239
     7.6453   7.6647   7.7796   7.7958   7.8088   7.8502   7.8709   7.8782
     7.9283   7.9565   7.9651   7.9815   8.1145   8.1212   8.3269   8.6195
     8.6506   8.7313   8.7518   8.7615   8.7771   8.7992   8.8224   8.9369
     8.9510   9.0183   9.0862   9.1626   9.2673   9.3244   9.3338   9.3435
     9.4227   9.4233   9.5037   9.5177   9.6345   9.6473   9.6502   9.7149
     9.7726   9.8898   9.9402   9.9559  10.0621  10.1051  10.1971  10.2256
    12.5712  12.6213  12.8570  12.9229  12.9359  12.9974  13.4849  13.5056
    13.5296  13.5378  13.9945  14.0008  14.0098  14.0135  14.0155  14.0230
    14.1459  14.1484  14.1520  14.1828  14.3790  14.3876  14.4398  14.5347
    14.5682  14.5724  14.9717  14.9794  15.1222  15.2200  15.2968  15.9292
    15.9877  16.1183  16.2012  16.8025  16.8133  16.9115  16.9221  17.0225

          k = 0.0000 0.3750 0.1236 ( 50063 PWs)   bands (ev):

   -46.1067 -46.1063 -46.1059 -46.1056 -46.1055 -46.1053 -46.1048 -46.1044
   -22.4395 -22.4381 -22.4362 -22.4352 -22.3953 -22.3945 -22.3931 -22.3923
   -22.3869 -22.3856 -22.3842 -22.3832 -22.3714 -22.3688 -22.3683 -22.3664
   -22.3507 -22.3486 -22.3482 -22.3464 -22.3333 -22.3325 -22.3316 -22.3308
   -14.4180 -14.3723 -14.3266 -14.3112 -14.2958 -14.2817 -14.2495 -14.2232
    -6.6552  -6.6067  -6.5607  -6.5559  -6.4100  -6.3529  -6.0253  -5.8815
    -5.8559  -5.8503  -5.8435  -5.8271  -5.8022  -5.7733  -5.7670  -5.7597
    -5.7400  -5.7259  -5.7232  -5.6905  -5.6688  -5.6567  -5.6312  -5.5866
    -0.1357  -0.1354   0.0198   0.1164   0.1403   0.3249   0.3628   0.3877
     0.3967   0.4072   0.4112   0.4323   0.4405   0.4629   0.4996   0.5113
     0.5225   0.5842   0.5877   0.6199   0.6501   0.6614   0.6653   0.6656
     6.0953   6.1330   6.2584   6.2902   6.3403   6.3484   6.5908   6.5953
     6.6281   6.7429   6.8563   6.8895   6.9318   7.0253   7.0278   7.1882
     7.2855   7.4294   7.4394   7.5176   7.5612   7.5969   7.6245   7.6313
     7.6675   7.6797   7.7466   7.7780   7.8260   7.8611   7.8678   7.8885
     7.9101   7.9233   7.9763   7.9875   8.0472   8.1261   8.1903   8.5562
     8.5813   8.6581   8.7575   8.7633   8.7785   8.7855   8.8955   8.9681
     9.0282   9.0780   9.1071   9.1384   9.2711   9.3144   9.3386   9.3710
     9.3845   9.3956   9.4896   9.5434   9.6124   9.6181   9.6265   9.7005
     9.7521   9.8591   9.9000   9.9522  10.0533  10.1024  10.1694  10.1984
    12.6296  12.6807  12.8640  12.9319  12.9532  13.0447  13.4871  13.5156
    13.5269  13.5703  13.9519  13.9599  13.9669  14.0025  14.0288  14.0293
    14.1014  14.1130  14.1433  14.1903  14.3433  14.3791  14.4135  14.5080
    14.6407  14.6427  14.9705  15.0875  15.2157  15.2425  15.3389  15.9723
    16.0452  16.1900  16.2037  16.8250  16.8396  16.8676  16.9444  17.0973

          k = 0.0000 0.3750 0.2473 ( 50074 PWs)   bands (ev):

   -46.1066 -46.1062 -46.1060 -46.1056 -46.1056 -46.1052 -46.1049 -46.1045
   -22.4343 -22.4330 -22.4312 -22.4302 -22.4005 -22.3996 -22.3982 -22.3974
   -22.3866 -22.3853 -22.3845 -22.3835 -22.3711 -22.3691 -22.3681 -22.3666
   -22.3505 -22.3488 -22.3480 -22.3466 -22.3331 -22.3323 -22.3318 -22.3310
   -14.4075 -14.3635 -14.3375 -14.3049 -14.3041 -14.2750 -14.2569 -14.2302
    -6.6127  -6.5520  -6.5394  -6.5372  -6.3743  -6.3557  -6.1254  -5.9445
    -5.8887  -5.8622  -5.8569  -5.8015  -5.7949  -5.7941  -5.7730  -5.7472
    -5.7458  -5.7174  -5.7024  -5.6774  -5.6720  -5.6639  -5.6351  -5.5978
    -0.1322  -0.0757   0.1284   0.1366   0.1678   0.2314   0.3287   0.3394
     0.3526   0.3737   0.4163   0.4282   0.4494   0.4569   0.5183   0.5283
     0.5485   0.5656   0.5696   0.6155   0.6416   0.6453   0.6561   0.6697
     6.1656   6.2041   6.2560   6.3288   6.4241   6.5098   6.7029   6.7078
     6.7253   6.8327   6.8534   6.8811   6.9377   7.0222   7.0953   7.2244
     7.2569   7.3665   7.4278   7.4350   7.5622   7.5947   7.6066   7.6308
     7.6319   7.7102   7.7277   7.7685   7.7732   7.8632   7.8865   7.8879
     7.9098   7.9166   7.9519   7.9524   7.9597   8.0647   8.1638   8.3696
     8.4162   8.4755   8.6042   8.6459   8.8107   8.8432   9.0043   9.0181
     9.1493   9.1517   9.1682   9.2806   9.2911   9.2985   9.3006   9.3140
     9.3803   9.3951   9.4139   9.5318   9.5984   9.6079   9.6223   9.6636
     9.6957   9.7906   9.8178   9.9355  10.0105  10.0839  10.0958  10.1362
    12.7725  12.8446  12.9017  12.9205  13.0459  13.1752  13.4938  13.5180
    13.5503  13.6604  13.8157  13.8173  13.8292  13.9767  14.0081  14.0241
    14.0507  14.0734  14.1286  14.2120  14.2451  14.3440  14.3546  14.4370
    14.7787  14.8157  14.9657  15.2004  15.3680  15.4926  15.5667  16.1137
    16.1974  16.2067  16.4017  16.7073  16.8668  16.9471  16.9733  17.3165

          k = 0.0000 0.3750 0.3709 ( 50110 PWs)   bands (ev):

   -46.1065 -46.1061 -46.1061 -46.1057 -46.1054 -46.1051 -46.1050 -46.1047
   -22.4266 -22.4254 -22.4237 -22.4227 -22.4083 -22.4073 -22.4058 -22.4050
   -22.3861 -22.3850 -22.3849 -22.3839 -22.3706 -22.3696 -22.3678 -22.3669
   -22.3501 -22.3492 -22.3477 -22.3469 -22.3328 -22.3321 -22.3320 -22.3313
   -14.3916 -14.3538 -14.3502 -14.3185 -14.2934 -14.2678 -14.2648 -14.2405
    -6.5502  -6.5171  -6.5168  -6.4669  -6.4174  -6.2718  -6.2419  -6.0542
    -5.8915  -5.8718  -5.8613  -5.8443  -5.7841  -5.7787  -5.7693  -5.7538
    -5.7298  -5.7104  -5.7007  -5.6895  -5.6582  -5.6568  -5.6411  -5.6151
    -0.0849   0.0158   0.1141   0.1390   0.2402   0.2454   0.2466   0.2731
     0.3517   0.3640   0.3897   0.3919   0.4416   0.4753   0.5297   0.5329
     0.5382   0.5465   0.5905   0.6143   0.6152   0.6348   0.6495   0.6658
     6.2184   6.2518   6.2608   6.3131   6.5882   6.7493   6.7969   6.8806
     6.8931   6.9204   6.9324   6.9457   6.9634   7.0588   7.1222   7.2375
     7.2526   7.2709   7.3525   7.3576   7.3950   7.5273   7.5286   7.5428
     7.6029   7.7097   7.7354   7.7624   7.7650   7.8062   7.8647   7.8919
     7.9095   7.9191   7.9286   7.9572   8.0039   8.1566   8.1598   8.1648
     8.2360   8.3249   8.4201   8.4973   8.8540   8.8577   8.9104   9.0743
     9.0974   9.2276   9.2693   9.2836   9.2844   9.3100   9.3698   9.3767
     9.4196   9.4457   9.4596   9.4791   9.5936   9.6158   9.6214   9.6411
     9.6946   9.7013   9.7954   9.8855   9.8927   9.9364  10.0893  10.0982
    12.8535  12.9032  13.0777  13.0789  13.1999  13.3634  13.4931  13.5050
    13.6015  13.6194  13.6199  13.6324  13.7922  13.7936  13.8682  14.0512
    14.0953  14.1053  14.1062  14.1435  14.2451  14.2533  14.3135  14.3464
    14.8798  14.9542  14.9872  15.1671  15.7124  15.7784  16.0082  16.1452
    16.3669  16.4493  16.4522  16.7364  16.8253  16.9633  17.0338  17.0720

          k = 0.0000 0.3750-0.4946 ( 50098 PWs)   bands (ev):

   -46.1063 -46.1063 -46.1059 -46.1059 -46.1052 -46.1052 -46.1048 -46.1048
   -22.4175 -22.4175 -22.4164 -22.4164 -22.4148 -22.4147 -22.4139 -22.4138
   -22.3856 -22.3855 -22.3844 -22.3844 -22.3701 -22.3701 -22.3674 -22.3673
   -22.3497 -22.3496 -22.3473 -22.3473 -22.3324 -22.3324 -22.3316 -22.3316
   -14.3728 -14.3728 -14.3344 -14.3344 -14.2807 -14.2806 -14.2527 -14.2526
    -6.5077  -6.5076  -6.4802  -6.4800  -6.3599  -6.3598  -6.1675  -6.1674
    -5.8779  -5.8778  -5.8688  -5.8688  -5.7770  -5.7769  -5.7623  -5.7622
    -5.7123  -5.7122  -5.7026  -5.7025  -5.6488  -5.6487  -5.6363  -5.6362
     0.0016   0.0017   0.1264   0.1265   0.1789   0.1790   0.3424   0.3425
     0.3649   0.3649   0.3702   0.3702   0.4104   0.4104   0.5064   0.5065
     0.5805   0.5806   0.5964   0.5964   0.6266   0.6266   0.6476   0.6476
     6.2424   6.2425   6.2928   6.2928   6.7150   6.7151   6.9494   6.9495
     7.0153   7.0154   7.0233   7.0234   7.0997   7.0998   7.1115   7.1115
     7.1954   7.1955   7.2972   7.2974   7.4585   7.4586   7.4653   7.4653
     7.5043   7.5045   7.7527   7.7528   7.8751   7.8752   7.8778   7.8779
     7.9173   7.9174   7.9477   7.9479   8.0176   8.0176   8.1582   8.1583
     8.2779   8.2779   8.3504   8.3504   8.8570   8.8571   8.9426   8.9426
     9.1988   9.1988   9.2830   9.2830   9.3137   9.3137   9.3234   9.3235
     9.4895   9.4895   9.5278   9.5278   9.5928   9.5930   9.6938   9.6938
     9.7270   9.7271   9.7612   9.7612   9.8111   9.8111  10.0879  10.0880
    12.8816  12.8817  13.3334  13.3335  13.3418  13.3419  13.4011  13.4012
    13.5251  13.5251  13.5795  13.5795  13.7294  13.7294  13.9471  13.9472
    14.0792  14.0793  14.1652  14.1652  14.2321  14.2321  14.2865  14.2865
    14.9302  14.9302  15.1024  15.1025  15.9936  15.9937  16.1262  16.1263
    16.4648  16.4649  16.6982  16.6983  16.7469  16.7471  17.1517  17.1619

          k = 0.0000-0.5000 0.0000 ( 50018 PWs)   bands (ev):

   -46.1065 -46.1065 -46.1056 -46.1056 -46.1055 -46.1055 -46.1046 -46.1046
   -22.4406 -22.4406 -22.4375 -22.4375 -22.3931 -22.3931 -22.3909 -22.3909
   -22.3864 -22.3864 -22.3836 -22.3836 -22.3612 -22.3612 -22.3586 -22.3586
   -22.3584 -22.3584 -22.3563 -22.3563 -22.3329 -22.3329 -22.3311 -22.3311
   -14.3987 -14.3987 -14.3077 -14.3077 -14.2990 -14.2990 -14.2339 -14.2339
    -6.6145  -6.6145  -6.5294  -6.5294  -6.4588  -6.4588  -5.8712  -5.8711
    -5.8656  -5.8656  -5.8187  -5.8187  -5.7880  -5.7880  -5.7835  -5.7834
    -5.7371  -5.7371  -5.7206  -5.7206  -5.6629  -5.6629  -5.6264  -5.6264
    -0.0306  -0.0305   0.0187   0.0187   0.1471   0.1471   0.4058   0.4059
     0.4084   0.4084   0.4461   0.4461   0.4594   0.4594   0.5182   0.5182
     0.5707   0.5707   0.5768   0.5768   0.6313   0.6313   0.6358   0.6358
     6.0889   6.0889   6.2684   6.2684   6.3081   6.3081   6.5623   6.5623
     6.8541   6.8542   6.9779   6.9779   7.1651   7.1651   7.1977   7.1977
     7.2187   7.2187   7.2915   7.2915   7.3717   7.3718   7.6190   7.6191
     7.6581   7.6582   7.8505   7.8506   7.8883   7.8883   7.8899   7.8899
     7.8966   7.8966   7.9553   7.9553   8.0075   8.0075   8.4773   8.4774
     8.6931   8.6931   8.7786   8.7786   8.8765   8.8765   8.9125   8.9125
     8.9717   8.9717   9.1279   9.1279   9.1556   9.1556   9.2962   9.2962
     9.3119   9.3119   9.6376   9.6376   9.7620   9.7620   9.7638   9.7638
     9.7832   9.7832   9.8780   9.8780   9.9044   9.9044  10.2110  10.2110
    12.5964  12.5965  13.1817  13.1817  13.2102  13.2102  13.2415  13.2415
    13.2600  13.2600  14.0071  14.0071  14.0125  14.0125  14.0605  14.0605
    14.0874  14.0874  14.2557  14.2557  14.2642  14.2642  14.4872  14.4872
    14.5718  14.5718  15.0813  15.0813  15.1262  15.1262  15.6439  15.6439
    16.3972  16.3973  16.5413  16.5413  16.6272  16.6272  17.1777  17.1777

          k = 0.0000-0.5000 0.1236 ( 50042 PWs)   bands (ev):

   -46.1065 -46.1065 -46.1057 -46.1057 -46.1054 -46.1054 -46.1046 -46.1046
   -22.4388 -22.4388 -22.4357 -22.4357 -22.3949 -22.3949 -22.3927 -22.3927
   -22.3863 -22.3863 -22.3837 -22.3837 -22.3611 -22.3611 -22.3587 -22.3587
   -22.3583 -22.3583 -22.3564 -22.3564 -22.3329 -22.3329 -22.3312 -22.3312
   -14.3953 -14.3953 -14.3113 -14.3112 -14.2966 -14.2965 -14.2364 -14.2364
    -6.6024  -6.6024  -6.5106  -6.5106  -6.4565  -6.4565  -5.9325  -5.9325
    -5.8672  -5.8672  -5.8036  -5.8036  -5.7823  -5.7823  -5.7798  -5.7797
    -5.7334  -5.7333  -5.7240  -5.7240  -5.6612  -5.6612  -5.6274  -5.6274
    -0.0113  -0.0112  -0.0002  -0.0002   0.1976   0.1976   0.3646   0.3646
     0.3984   0.3985   0.4280   0.4280   0.4656   0.4656   0.4956   0.4956
     0.5882   0.5883   0.5884   0.5884   0.6244   0.6244   0.6419   0.6419
     6.1228   6.1228   6.3054   6.3054   6.3224   6.3224   6.5928   6.5928
     6.8846   6.8846   6.9869   6.9869   7.1549   7.1549   7.2007   7.2008
     7.2008   7.2008   7.3097   7.3097   7.3607   7.3608   7.6224   7.6224
     7.6790   7.6790   7.8317   7.8317   7.8731   7.8731   7.8871   7.8871
     7.8987   7.8987   7.9673   7.9673   7.9756   7.9756   8.3661   8.3662
     8.6527   8.6528   8.7038   8.7038   8.9416   8.9417   8.9481   8.9481
     8.9981   8.9981   9.1437   9.1437   9.1745   9.1746   9.2931   9.2931
     9.3099   9.3099   9.6132   9.6132   9.7332   9.7332   9.7469   9.7469
     9.7736   9.7736   9.8712   9.8713   9.8985   9.8985  10.1812  10.1812
    12.6563  12.6563  13.1852  13.1853  13.2280  13.2281  13.2382  13.2382
    13.2997  13.2997  13.9633  13.9633  14.0156  14.0156  14.0192  14.0192
    14.0942  14.0942  14.2153  14.2153  14.2571  14.2571  14.4606  14.4606
    14.6444  14.6444  15.1233  15.1233  15.1978  15.1979  15.6856  15.6857
    16.4424  16.4425  16.6155  16.6155  16.6397  16.6397  17.1742  17.1742

          k = 0.0000-0.5000 0.2473 ( 50094 PWs)   bands (ev):

   -46.1064 -46.1064 -46.1058 -46.1058 -46.1054 -46.1054 -46.1047 -46.1047
   -22.4337 -22.4337 -22.4307 -22.4307 -22.4001 -22.4001 -22.3978 -22.3978
   -22.3860 -22.3860 -22.3840 -22.3840 -22.3608 -22.3608 -22.3590 -22.3590
   -22.3581 -22.3581 -22.3566 -22.3566 -22.3327 -22.3327 -22.3314 -22.3314
   -14.3856 -14.3856 -14.3213 -14.3213 -14.2896 -14.2896 -14.2436 -14.2435
    -6.5695  -6.5695  -6.4560  -6.4560  -6.4536  -6.4536  -6.0336  -6.0336
    -5.8724  -5.8724  -5.8360  -5.8360  -5.7697  -5.7697  -5.7517  -5.7517
    -5.7313  -5.7313  -5.7306  -5.7305  -5.6563  -5.6563  -5.6305  -5.6305
    -0.0108  -0.0108   0.0444   0.0444   0.2717   0.2718   0.2986   0.2986
     0.3784   0.3785   0.3956   0.3956   0.4321   0.4321   0.4834   0.4835
     0.6050   0.6050   0.6132   0.6132   0.6187   0.6188   0.6354   0.6355
     6.1937   6.1937   6.2984   6.2984   6.4736   6.4736   6.7065   6.7065
     6.9689   6.9689   7.0094   7.0094   7.1289   7.1289   7.1470   7.1470
     7.2093   7.2093   7.3348   7.3348   7.3724   7.3725   7.6069   7.6069
     7.6750   7.6750   7.7320   7.7320   7.8784   7.8784   7.9008   7.9008
     7.9204   7.9204   7.9323   7.9324   8.0090   8.0090   8.1566   8.1566
     8.5016   8.5016   8.5426   8.5426   8.8998   8.8998   9.0017   9.0017
     9.1898   9.1898   9.1966   9.1966   9.2052   9.2052   9.2742   9.2742
     9.3331   9.3331   9.5469   9.5469   9.6482   9.6482   9.7157   9.7157
     9.7950   9.7950   9.8539   9.8539   9.8841   9.8841  10.0921  10.0921
    12.8201  12.8201  13.1967  13.1967  13.2285  13.2286  13.2859  13.2859
    13.4096  13.4096  13.8228  13.8228  13.8927  13.8928  14.0550  14.0550
    14.1031  14.1031  14.1141  14.1141  14.2367  14.2367  14.3901  14.3901
    14.8063  14.8063  15.1127  15.1127  15.5092  15.5092  15.8276  15.8277
    16.5721  16.5722  16.6466  16.6466  16.8317  16.8317  17.0089  17.0090

          k = 0.0000-0.5000 0.3709 ( 50112 PWs)   bands (ev):

   -46.1063 -46.1063 -46.1059 -46.1059 -46.1052 -46.1052 -46.1049 -46.1049
   -22.4260 -22.4260 -22.4232 -22.4232 -22.4078 -22.4078 -22.4054 -22.4054
   -22.3855 -22.3855 -22.3844 -22.3844 -22.3604 -22.3604 -22.3594 -22.3594
   -22.3577 -22.3577 -22.3569 -22.3569 -22.3324 -22.3324 -22.3317 -22.3317
   -14.3710 -14.3710 -14.3362 -14.3362 -14.2791 -14.2791 -14.2542 -14.2542
    -6.5254  -6.5254  -6.4600  -6.4600  -6.3712  -6.3712  -6.1485  -6.1485
    -5.8796  -5.8796  -5.8660  -5.8660  -5.7563  -5.7563  -5.7408  -5.7408
    -5.7361  -5.7360  -5.7324  -5.7323  -5.6494  -5.6494  -5.6355  -5.6355
     0.0141   0.0141   0.1294   0.1294   0.1673   0.1673   0.3391   0.3391
     0.3624   0.3624   0.3700   0.3700   0.4112   0.4112   0.5105   0.5105
     0.5763   0.5763   0.5934   0.5934   0.6358   0.6358   0.6407   0.6407
     6.2476   6.2476   6.2888   6.2888   6.6870   6.6870   6.9272   6.9272
     7.0368   7.0368   7.0534   7.0534   7.0903   7.0903   7.0967   7.0967
     7.2193   7.2193   7.3083   7.3083   7.4582   7.4582   7.4994   7.4994
     7.5028   7.5029   7.7914   7.7914   7.8621   7.8621   7.8892   7.8893
     7.8963   7.8963   7.9278   7.9278   8.0136   8.0136   8.0950   8.0950
     8.2721   8.2721   8.3901   8.3901   8.8645   8.8645   8.9408   8.9408
     9.2557   9.2557   9.2626   9.2626   9.3016   9.3016   9.3398   9.3398
     9.4547   9.4547   9.4568   9.4568   9.5155   9.5155   9.7556   9.7556
     9.8089   9.8089   9.8245   9.8245   9.8697   9.8697   9.9542   9.9542
    13.0421  13.0421  13.2124  13.2124  13.2255  13.2255  13.3916  13.3916
    13.5691  13.5691  13.6119  13.6119  13.7224  13.7224  13.9410  13.9410
    14.1110  14.1110  14.1471  14.1471  14.2057  14.2057  14.2974  14.2974
    14.9531  14.9531  15.0891  15.0891  15.9216  15.9216  16.0874  16.0875
    16.5671  16.5672  16.7478  16.7478  16.7719  16.7720  17.2148  17.2149

          k = 0.0000-0.5000-0.4946 ( 50120 PWs)   bands (ev):

   -46.1061 -46.1061 -46.1061 -46.1061 -46.1050 -46.1050 -46.1050 -46.1050
   -22.4169 -22.4169 -22.4169 -22.4169 -22.4143 -22.4143 -22.4143 -22.4143
   -22.3850 -22.3850 -22.3850 -22.3850 -22.3599 -22.3599 -22.3599 -22.3599
   -22.3573 -22.3573 -22.3573 -22.3573 -22.3320 -22.3320 -22.3320 -22.3320
   -14.3537 -14.3537 -14.3537 -14.3536 -14.2668 -14.2667 -14.2667 -14.2666
    -6.4847  -6.4847  -6.4846  -6.4846  -6.2651  -6.2651  -6.2650  -6.2650
    -5.8808  -5.8808  -5.8807  -5.8807  -5.7447  -5.7446  -5.7446  -5.7445
    -5.7357  -5.7357  -5.7356  -5.7355  -5.6421  -5.6421  -5.6420  -5.6420
     0.0762   0.0762   0.0762   0.0762   0.2326   0.2326   0.2327   0.2327
     0.3585   0.3585   0.3586   0.3586   0.5150   0.5150   0.5150   0.5150
     0.5431   0.5431   0.5431   0.5431   0.6465   0.6465   0.6465   0.6465
     6.2746   6.2746   6.2747   6.2747   6.9007   6.9007   6.9007   6.9007
     7.0656   7.0656   7.0656   7.0656   7.1745   7.1745   7.1746   7.1746
     7.2485   7.2485   7.2486   7.2486   7.3242   7.3242   7.3243   7.3243
     7.6959   7.6959   7.6960   7.6960   7.8350   7.8350   7.8351   7.8351
     7.8872   7.8872   7.8873   7.8873   8.1155   8.1155   8.1156   8.1156
     8.2295   8.2295   8.2296   8.2296   8.8737   8.8737   8.8737   8.8737
     9.3146   9.3146   9.3146   9.3146   9.3547   9.3547   9.3548   9.3548
     9.3878   9.3878   9.3878   9.3878   9.6942   9.6942   9.6942   9.6942
     9.7970   9.7970   9.7971   9.7971   9.8712   9.8712   9.8713   9.8713
    13.1813  13.1813  13.1814  13.1814  13.3693  13.3693  13.3694  13.3694
    13.5436  13.5436  13.5437  13.5437  13.7545  13.7545  13.7546  13.7546
    14.1664  14.1664  14.1664  14.1664  14.2070  14.2070  14.2071  14.2071
    15.0422  15.0422  15.0422  15.0422  16.3155  16.3155  16.3156  16.3156
    16.4209  16.4210  16.4210  16.4211  17.0226  17.0228  17.2785  17.2819

          k = 0.1250 0.1250 0.0000 ( 50046 PWs)   bands (ev):

   -46.1070 -46.1061 -46.1060 -46.1060 -46.1051 -46.1051 -46.1050 -46.1042
   -22.4421 -22.4388 -22.4388 -22.4363 -22.3940 -22.3920 -22.3920 -22.3901
   -22.3859 -22.3859 -22.3828 -22.3828 -22.3828 -22.3827 -22.3804 -22.3804
   -22.3360 -22.3359 -22.3341 -22.3340 -22.3340 -22.3340 -22.3322 -22.3322
   -14.4494 -14.3409 -14.3391 -14.3391 -14.2683 -14.2683 -14.2660 -14.2047
    -6.7428  -6.7428  -6.6833  -6.5336  -6.2950  -6.1481  -6.1481  -5.8980
    -5.8907  -5.8907  -5.8400  -5.8400  -5.8073  -5.7702  -5.7475  -5.7454
    -5.7346  -5.7346  -5.7283  -5.6853  -5.6259  -5.5830  -5.5398  -5.5397
    -0.3249  -0.2775  -0.2355   0.2922   0.2922   0.3018   0.3406   0.3582
     0.3583   0.3719   0.3769   0.4178   0.4888   0.5199   0.5199   0.5418
     0.5418   0.5587   0.6871   0.6871   0.7220   0.7324   0.7324   0.7694
     5.9778   6.1334   6.1334   6.1475   6.3223   6.3830   6.3830   6.4337
     6.4572   6.4572   6.5825   6.6123   6.6123   6.6382   6.6518   7.5721
     7.5721   7.5773   7.5911   7.5911   7.6304   7.6501   7.6520   7.6520
     7.6806   7.7501   7.7501   7.8124   7.9169   7.9332   7.9523   7.9645
     8.0384   8.0462   8.0684   8.0684   8.1696   8.2059   8.2059   8.6112
     8.6112   8.6555   8.7010   8.7010   8.7461   8.8667   8.9160   8.9213
     8.9213   8.9722   9.2097   9.2303   9.2303   9.2801   9.3634   9.4554
     9.4554   9.5038   9.5039   9.5389   9.5571   9.5571   9.6343   9.7620
    10.0266  10.0518  10.1552  10.1552  10.1839  10.2203  10.2916  10.3192
    12.3849  12.5219  12.5716  12.5959  12.6860  12.6860  13.8932  13.8932
    13.9384  13.9385  13.9400  13.9404  13.9404  13.9760  13.9854  14.0027
    14.0282  14.0282  14.3317  14.3427  14.3427  14.5499  14.5686  14.5735
    14.6358  14.6358  14.6507  14.6530  14.6699  15.1160  15.4218  15.4218
    15.4986  15.6395  16.3090  16.3090  16.5783  16.9929  17.1887  17.3015

          k = 0.1250 0.1250 0.1236 ( 50052 PWs)   bands (ev):

   -46.1069 -46.1061 -46.1060 -46.1060 -46.1052 -46.1052 -46.1050 -46.1042
   -22.4403 -22.4371 -22.4371 -22.4346 -22.3958 -22.3938 -22.3938 -22.3918
   -22.3858 -22.3858 -22.3829 -22.3829 -22.3827 -22.3826 -22.3805 -22.3805
   -22.3360 -22.3359 -22.3342 -22.3341 -22.3339 -22.3339 -22.3323 -22.3323
   -14.4454 -14.3451 -14.3365 -14.3364 -14.2711 -14.2710 -14.2637 -14.2071
    -6.7244  -6.7244  -6.6718  -6.5303  -6.2764  -6.1819  -6.1819  -5.9006
    -5.8789  -5.8789  -5.8380  -5.8380  -5.8059  -5.7743  -5.7716  -5.7396
    -5.7267  -5.7267  -5.7236  -5.7010  -5.6255  -5.5896  -5.5476  -5.5476
    -0.3022  -0.2752  -0.1848   0.2765   0.3028   0.3028   0.3101   0.3642
     0.3643   0.3730   0.3762   0.4423   0.4842   0.4953   0.4953   0.5483
     0.5599   0.5599   0.6834   0.6852   0.6852   0.7187   0.7187   0.7598
     6.0079   6.1486   6.1692   6.1692   6.3821   6.4189   6.4189   6.4498
     6.4498   6.4938   6.6203   6.6386   6.6401   6.6401   6.6512   7.5740
     7.5740   7.5800   7.5800   7.5923   7.6431   7.6431   7.6500   7.6666
     7.6976   7.7769   7.7769   7.7794   7.9074   7.9074   7.9095   7.9140
     7.9355   7.9743   8.0124   8.0362   8.1862   8.2003   8.2003   8.5476
     8.6282   8.6282   8.7661   8.8450   8.8450   8.8760   8.8788   8.8988
     8.9390   8.9390   9.2005   9.2005   9.2195   9.3026   9.3853   9.4019
     9.4019   9.5006   9.5006   9.5045   9.5045   9.5561   9.6470   9.7158
    10.0055  10.0086  10.1349  10.1349  10.1400  10.1716  10.2930  10.3245
    12.3904  12.5166  12.6335  12.6523  12.7433  12.7433  13.8955  13.8955
    13.9348  13.9372  13.9372  13.9425  13.9425  13.9521  13.9625  13.9813
    13.9813  13.9957  14.3151  14.3151  14.3398  14.5335  14.5405  14.5526
    14.6506  14.6524  14.7177  14.7177  14.7759  15.2379  15.4176  15.4176
    15.5691  15.7116  16.3485  16.3485  16.5249  17.0009  17.2742  17.3699

          k = 0.1250 0.1250 0.2473 ( 50077 PWs)   bands (ev):

   -46.1068 -46.1062 -46.1059 -46.1059 -46.1053 -46.1053 -46.1049 -46.1043
   -22.4351 -22.4320 -22.4320 -22.4296 -22.4011 -22.3989 -22.3989 -22.3969
   -22.3855 -22.3855 -22.3833 -22.3833 -22.3825 -22.3824 -22.3808 -22.3807
   -22.3358 -22.3356 -22.3344 -22.3343 -22.3337 -22.3337 -22.3325 -22.3325
   -14.4338 -14.3571 -14.3289 -14.3289 -14.2789 -14.2788 -14.2571 -14.2138
    -6.6711  -6.6711  -6.6402  -6.5256  -6.2653  -6.2653  -6.2230  -5.9026
    -5.8561  -5.8561  -5.8432  -5.8330  -5.8330  -5.8019  -5.7757  -5.7436
    -5.7229  -5.7100  -5.7059  -5.7059  -5.6307  -5.6081  -5.5700  -5.5700
    -0.2372  -0.2334  -0.0733   0.2052   0.2255   0.3283   0.3283   0.3793
     0.3874   0.3874   0.3886   0.4585   0.4586   0.4712   0.4945   0.5197
     0.5747   0.5747   0.5764   0.6795   0.6795   0.6844   0.6844   0.7312
     6.0716   6.1508   6.2487   6.2487   6.4301   6.4301   6.5279   6.5279
     6.5538   6.6399   6.6496   6.6613   6.7399   6.7399   6.7532   7.4930
     7.4930   7.5791   7.5791   7.6000   7.6000   7.6389   7.6566   7.6566
     7.6566   7.7009   7.7054   7.7275   7.7418   7.8523   7.8523   7.9039
     7.9137   7.9633   8.0051   8.0879   8.2071   8.2071   8.2351   8.2661
     8.6764   8.6764   8.7443   8.7672   8.8247   8.8834   8.8834   8.9195
     9.0466   9.0466   9.2002   9.2470   9.2470   9.2945   9.2945   9.3727
     9.4022   9.4022   9.4523   9.4528   9.4528   9.5621   9.6044   9.6840
     9.9204   9.9594  10.0182  10.0505  10.0702  10.0702  10.2971  10.3261
    12.4053  12.5015  12.8046  12.8110  12.9015  12.9015  13.7901  13.8075
    13.8392  13.8392  13.9015  13.9015  13.9365  13.9365  13.9585  13.9585
    14.0260  14.0525  14.2422  14.2422  14.3630  14.4621  14.4647  14.5216
    14.6504  14.6511  14.9145  14.9145  15.0534  15.4007  15.4007  15.5657
    15.7687  15.9222  16.3677  16.4776  16.4776  16.9697  17.1135  17.5135

          k = 0.1250 0.1250 0.3709 ( 50059 PWs)   bands (ev):

   -46.1067 -46.1064 -46.1057 -46.1057 -46.1054 -46.1054 -46.1048 -46.1044
   -22.4273 -22.4244 -22.4244 -22.4221 -22.4089 -22.4065 -22.4065 -22.4044
   -22.3850 -22.3850 -22.3838 -22.3838 -22.3821 -22.3820 -22.3812 -22.3811
   -22.3354 -22.3353 -22.3347 -22.3346 -22.3334 -22.3334 -22.3328 -22.3327
   -14.4165 -14.3750 -14.3175 -14.3175 -14.2905 -14.2904 -14.2472 -14.2238
    -6.5974  -6.5883  -6.5883  -6.5316  -6.3725  -6.3725  -6.1413  -5.9374
    -5.8906  -5.8371  -5.8371  -5.8282  -5.8281  -5.8008  -5.7959  -5.7817
    -5.6975  -5.6899  -5.6763  -5.6762  -5.6455  -5.6354  -5.6028  -5.6028
    -0.1466  -0.1387   0.0765   0.1004   0.1049   0.3563   0.3563   0.4023
     0.4072   0.4208   0.4208   0.4229   0.4360   0.4361   0.4519   0.4801
     0.5585   0.5586   0.5587   0.6577   0.6577   0.6702   0.6702   0.6850
     6.1219   6.1515   6.3197   6.3197   6.4023   6.4023   6.6419   6.6472
     6.7060   6.7060   6.8149   6.9029   6.9368   6.9368   7.0060   7.2220
     7.2220   7.4432   7.4432   7.4475   7.4505   7.5863   7.5863   7.6072
     7.6072   7.6682   7.7143   7.7861   7.7971   7.8828   7.8937   7.8997
     7.9507   7.9566   7.9618   7.9618   8.1717   8.1717   8.2509   8.3152
     8.5763   8.6135   8.7456   8.7456   8.8614   8.8614   8.9155   9.0015
     9.0380   9.0380   9.1288   9.1772   9.1772   9.2716   9.2716   9.3423
     9.3629   9.3629   9.4937   9.5437   9.5437   9.5650   9.6755   9.7416
     9.8400   9.8458   9.8883   9.8900   9.9526   9.9526  10.3038  10.3208
    12.4272  12.4791  13.0433  13.0488  13.1279  13.1279  13.5719  13.5882
    13.6325  13.6325  13.9098  13.9098  13.9283  13.9283  13.9956  13.9956
    14.1210  14.1396  14.1484  14.1484  14.3549  14.3603  14.3981  14.4836
    14.6501  14.6502  15.1235  15.1235  15.3592  15.3592  15.4171  16.0085
    16.0671  16.1163  16.2537  16.7134  16.7134  16.7895  16.8024  17.1409

          k = 0.1250 0.1250-0.4946 ( 50038 PWs)   bands (ev):

   -46.1065 -46.1065 -46.1056 -46.1056 -46.1056 -46.1056 -46.1046 -46.1046
   -22.4181 -22.4181 -22.4155 -22.4155 -22.4155 -22.4155 -22.4133 -22.4133
   -22.3844 -22.3844 -22.3844 -22.3844 -22.3816 -22.3816 -22.3816 -22.3815
   -22.3351 -22.3351 -22.3350 -22.3350 -22.3331 -22.3331 -22.3331 -22.3331
   -14.3959 -14.3958 -14.3041 -14.3041 -14.3040 -14.3040 -14.2356 -14.2355
    -6.5569  -6.5568  -6.4850  -6.4850  -6.4848  -6.4848  -6.0418  -6.0417
    -5.8552  -5.8551  -5.8281  -5.8281  -5.8280  -5.8280  -5.7889  -5.7888
    -5.6669  -5.6669  -5.6668  -5.6667  -5.6405  -5.6405  -5.6403  -5.6403
    -0.0273  -0.0272  -0.0205  -0.0204   0.2484   0.2485   0.3861   0.3862
     0.3862   0.3862   0.4294   0.4295   0.4382   0.4382   0.5011   0.5012
     0.5012   0.5012   0.6251   0.6252   0.6597   0.6597   0.6597   0.6597
     6.1451   6.1452   6.3675   6.3675   6.3676   6.3676   6.6445   6.6446
     6.9416   6.9416   6.9417   6.9417   7.1291   7.1293   7.1696   7.1696
     7.1993   7.1993   7.1994   7.1994   7.3704   7.3706   7.5949   7.5949
     7.5950   7.5950   7.8056   7.8057   7.8470   7.8470   7.8742   7.8743
     7.8884   7.8884   8.0799   8.0799   8.0800   8.0800   8.4288   8.4289
     8.4349   8.4350   8.8132   8.8132   8.8132   8.8132   9.0245   9.0246
     9.0882   9.0883   9.0883   9.0883   9.1416   9.1417   9.2754   9.2754
     9.2755   9.2755   9.6591   9.6591   9.7167   9.7167   9.7577   9.7577
     9.7753   9.7753   9.7753   9.7753   9.8135   9.8136  10.3122  10.3124
    12.4530  12.4530  13.3105  13.3106  13.3234  13.3235  13.3840  13.3840
    13.3841  13.3841  13.9191  13.9191  13.9191  13.9191  14.0602  14.0602
    14.0602  14.0603  14.2354  14.2354  14.2466  14.2466  14.4403  14.4404
    14.6499  14.6500  15.2738  15.2738  15.2738  15.2738  15.7888  15.7890
    16.4231  16.4233  16.4578  16.4581  16.6754  16.6756  17.0380  17.0380

          k = 0.1250 0.2500 0.0000 ( 50088 PWs)   bands (ev):

   -46.1069 -46.1061 -46.1060 -46.1059 -46.1052 -46.1052 -46.1050 -46.1043
   -22.4417 -22.4392 -22.4385 -22.4366 -22.3937 -22.3922 -22.3918 -22.3903
   -22.3855 -22.3831 -22.3825 -22.3807 -22.3801 -22.3771 -22.3771 -22.3748
   -22.3419 -22.3398 -22.3398 -22.3379 -22.3357 -22.3342 -22.3338 -22.3324
   -14.4367 -14.3523 -14.3325 -14.3306 -14.2770 -14.2747 -14.2610 -14.2123
    -6.7073  -6.6931  -6.6286  -6.5411  -6.3504  -6.2242  -6.0912  -5.8880
    -5.8744  -5.8672  -5.8443  -5.8264  -5.8008  -5.7660  -5.7604  -5.7513
    -5.7269  -5.7171  -5.7107  -5.7088  -5.6931  -5.5988  -5.5895  -5.5636
    -0.2702  -0.1942  -0.1414   0.2107   0.2820   0.3064   0.3144   0.3784
     0.3914   0.3945   0.4023   0.4481   0.4671   0.4870   0.4989   0.5198
     0.5594   0.5605   0.5864   0.6765   0.6878   0.6997   0.7014   0.7172
     6.0416   6.1332   6.1971   6.2296   6.3084   6.4333   6.4553   6.5329
     6.5604   6.5970   6.6285   6.6481   6.7383   6.7702   6.7722   7.4358
     7.5435   7.6155   7.6323   7.6341   7.6475   7.6516   7.6520   7.6623
     7.7097   7.7100   7.7306   7.7516   7.7576   7.7880   7.7880   7.9058
     7.9495   8.0015   8.0107   8.1196   8.1850   8.1862   8.2628   8.3304
     8.6858   8.6994   8.6996   8.7535   8.7668   8.8183   8.8633   8.9233
     8.9770   9.1758   9.1799   9.1859   9.3286   9.3333   9.3360   9.3440
     9.3540   9.4467   9.5232   9.5272   9.5349   9.5452   9.5732   9.6074
     9.9487   9.9944  10.0830  10.0838  10.1610  10.1844  10.2179  10.2229
    12.5463  12.6323  12.6710  12.7101  12.7141  12.7927  13.7342  13.7645
    13.7783  13.7885  13.9103  13.9446  13.9610  13.9788  14.0027  14.0059
    14.0245  14.0656  14.2487  14.2629  14.3693  14.4641  14.4876  14.5441
    14.6455  14.6652  14.8173  14.8665  14.9626  15.1301  15.4009  15.7224
    15.7601  15.8496  16.1860  16.4801  16.7096  17.0559  17.1945  17.3369

          k = 0.1250 0.2500 0.1236 ( 50066 PWs)   bands (ev):

   -46.1068 -46.1061 -46.1060 -46.1059 -46.1053 -46.1051 -46.1050 -46.1043
   -22.4399 -22.4374 -22.4368 -22.4349 -22.3956 -22.3940 -22.3935 -22.3921
   -22.3854 -22.3830 -22.3826 -22.3808 -22.3800 -22.3772 -22.3770 -22.3749
   -22.3418 -22.3399 -22.3397 -22.3380 -22.3357 -22.3342 -22.3339 -22.3325
   -14.4329 -14.3495 -14.3366 -14.3280 -14.2799 -14.2723 -14.2637 -14.2147
    -6.6901  -6.6747  -6.6187  -6.5355  -6.3318  -6.2428  -6.1271  -5.8915
    -5.8680  -5.8607  -5.8429  -5.8240  -5.8043  -5.7994  -5.7625  -5.7460
    -5.7233  -5.7207  -5.7109  -5.7073  -5.6797  -5.6042  -5.5966  -5.5699
    -0.2503  -0.2044  -0.0813   0.2249   0.2787   0.2887   0.3098   0.3568
     0.3763   0.3882   0.4099   0.4442   0.4536   0.4801   0.4956   0.5254
     0.5683   0.5697   0.5737   0.6753   0.6766   0.6828   0.7002   0.7204
     6.0758   6.1693   6.2303   6.2399   6.3666   6.4268   6.4888   6.5578
     6.6068   6.6192   6.6258   6.6744   6.7392   6.7740   6.7928   7.4480
     7.5171   7.6139   7.6289   7.6360   7.6367   7.6383   7.6482   7.6637
     7.6930   7.7095   7.7506   7.7523   7.7685   7.7770   7.8085   7.9055
     7.9361   7.9620   7.9977   8.0376   8.0901   8.1354   8.2596   8.3475
     8.5968   8.7125   8.7140   8.7985   8.8164   8.8331   8.8916   8.9183
     8.9657   9.1605   9.2104   9.2121   9.2915   9.3192   9.3249   9.3513
     9.3878   9.4694   9.4750   9.4983   9.4984   9.5425   9.5604   9.5736
     9.9246   9.9547  10.0415  10.0687  10.1382  10.1388  10.2224  10.2276
    12.5707  12.6737  12.7092  12.7287  12.7549  12.8463  13.7370  13.7708
    13.7854  13.8046  13.9149  13.9281  13.9504  13.9559  13.9769  13.9797
    13.9954  14.0224  14.2304  14.2567  14.3417  14.4476  14.4631  14.5165
    14.7264  14.7364  14.8668  14.9116  14.9987  15.2514  15.3966  15.7579
    15.7870  15.9197  16.2247  16.5059  16.6553  17.0833  17.2290  17.3751

          k = 0.1250 0.2500 0.2473 ( 50082 PWs)   bands (ev):

   -46.1067 -46.1061 -46.1060 -46.1058 -46.1054 -46.1051 -46.1050 -46.1044
   -22.4347 -22.4324 -22.4317 -22.4299 -22.4008 -22.3991 -22.3986 -22.3971
   -22.3851 -22.3830 -22.3828 -22.3811 -22.3797 -22.3776 -22.3767 -22.3751
   -22.3416 -22.3401 -22.3395 -22.3382 -22.3355 -22.3341 -22.3340 -22.3327
   -14.4218 -14.3481 -14.3415 -14.3206 -14.2882 -14.2713 -14.2657 -14.2215
    -6.6406  -6.6212  -6.5920  -6.5235  -6.2971  -6.2782  -6.2130  -5.8972
    -5.8854  -5.8648  -5.8400  -5.8363  -5.8181  -5.7953  -5.7736  -5.7572
    -5.7310  -5.7069  -5.6977  -5.6946  -5.6690  -5.6194  -5.6161  -5.5875
    -0.2000  -0.1713   0.0366   0.2145   0.2576   0.2672   0.2836   0.3204
     0.3686   0.3951   0.3970   0.4313   0.4330   0.4439   0.5261   0.5269
     0.5514   0.5528   0.6023   0.6052   0.6769   0.6796   0.6956   0.7191
     6.1488   6.2322   6.2482   6.3418   6.4096   6.5331   6.5933   6.5939
     6.6429   6.7123   6.7271   6.7517   6.7649   6.8021   6.8737   7.3984
     7.4895   7.5053   7.5446   7.5854   7.6097   7.6163   7.6474   7.6516
     7.6620   7.6806   7.6958   7.7961   7.8019   7.8516   7.8633   7.8664
     7.8674   7.9055   7.9115   7.9699   8.0224   8.1826   8.2538   8.3312
     8.3943   8.5679   8.6783   8.7455   8.7716   8.8691   8.8743   9.0768
     9.1443   9.1648   9.1898   9.2413   9.2920   9.3186   9.3250   9.3817
     9.3837   9.4101   9.4224   9.4661   9.4764   9.4909   9.5375   9.5878
     9.8457   9.8931   9.9270  10.0215  10.0306  10.0667  10.2217  10.2311
    12.5994  12.6953  12.8265  12.8860  12.8879  12.9943  13.7443  13.7693
    13.7847  13.7937  13.8130  13.8484  13.8779  13.8814  13.9268  13.9711
    13.9933  14.0337  14.1441  14.2685  14.2796  14.3671  14.4244  14.4489
    14.8282  14.8671  14.9197  15.1461  15.1891  15.3802  15.5786  15.7446
    15.9697  16.1257  16.3523  16.4956  16.5947  17.0675  17.2344  17.3272

          k = 0.1250 0.2500 0.3709 ( 50064 PWs)   bands (ev):

   -46.1066 -46.1062 -46.1058 -46.1056 -46.1055 -46.1053 -46.1049 -46.1046
   -22.4270 -22.4248 -22.4242 -22.4224 -22.4086 -22.4068 -22.4063 -22.4047
   -22.3846 -22.3835 -22.3824 -22.3814 -22.3792 -22.3780 -22.3764 -22.3755
   -22.3413 -22.3405 -22.3392 -22.3385 -22.3352 -22.3344 -22.3337 -22.3330
   -14.4051 -14.3652 -14.3294 -14.3094 -14.3006 -14.2827 -14.2556 -14.2317
    -6.5650  -6.5576  -6.5381  -6.5175  -6.3787  -6.3213  -6.1958  -5.9865
    -5.8923  -5.8545  -5.8390  -5.8192  -5.8178  -5.8119  -5.7886  -5.7713
    -5.7093  -5.6899  -5.6831  -5.6720  -5.6714  -5.6425  -5.6414  -5.6136
    -0.1263  -0.0829   0.1027   0.1520   0.1830   0.2723   0.3390   0.3392
     0.3397   0.3746   0.4034   0.4151   0.4155   0.4619   0.4812   0.4855
     0.4944   0.5158   0.6114   0.6399   0.6780   0.6786   0.6880   0.7011
     6.2043   6.2331   6.3146   6.3857   6.4408   6.5569   6.7413   6.7442
     6.7714   6.7840   6.7868   6.9309   6.9514   6.9985   7.0414   7.1854
     7.2655   7.3772   7.3866   7.4532   7.5324   7.5630   7.6052   7.6142
     7.6174   7.6581   7.6913   7.7649   7.7688   7.8303   7.8878   7.9120
     7.9210   7.9329   7.9641   8.0128   8.0269   8.0458   8.1976   8.2637
     8.3887   8.4601   8.5335   8.6392   8.7756   8.8101   8.9389   9.1205
     9.1411   9.1630   9.1752   9.2609   9.2655   9.2966   9.3004   9.3318
     9.4134   9.4213   9.4644   9.5170   9.5438   9.5732   9.6086   9.6587
     9.7574   9.7653   9.8231   9.8771   9.9315   9.9395  10.2220  10.2284
    12.6241  12.6745  13.0601  13.0891  13.1154  13.2063  13.5716  13.5972
    13.6183  13.6832  13.7546  13.7816  13.8428  13.9428  13.9782  13.9859
    14.0140  14.0317  14.1170  14.1736  14.2478  14.3144  14.3313  14.4003
    14.8557  14.8665  15.1212  15.3414  15.4078  15.5337  15.7015  16.0251
    16.2399  16.2438  16.4520  16.5875  16.7747  16.8671  16.9210  17.3302

          k = 0.1250 0.2500-0.4946 ( 50056 PWs)   bands (ev):

   -46.1064 -46.1064 -46.1057 -46.1057 -46.1055 -46.1054 -46.1047 -46.1047
   -22.4178 -22.4178 -22.4158 -22.4158 -22.4152 -22.4152 -22.4136 -22.4136
   -22.3840 -22.3840 -22.3819 -22.3819 -22.3786 -22.3786 -22.3759 -22.3759
   -22.3409 -22.3408 -22.3388 -22.3388 -22.3348 -22.3348 -22.3333 -22.3333
   -14.3853 -14.3852 -14.3151 -14.3150 -14.2962 -14.2961 -14.2438 -14.2437
    -6.5290  -6.5289  -6.4733  -6.4732  -6.4344  -6.4343  -6.0945  -6.0944
    -5.8657  -5.8656  -5.8438  -5.8437  -5.8101  -5.8101  -5.7803  -5.7802
    -5.6868  -5.6867  -5.6688  -5.6687  -5.6644  -5.6643  -5.6434  -5.6432
    -0.0204  -0.0204   0.0308   0.0309   0.2968   0.2968   0.3393   0.3393
     0.3670   0.3670   0.3932   0.3932   0.4170   0.4170   0.4430   0.4430
     0.4931   0.4932   0.6639   0.6640   0.6663   0.6663   0.6813   0.6814
     6.2276   6.2277   6.3561   6.3562   6.5088   6.5089   6.7443   6.7444
     6.9695   6.9696   7.0036   7.0037   7.0814   7.0815   7.1334   7.1335
     7.2136   7.2137   7.2860   7.2861   7.3629   7.3631   7.6043   7.6044
     7.6599   7.6600   7.6705   7.6706   7.8505   7.8506   7.8622   7.8623
     7.9335   7.9335   7.9890   7.9891   8.0907   8.0908   8.2068   8.2069
     8.3842   8.3843   8.5376   8.5376   8.7835   8.7835   9.0368   9.0368
     9.1271   9.1272   9.2107   9.2107   9.2529   9.2529   9.3321   9.3321
     9.3824   9.3825   9.5868   9.5868   9.6674   9.6674   9.7042   9.7042
     9.7423   9.7424   9.7521   9.7521   9.7906   9.7906  10.2243  10.2245
    12.6497  12.6497  13.3209  13.3209  13.3401  13.3402  13.3720  13.3721
    13.4474  13.4474  13.7669  13.7669  13.9240  13.9241  13.9607  13.9608
    14.0831  14.0831  14.1145  14.1146  14.2204  14.2204  14.3564  14.3564
    14.8638  14.8638  15.2625  15.2625  15.5991  15.5991  15.9072  15.9073
    16.4889  16.4891  16.5745  16.5747  16.8692  16.8693  16.9102  16.9103

          k = 0.1250 0.3750 0.0000 ( 50034 PWs)   bands (ev):

   -46.1067 -46.1063 -46.1058 -46.1057 -46.1054 -46.1053 -46.1048 -46.1044
   -22.4411 -22.4398 -22.4381 -22.4371 -22.3934 -22.3926 -22.3914 -22.3906
   -22.3850 -22.3837 -22.3821 -22.3811 -22.3714 -22.3686 -22.3685 -22.3664
   -22.3507 -22.3484 -22.3483 -22.3464 -22.3354 -22.3346 -22.3335 -22.3327
   -14.4177 -14.3720 -14.3199 -14.3180 -14.2899 -14.2877 -14.2499 -14.2235
    -6.6572  -6.6175  -6.5638  -6.5442  -6.4321  -6.3277  -6.0045  -5.8732
    -5.8509  -5.8495  -5.8311  -5.8065  -5.8013  -5.7793  -5.7770  -5.7646
    -5.7514  -5.7400  -5.7256  -5.6905  -5.6799  -5.6580  -5.6261  -5.5991
    -0.1711  -0.0856   0.0075   0.0918   0.1702   0.3306   0.3447   0.3836
     0.4004   0.4049   0.4215   0.4390   0.4601   0.4679   0.4704   0.4887
     0.5280   0.5868   0.6123   0.6236   0.6416   0.6530   0.6597   0.6669
     6.0939   6.1306   6.2427   6.2900   6.3067   6.4005   6.5861   6.5976
     6.6181   6.7572   6.8603   6.8879   6.9416   7.0131   7.0224   7.1487
     7.3232   7.4346   7.4602   7.5157   7.5329   7.6107   7.6408   7.6458
     7.6470   7.6642   7.7407   7.7971   7.8186   7.8245   7.8799   7.8821
     7.9339   7.9411   7.9625   8.0214   8.0532   8.1362   8.3395   8.3607
     8.6049   8.6839   8.7087   8.7266   8.8303   8.8499   8.9078   8.9170
     8.9654   9.0937   9.0953   9.1489   9.2101   9.2831   9.2863   9.3764
     9.4029   9.4269   9.4784   9.4970   9.6319   9.6587   9.6859   9.6878
     9.8095   9.8924   9.9345   9.9533  10.0244  10.0985  10.1703  10.1960
    12.5962  12.6491  12.8856  12.9333  12.9820  12.9927  13.4905  13.5121
    13.5328  13.5578  13.9356  13.9545  13.9691  13.9948  14.0187  14.0191
    14.0987  14.1413  14.1430  14.1618  14.3460  14.3736  14.4092  14.5038
    14.6541  14.6635  14.9850  15.0894  15.1277  15.3343  15.3512  15.9777
    16.0641  16.1739  16.2028  16.7687  16.8572  16.9360  16.9569  17.0816

          k = 0.1250 0.3750 0.1236 ( 50064 PWs)   bands (ev):

   -46.1067 -46.1063 -46.1058 -46.1057 -46.1054 -46.1053 -46.1049 -46.1045
   -22.4393 -22.4380 -22.4363 -22.4353 -22.3952 -22.3944 -22.3932 -22.3924
   -22.3849 -22.3836 -22.3822 -22.3812 -22.3713 -22.3687 -22.3685 -22.3665
   -22.3506 -22.3485 -22.3483 -22.3465 -22.3353 -22.3345 -22.3336 -22.3328
   -14.4140 -14.3689 -14.3237 -14.3154 -14.2931 -14.2853 -14.2525 -14.2260
    -6.6420  -6.5989  -6.5549  -6.5372  -6.4135  -6.3339  -6.0448  -5.8767
    -5.8624  -5.8508  -5.8409  -5.8319  -5.8036  -5.7771  -5.7661  -5.7602
    -5.7422  -5.7406  -5.7215  -5.6868  -5.6785  -5.6636  -5.6288  -5.6030
    -0.1542  -0.1001   0.0658   0.1081   0.1583   0.3162   0.3295   0.3960
     0.4011   0.4045   0.4100   0.4156   0.4214   0.4573   0.4721   0.4809
     0.5533   0.5564   0.5743   0.6516   0.6634   0.6643   0.6655   0.6726
     6.1310   6.1673   6.2922   6.3056   6.3460   6.3953   6.6109   6.6236
     6.6482   6.7832   6.8700   6.8749   6.9450   7.0189   7.0320   7.1705
     7.2971   7.4199   7.4652   7.4888   7.5512   7.6011   7.6508   7.6543
     7.6680   7.6800   7.7066   7.7754   7.8340   7.8386   7.8764   7.8865
     7.8927   7.9345   7.9437   8.0411   8.0618   8.0661   8.2057   8.3601
     8.5365   8.6411   8.6614   8.7006   8.8317   8.8950   8.9406   8.9725
     8.9741   9.1293   9.1442   9.1676   9.1708   9.2633   9.2960   9.3904
     9.3996   9.4048   9.4660   9.5337   9.5876   9.6458   9.6491   9.6922
     9.7893   9.8576   9.8934   9.9485  10.0206  10.0952  10.1446  10.1717
    12.6529  12.7072  12.8942  12.9626  12.9776  13.0397  13.4948  13.5219
    13.5544  13.5650  13.9446  13.9450  13.9703  13.9706  13.9708  13.9755
    14.0846  14.1072  14.1231  14.1490  14.3279  14.3471  14.3815  14.4759
    14.7343  14.7411  15.0889  15.0929  15.2477  15.3475  15.3670  16.0147
    16.1186  16.2042  16.2433  16.7798  16.8809  16.8940  16.9825  17.1489

          k = 0.1250 0.3750 0.2473 ( 50043 PWs)   bands (ev):

   -46.1066 -46.1062 -46.1059 -46.1056 -46.1055 -46.1052 -46.1050 -46.1046
   -22.4342 -22.4329 -22.4313 -22.4303 -22.4004 -22.3995 -22.3983 -22.3975
   -22.3846 -22.3833 -22.3825 -22.3815 -22.3710 -22.3690 -22.3682 -22.3667
   -22.3504 -22.3488 -22.3481 -22.3467 -22.3351 -22.3343 -22.3338 -22.3330
   -14.4036 -14.3602 -14.3345 -14.3081 -14.3021 -14.2784 -14.2600 -14.2331
    -6.5991  -6.5452  -6.5323  -6.5198  -6.3597  -6.3562  -6.1346  -5.9548
    -5.8847  -5.8585  -5.8516  -5.8051  -5.8015  -5.7962  -5.7757  -5.7480
    -5.7455  -5.7172  -5.7146  -5.6776  -5.6775  -5.6745  -5.6368  -5.6139
    -0.1195  -0.0751   0.1397   0.1601   0.1810   0.2355   0.3288   0.3294
     0.3335   0.3725   0.3903   0.4166   0.4203   0.4760   0.4796   0.4863
     0.4922   0.5263   0.6091   0.6332   0.6745   0.6763   0.6870   0.7002
     6.2098   6.2462   6.3031   6.3819   6.4227   6.5045   6.7057   6.7226
     6.7378   6.8381   6.8519   6.9054   6.9595   7.0131   7.0977   7.2227
     7.2333   7.3714   7.4014   7.4745   7.5650   7.5777   7.6064   7.6300
     7.6532   7.7141   7.7454   7.7473   7.7604   7.8704   7.8733   7.8891
     7.8985   7.9183   7.9220   7.9638   7.9863   8.0929   8.1066   8.3308
     8.3723   8.4063   8.5644   8.5810   8.8213   8.8709   8.8859   9.1281
     9.1309   9.1371   9.1971   9.2129   9.2302   9.2543   9.3269   9.3587
     9.4163   9.4336   9.4407   9.5001   9.6015   9.6080   9.6276   9.6746
     9.7236   9.7888   9.8098   9.9290   9.9834  10.0650  10.0871  10.1173
    12.7952  12.8673  12.9303  12.9651  13.0545  13.1698  13.5051  13.5435
    13.5574  13.6544  13.8044  13.8333  13.8338  13.9692  13.9693  13.9970
    14.0180  14.0187  14.0822  14.1712  14.2351  14.3077  14.3165  14.4016
    14.9001  14.9225  15.0862  15.3335  15.3734  15.4999  15.5717  16.1400
    16.1963  16.2734  16.4479  16.7187  16.8201  16.9976  16.9998  17.3393

          k = 0.1250 0.3750 0.3709 ( 50077 PWs)   bands (ev):

   -46.1064 -46.1061 -46.1060 -46.1057 -46.1055 -46.1051 -46.1051 -46.1047
   -22.4265 -22.4253 -22.4238 -22.4228 -22.4082 -22.4072 -22.4059 -22.4050
   -22.3841 -22.3830 -22.3829 -22.3819 -22.3705 -22.3695 -22.3679 -22.3670
   -22.3500 -22.3491 -22.3477 -22.3470 -22.3348 -22.3341 -22.3340 -22.3333
   -14.3880 -14.3506 -14.3470 -14.3156 -14.2972 -14.2712 -14.2681 -14.2435
    -6.5359  -6.5076  -6.5016  -6.4619  -6.4007  -6.2766  -6.2443  -6.0622
    -5.8888  -5.8673  -5.8561  -5.8440  -5.7877  -5.7875  -5.7708  -5.7536
    -5.7313  -5.7096  -5.7096  -5.6932  -5.6683  -5.6644  -5.6483  -5.6299
    -0.0692   0.0072   0.1246   0.1496   0.2268   0.2311   0.2501   0.3155
     0.3342   0.3595   0.3750   0.3806   0.4111   0.4321   0.4798   0.4812
     0.4855   0.5597   0.5639   0.6588   0.6676   0.6904   0.7000   0.7082
     6.2680   6.2998   6.3080   6.3640   6.5786   6.7378   6.7807   6.8729
     6.8885   6.8902   6.9160   7.0038   7.0167   7.0431   7.1151   7.2337
     7.2376   7.2922   7.3296   7.3417   7.4492   7.5428   7.5513   7.5672
     7.5981   7.6576   7.6961   7.7453   7.8247   7.8612   7.8695   7.8733
     7.8916   7.9068   7.9262   7.9420   7.9920   8.1445   8.1675   8.1810
     8.1844   8.2473   8.4039   8.4344   8.7845   8.7997   8.8635   9.0038
     9.1490   9.2332   9.2633   9.2948   9.2963   9.3538   9.3722   9.4051
     9.4238   9.4662   9.4744   9.5030   9.6112   9.6340   9.6390   9.6462
     9.6821   9.6843   9.7811   9.8683   9.8826   9.9265  10.0786  10.0836
    12.8884  12.9459  13.0911  13.0951  13.2087  13.3575  13.5135  13.5201
    13.5952  13.6286  13.6333  13.6420  13.7851  13.7868  13.8787  13.9996
    14.0432  14.0582  14.0920  14.0962  14.2051  14.2114  14.2725  14.3078
    15.0102  15.0781  15.1105  15.3011  15.7177  15.7775  16.0139  16.1449
    16.3758  16.4600  16.5088  16.7724  16.8403  16.9147  17.0309  17.1315

          k = 0.1250 0.3750-0.4946 ( 50074 PWs)   bands (ev):

   -46.1062 -46.1062 -46.1058 -46.1058 -46.1053 -46.1053 -46.1049 -46.1049
   -22.4174 -22.4174 -22.4163 -22.4163 -22.4149 -22.4148 -22.4140 -22.4139
   -22.3836 -22.3835 -22.3824 -22.3824 -22.3700 -22.3700 -22.3675 -22.3674
   -22.3496 -22.3495 -22.3474 -22.3474 -22.3345 -22.3345 -22.3337 -22.3336
   -14.3694 -14.3693 -14.3314 -14.3313 -14.2843 -14.2842 -14.2559 -14.2558
    -6.4953  -6.4952  -6.4648  -6.4646  -6.3579  -6.3577  -6.1736  -6.1735
    -5.8766  -5.8765  -5.8638  -5.8637  -5.7828  -5.7828  -5.7628  -5.7627
    -5.7161  -5.7160  -5.7040  -5.7039  -5.6598  -5.6596  -5.6480  -5.6479
     0.0153   0.0153   0.1136   0.1137   0.1866   0.1867   0.3195   0.3196
     0.3508   0.3508   0.3620   0.3621   0.4483   0.4483   0.4546   0.4547
     0.4817   0.4817   0.6286   0.6286   0.6938   0.6938   0.7003   0.7003
     6.2920   6.2921   6.3419   6.3420   6.6994   6.6995   6.9351   6.9352
     7.0006   7.0006   7.0010   7.0011   7.0996   7.0997   7.1150   7.1150
     7.2383   7.2384   7.3420   7.3421   7.4434   7.4435   7.4517   7.4518
     7.5307   7.5308   7.7732   7.7733   7.7970   7.7971   7.8772   7.8772
     7.9208   7.9208   8.0008   8.0008   8.0076   8.0077   8.1231   8.1232
     8.2660   8.2660   8.2952   8.2953   8.7611   8.7612   8.9015   8.9015
     9.2174   9.2174   9.2966   9.2966   9.3290   9.3290   9.3770   9.3770
     9.4931   9.4931   9.5433   9.5434   9.6097   9.6098   9.6923   9.6924
     9.7287   9.7287   9.7439   9.7439   9.7980   9.7980  10.0752  10.0754
    12.9214  12.9215  13.3442  13.3443  13.3460  13.3461  13.4113  13.4114
    13.5433  13.5434  13.5730  13.5731  13.7394  13.7394  13.9389  13.9390
    14.0296  14.0297  14.1174  14.1175  14.1852  14.1852  14.2474  14.2475
    15.0581  15.0581  15.2346  15.2346  15.9968  15.9968  16.1291  16.1292
    16.4734  16.4736  16.6979  16.6980  16.7996  16.7998  17.1031  17.1876

          k = 0.1250-0.5000 0.0000 ( 50032 PWs)   bands (ev):

   -46.1065 -46.1065 -46.1056 -46.1056 -46.1055 -46.1055 -46.1046 -46.1046
   -22.4405 -22.4405 -22.4376 -22.4376 -22.3930 -22.3930 -22.3910 -22.3910
   -22.3843 -22.3843 -22.3816 -22.3816 -22.3611 -22.3610 -22.3585 -22.3585
   -22.3585 -22.3585 -22.3564 -22.3564 -22.3350 -22.3350 -22.3331 -22.3331
   -14.3950 -14.3949 -14.3050 -14.3049 -14.3029 -14.3029 -14.2368 -14.2367
    -6.6050  -6.6050  -6.5260  -6.5260  -6.4396  -6.4396  -5.9001  -5.9001
    -5.8603  -5.8603  -5.8192  -5.8192  -5.7885  -5.7885  -5.7844  -5.7843
    -5.7327  -5.7327  -5.7268  -5.7267  -5.6585  -5.6585  -5.6403  -5.6403
    -0.0433  -0.0433   0.0412   0.0412   0.1898   0.1899   0.3643   0.3643
     0.3884   0.3884   0.4325   0.4326   0.4543   0.4543   0.5387   0.5387
     0.5537   0.5537   0.5927   0.5927   0.6296   0.6296   0.6381   0.6381
     6.1206   6.1206   6.2693   6.2693   6.3605   6.3605   6.5943   6.5943
     6.8586   6.8587   7.0159   7.0159   7.1458   7.1458   7.1989   7.1989
     7.2127   7.2127   7.2920   7.2921   7.3674   7.3674   7.6435   7.6435
     7.6543   7.6543   7.8416   7.8416   7.8492   7.8492   7.8889   7.8889
     7.9323   7.9323   7.9409   7.9409   8.0189   8.0189   8.4620   8.4620
     8.5340   8.5340   8.7041   8.7041   8.9823   8.9823   8.9838   8.9838
     8.9943   8.9943   9.0497   9.0497   9.0765   9.0765   9.3189   9.3189
     9.3445   9.3445   9.6420   9.6420   9.7584   9.7584   9.7744   9.7744
     9.7845   9.7845   9.8449   9.8449   9.9100   9.9100  10.1823  10.1823
    12.6234  12.6234  13.1940  13.1941  13.2196  13.2196  13.2554  13.2554
    13.2772  13.2772  13.9471  13.9471  14.0105  14.0105  14.0400  14.0400
    14.0713  14.0713  14.2180  14.2180  14.2516  14.2517  14.4564  14.4564
    14.6600  14.6600  15.0864  15.0865  15.2535  15.2535  15.6876  15.6876
    16.4649  16.4650  16.5951  16.5951  16.6415  16.6415  17.1298  17.1298

          k = 0.1250-0.5000 0.1236 ( 50048 PWs)   bands (ev):

   -46.1065 -46.1065 -46.1056 -46.1056 -46.1055 -46.1055 -46.1047 -46.1047
   -22.4387 -22.4387 -22.4358 -22.4358 -22.3948 -22.3948 -22.3928 -22.3928
   -22.3842 -22.3842 -22.3817 -22.3817 -22.3610 -22.3610 -22.3586 -22.3586
   -22.3584 -22.3584 -22.3565 -22.3565 -22.3349 -22.3349 -22.3332 -22.3332
   -14.3916 -14.3916 -14.3085 -14.3084 -14.3004 -14.3004 -14.2393 -14.2393
    -6.5927  -6.5927  -6.5074  -6.5074  -6.4377  -6.4377  -5.9494  -5.9494
    -5.8619  -5.8619  -5.8032  -5.8032  -5.7931  -5.7931  -5.7808  -5.7808
    -5.7300  -5.7300  -5.7298  -5.7298  -5.6580  -5.6580  -5.6415  -5.6415
    -0.0272  -0.0271   0.0259   0.0259   0.2382   0.2382   0.3563   0.3563
     0.3610   0.3611   0.4281   0.4281   0.4393   0.4393   0.4940   0.4940
     0.5376   0.5376   0.6157   0.6158   0.6515   0.6515   0.6551   0.6551
     6.1579   6.1579   6.3225   6.3225   6.3571   6.3571   6.6195   6.6195
     6.8857   6.8858   7.0180   7.0180   7.1350   7.1350   7.1800   7.1801
     7.2184   7.2184   7.3095   7.3096   7.3672   7.3673   7.6477   7.6477
     7.6763   7.6764   7.8018   7.8019   7.8596   7.8596   7.8667   7.8668
     7.9373   7.9373   7.9528   7.9528   7.9870   7.9870   8.3712   8.3713
     8.5043   8.5044   8.6565   8.6565   8.9299   8.9299   9.0337   9.0337
     9.0493   9.0493   9.0852   9.0852   9.0955   9.0955   9.3029   9.3029
     9.3589   9.3589   9.6275   9.6275   9.7327   9.7327   9.7493   9.7493
     9.7667   9.7667   9.8496   9.8496   9.9035   9.9035  10.1548  10.1548
    12.6817  12.6817  13.2003  13.2003  13.2363  13.2363  13.2733  13.2734
    13.2948  13.2948  13.9601  13.9601  13.9614  13.9614  14.0268  14.0268
    14.0471  14.0471  14.1999  14.1999  14.2219  14.2219  14.4285  14.4285
    14.7393  14.7393  15.2029  15.2029  15.2512  15.2512  15.7223  15.7223
    16.5080  16.5080  16.6507  16.6508  16.6650  16.6651  17.1318  17.1319

          k = 0.1250-0.5000 0.2473 ( 50052 PWs)   bands (ev):

   -46.1064 -46.1064 -46.1057 -46.1057 -46.1054 -46.1054 -46.1048 -46.1048
   -22.4336 -22.4336 -22.4308 -22.4308 -22.4000 -22.4000 -22.3979 -22.3979
   -22.3839 -22.3839 -22.3820 -22.3820 -22.3607 -22.3607 -22.3589 -22.3589
   -22.3582 -22.3582 -22.3567 -22.3567 -22.3347 -22.3347 -22.3334 -22.3334
   -14.3820 -14.3820 -14.3184 -14.3184 -14.2933 -14.2933 -14.2466 -14.2466
    -6.5589  -6.5589  -6.4536  -6.4536  -6.4358  -6.4358  -6.0430  -6.0430
    -5.8674  -5.8674  -5.8344  -5.8344  -5.7712  -5.7712  -5.7644  -5.7644
    -5.7359  -5.7358  -5.7288  -5.7288  -5.6572  -5.6572  -5.6447  -5.6447
    -0.0004  -0.0004   0.0406   0.0406   0.2740   0.2740   0.3380   0.3380
     0.3532   0.3532   0.3927   0.3927   0.4132   0.4132   0.4434   0.4435
     0.5104   0.5104   0.6568   0.6568   0.6592   0.6593   0.6833   0.6833
     6.2374   6.2374   6.3488   6.3488   6.4703   6.4703   6.7181   6.7181
     6.9636   6.9637   7.0223   7.0223   7.1129   7.1129   7.1234   7.1235
     7.2354   7.2354   7.3613   7.3613   7.3679   7.3679   7.6333   7.6333
     7.6564   7.6564   7.7341   7.7342   7.8406   7.8407   7.8839   7.8839
     7.9300   7.9300   7.9551   7.9551   7.9928   7.9928   8.1804   8.1804
     8.4393   8.4393   8.4769   8.4769   8.8535   8.8535   8.9698   8.9698
     9.1646   9.1646   9.1972   9.1972   9.2133   9.2133   9.3029   9.3029
     9.3873   9.3873   9.5793   9.5793   9.6383   9.6383   9.7122   9.7122
     9.7848   9.7848   9.8435   9.8435   9.8875   9.8875  10.0721  10.0721
    12.8412  12.8412  13.2156  13.2156  13.2620  13.2621  13.2941  13.2941
    13.4039  13.4039  13.8219  13.8219  13.9043  13.9043  13.9984  13.9984
    14.0678  14.0678  14.0941  14.0941  14.1944  14.1944  14.3543  14.3543
    14.9189  14.9189  15.2425  15.2425  15.5142  15.5142  15.8461  15.8462
    16.6328  16.6328  16.6526  16.6526  16.8695  16.8695  17.0100  17.0100

          k = 0.1250-0.5000 0.3709 ( 50086 PWs)   bands (ev):

   -46.1062 -46.1062 -46.1059 -46.1059 -46.1053 -46.1053 -46.1049 -46.1049
   -22.4259 -22.4259 -22.4233 -22.4233 -22.4077 -22.4077 -22.4055 -22.4055
   -22.3835 -22.3835 -22.3825 -22.3825 -22.3603 -22.3603 -22.3593 -22.3593
   -22.3578 -22.3578 -22.3570 -22.3570 -22.3344 -22.3344 -22.3337 -22.3337
   -14.3676 -14.3676 -14.3332 -14.3331 -14.2827 -14.2827 -14.2574 -14.2574
    -6.5135  -6.5135  -6.4440  -6.4440  -6.3702  -6.3702  -6.1531  -6.1530
    -5.8753  -5.8753  -5.8635  -5.8635  -5.7591  -5.7590  -5.7502  -5.7502
    -5.7389  -5.7389  -5.7320  -5.7320  -5.6563  -5.6563  -5.6493  -5.6493
     0.0270   0.0270   0.1165   0.1166   0.1747   0.1747   0.3174   0.3174
     0.3462   0.3463   0.3628   0.3628   0.4496   0.4496   0.4540   0.4540
     0.4867   0.4868   0.6251   0.6251   0.6901   0.6901   0.7029   0.7029
     6.2966   6.2966   6.3382   6.3382   6.6752   6.6752   6.9097   6.9097
     7.0258   7.0258   7.0264   7.0265   7.0844   7.0844   7.1084   7.1084
     7.2582   7.2582   7.3467   7.3468   7.4515   7.4515   7.4810   7.4810
     7.5302   7.5302   7.7846   7.7846   7.8047   7.8048   7.8943   7.8943
     7.8949   7.8949   7.9928   7.9928   8.0055   8.0055   8.0730   8.0730
     8.2521   8.2521   8.3292   8.3292   8.7975   8.7975   8.8581   8.8581
     9.2436   9.2436   9.2866   9.2866   9.3111   9.3111   9.4071   9.4071
     9.4737   9.4737   9.4928   9.4928   9.5191   9.5191   9.7421   9.7421
     9.7953   9.7953   9.8177   9.8177   9.8711   9.8711   9.9451   9.9451
    13.0589  13.0589  13.2430  13.2431  13.2464  13.2464  13.4008  13.4008
    13.5625  13.5625  13.6145  13.6145  13.7335  13.7335  13.9327  13.9328
    14.0582  14.0582  14.1017  14.1017  14.1616  14.1616  14.2565  14.2565
    15.0813  15.0813  15.2211  15.2211  15.9274  15.9274  16.0902  16.0902
    16.5733  16.5734  16.7470  16.7471  16.8267  16.8268  17.1633  17.1633

          k = 0.1250-0.5000-0.4946 ( 50108 PWs)   bands (ev):

   -46.1060 -46.1060 -46.1060 -46.1060 -46.1051 -46.1051 -46.1051 -46.1051
   -22.4168 -22.4168 -22.4168 -22.4168 -22.4144 -22.4144 -22.4144 -22.4144
   -22.3830 -22.3830 -22.3830 -22.3830 -22.3598 -22.3598 -22.3598 -22.3598
   -22.3574 -22.3574 -22.3574 -22.3574 -22.3341 -22.3341 -22.3341 -22.3341
   -14.3505 -14.3505 -14.3504 -14.3504 -14.2701 -14.2701 -14.2701 -14.2700
    -6.4708  -6.4708  -6.4707  -6.4707  -6.2663  -6.2663  -6.2662  -6.2662
    -5.8773  -5.8773  -5.8772  -5.8772  -5.7499  -5.7499  -5.7498  -5.7498
    -5.7368  -5.7368  -5.7367  -5.7367  -5.6539  -5.6539  -5.6537  -5.6537
     0.0868   0.0868   0.0869   0.0869   0.2143   0.2143   0.2144   0.2144
     0.3476   0.3476   0.3476   0.3476   0.4683   0.4683   0.4683   0.4683
     0.5511   0.5511   0.5512   0.5512   0.7061   0.7061   0.7061   0.7061
     6.3241   6.3241   6.3242   6.3242   6.8771   6.8771   6.8771   6.8771
     7.0208   7.0208   7.0208   7.0208   7.2304   7.2304   7.2304   7.2304
     7.2473   7.2473   7.2474   7.2474   7.3574   7.3574   7.3575   7.3575
     7.6451   7.6451   7.6451   7.6451   7.8758   7.8758   7.8759   7.8759
     7.8893   7.8894   7.8894   7.8894   8.0972   8.0972   8.0973   8.0973
     8.1947   8.1947   8.1947   8.1948   8.7916   8.7916   8.7916   8.7916
     9.3084   9.3084   9.3085   9.3085   9.4010   9.4010   9.4010   9.4010
     9.4235   9.4235   9.4236   9.4236   9.6937   9.6937   9.6937   9.6937
     9.7815   9.7816   9.7816   9.7816   9.8706   9.8706   9.8707   9.8707
    13.2068  13.2068  13.2069  13.2069  13.3789  13.3789  13.3790  13.3790
    13.5539  13.5539  13.5540  13.5540  13.7469  13.7470  13.7470  13.7470
    14.1195  14.1195  14.1195  14.1195  14.1620  14.1620  14.1620  14.1620
    15.1752  15.1752  15.1752  15.1752  16.3228  16.3228  16.3229  16.3229
    16.4191  16.4191  16.4192  16.4193  17.2255  17.2272  17.2280  17.2284

          k = 0.2500 0.2500 0.0000 ( 50052 PWs)   bands (ev):

   -46.1067 -46.1060 -46.1060 -46.1059 -46.1053 -46.1051 -46.1051 -46.1044
   -22.4413 -22.4389 -22.4389 -22.4369 -22.3935 -22.3920 -22.3920 -22.3905
   -22.3797 -22.3797 -22.3776 -22.3772 -22.3769 -22.3768 -22.3752 -22.3750
   -22.3418 -22.3414 -22.3400 -22.3400 -22.3397 -22.3395 -22.3381 -22.3381
   -14.4246 -14.3434 -14.3434 -14.3242 -14.2839 -14.2695 -14.2695 -14.2200
    -6.6626  -6.6626  -6.5738  -6.5409  -6.3862  -6.1680  -6.1680  -5.8751
    -5.8552  -5.8552  -5.8303  -5.8303  -5.8008  -5.7825  -5.7629  -5.7534
    -5.7495  -5.7276  -5.7138  -5.7101  -5.7101  -5.6119  -5.6119  -5.6062
    -0.2397  -0.1224  -0.0296   0.2148   0.2148   0.3105   0.3291   0.3292
     0.3647   0.3814   0.4123   0.4476   0.4584   0.4585   0.5218   0.5372
     0.5373   0.5846   0.5846   0.6184   0.6629   0.6780   0.6814   0.6814
     6.1083   6.1982   6.1982   6.2986   6.3283   6.5693   6.5693   6.5991
     6.5991   6.6813   6.7021   6.8009   6.8009   6.8057   6.8114   7.3149
     7.5371   7.5685   7.5685   7.6116   7.6405   7.6481   7.6481   7.6594
     7.6887   7.7090   7.7090   7.7879   7.7879   7.8044   7.8669   7.8669
     7.9034   7.9137   7.9594   7.9896   8.0215   8.2428   8.2428   8.4261
     8.4261   8.6075   8.6908   8.6908   8.6993   8.7625   9.0099   9.0099
     9.1100   9.1129   9.1329   9.2060   9.2162   9.2725   9.3314   9.4161
     9.4161   9.4425   9.4425   9.4746   9.5149   9.5150   9.6054   9.6054
     9.9380   9.9416  10.0390  10.0769  10.0839  10.0839  10.1492  10.1713
    12.6307  12.7650  12.7741  12.7782  12.7782  12.8779  13.7240  13.7506
    13.7506  13.7774  13.7774  13.8391  13.8576  13.8576  13.9812  14.0141
    14.0573  14.0573  14.1536  14.2894  14.2895  14.3709  14.4558  14.4660
    14.8022  14.8290  14.8290  15.1135  15.1373  15.1410  15.7429  15.7429
    15.9471  16.0370  16.3518  16.3518  16.8052  17.2381  17.2697  17.6078

          k = 0.2500 0.2500 0.1236 ( 50054 PWs)   bands (ev):

   -46.1067 -46.1060 -46.1060 -46.1059 -46.1052 -46.1052 -46.1052 -46.1044
   -22.4395 -22.4371 -22.4371 -22.4352 -22.3953 -22.3938 -22.3938 -22.3923
   -22.3796 -22.3796 -22.3775 -22.3771 -22.3770 -22.3770 -22.3753 -22.3751
   -22.3418 -22.3414 -22.3399 -22.3399 -22.3398 -22.3396 -22.3382 -22.3382
   -14.4208 -14.3406 -14.3406 -14.3282 -14.2816 -14.2724 -14.2723 -14.2224
    -6.6452  -6.6452  -6.5653  -6.5334  -6.3678  -6.1879  -6.1878  -5.8796
    -5.8545  -5.8545  -5.8378  -5.8286  -5.8286  -5.7989  -5.7515  -5.7481
    -5.7420  -5.7297  -5.7121  -5.7060  -5.7060  -5.6176  -5.6175  -5.6122
    -0.2195  -0.1363   0.0285   0.2252   0.2252   0.2886   0.3218   0.3218
     0.3655   0.3809   0.3944   0.3998   0.4385   0.4385   0.5213   0.5214
     0.5539   0.5701   0.6016   0.6016   0.6723   0.6955   0.6955   0.6991
     6.1492   6.2413   6.2413   6.3286   6.3550   6.5903   6.5903   6.5903
     6.5903   6.7025   6.7362   6.8056   6.8109   6.8239   6.8239   7.3241
     7.5261   7.5314   7.5314   7.6204   7.6233   7.6532   7.6532   7.6872
     7.6896   7.6896   7.6977   7.8056   7.8056   7.8112   7.8675   7.8675
     7.9018   7.9057   7.9417   7.9462   8.0353   8.1410   8.1410   8.4346
     8.4346   8.5809   8.6063   8.6845   8.7717   8.7717   9.0356   9.0356
     9.0431   9.1265   9.1516   9.2425   9.2492   9.3005   9.3584   9.3840
     9.3840   9.4034   9.4034   9.4899   9.5443   9.5443   9.5658   9.5658
     9.8975   9.9178  10.0033  10.0434  10.0670  10.0670  10.1534  10.1691
    12.6732  12.7939  12.8047  12.8318  12.8318  12.8728  13.7521  13.7569
    13.7569  13.7845  13.7845  13.8526  13.8526  13.8583  13.9304  13.9649
    14.0110  14.0110  14.1618  14.2572  14.2573  14.3603  14.4245  14.4359
    14.9118  14.9231  14.9231  15.1150  15.1361  15.2615  15.7402  15.7402
    16.0049  16.1031  16.3762  16.3762  16.7496  17.2328  17.3110  17.3587

          k = 0.2500 0.2500 0.2473 ( 50073 PWs)   bands (ev):

   -46.1066 -46.1060 -46.1059 -46.1059 -46.1053 -46.1053 -46.1051 -46.1045
   -22.4344 -22.4321 -22.4321 -22.4302 -22.4006 -22.3989 -22.3989 -22.3974
   -22.3793 -22.3793 -22.3773 -22.3773 -22.3773 -22.3769 -22.3755 -22.3753
   -22.3415 -22.3411 -22.3400 -22.3398 -22.3397 -22.3397 -22.3384 -22.3384
   -14.4102 -14.3392 -14.3327 -14.3327 -14.2805 -14.2805 -14.2747 -14.2295
    -6.5952  -6.5952  -6.5432  -6.5156  -6.3146  -6.2448  -6.2448  -5.9233
    -5.8885  -5.8488  -5.8488  -5.8249  -5.8249  -5.7934  -5.7801  -5.7571
    -5.7329  -5.7075  -5.7068  -5.6969  -5.6969  -5.6329  -5.6329  -5.6289
    -0.1619  -0.1266   0.1462   0.2267   0.2524   0.2524   0.2868   0.3128
     0.3128   0.3676   0.3739   0.3794   0.3920   0.3920   0.4845   0.4845
     0.5030   0.6146   0.6352   0.6406   0.6406   0.7174   0.7174   0.7312
     6.2392   6.3302   6.3414   6.3414   6.5151   6.5664   6.5664   6.6670
     6.6670   6.7905   6.8054   6.8097   6.8334   6.9016   6.9016   7.3631
     7.4061   7.4061   7.4797   7.4964   7.6530   7.6530   7.6582   7.6625
     7.6625   7.7036   7.7932   7.7933   7.8118   7.8288   7.8395   7.8589
     7.8589   7.8810   7.8968   7.9088   8.0628   8.0628   8.0755   8.3541
     8.4550   8.4550   8.5008   8.5264   8.7299   8.7299   8.9632   9.1453
     9.1720   9.1985   9.1985   9.2282   9.3011   9.3011   9.3087   9.3859
     9.3859   9.4241   9.4363   9.5024   9.5024   9.5345   9.5526   9.5526
     9.8097   9.8616   9.8997   9.9581  10.0128  10.0128  10.1558  10.1637
    12.7402  12.8582  12.8998  12.9221  12.9796  12.9796  13.7722  13.7722
    13.7876  13.8105  13.8105  13.8250  13.8268  13.8268  13.8297  13.8916
    13.8916  13.9138  14.1714  14.1714  14.1851  14.3202  14.3408  14.3635
    15.1185  15.1332  15.1564  15.1564  15.2009  15.5881  15.7269  15.7269
    16.1701  16.2983  16.4615  16.4615  16.5855  17.1569  17.4074  17.5275

          k = 0.2500 0.2500 0.3709 ( 50082 PWs)   bands (ev):

   -46.1065 -46.1061 -46.1057 -46.1057 -46.1054 -46.1054 -46.1050 -46.1047
   -22.4267 -22.4245 -22.4245 -22.4227 -22.4084 -22.4066 -22.4066 -22.4049
   -22.3788 -22.3788 -22.3777 -22.3777 -22.3769 -22.3765 -22.3759 -22.3757
   -22.3412 -22.3408 -22.3404 -22.3401 -22.3394 -22.3394 -22.3387 -22.3387
   -14.3941 -14.3557 -14.3209 -14.3208 -14.2926 -14.2926 -14.2644 -14.2399
    -6.5187  -6.5187  -6.5167  -6.4997  -6.3292  -6.3292  -6.2329  -6.0249
    -5.8893  -5.8373  -5.8373  -5.8287  -5.8228  -5.8228  -5.7851  -5.7655
    -5.7098  -5.7016  -5.6975  -5.6863  -5.6863  -5.6535  -5.6533  -5.6532
    -0.0748  -0.0714   0.1353   0.1520   0.2801   0.2801   0.2870   0.3303
     0.3304   0.3424   0.3424   0.3706   0.3734   0.3770   0.4350   0.4350
     0.4422   0.5515   0.6739   0.6823   0.6824   0.7254   0.7254   0.7382
     6.3070   6.3329   6.4314   6.4314   6.5323   6.5323   6.7526   6.8057
     6.8081   6.8173   6.8173   6.9754   6.9831   7.0582   7.0582   7.2136
     7.2136   7.2887   7.3879   7.4449   7.5337   7.5337   7.6319   7.6709
     7.6709   7.7051   7.7077   7.7077   7.7132   7.8378   7.8510   7.8870
     7.8991   7.9359   7.9359   7.9870   8.0441   8.0441   8.0700   8.1411
     8.3663   8.3665   8.4791   8.4791   8.6047   8.6047   8.9188   9.0150
     9.2345   9.2500   9.2500   9.2829   9.2829   9.3248   9.3694   9.3991
     9.3991   9.5177   9.5177   9.5426   9.5542   9.5789   9.5789   9.6037
     9.7281   9.7411   9.7805   9.8364   9.9126   9.9126  10.1548  10.1580
    12.7777  12.8359  13.1078  13.1113  13.1914  13.1915  13.5782  13.6148
    13.6653  13.6654  13.7918  13.7918  13.8368  13.8368  13.8643  13.8643
    13.9430  14.0003  14.0588  14.0588  14.2133  14.2205  14.2281  14.3093
    15.1225  15.1299  15.4128  15.4128  15.5833  15.6873  15.6873  16.0364
    16.3216  16.4211  16.6105  16.6396  16.6396  16.9114  17.0560  17.2447

          k = 0.2500 0.2500-0.4946 ( 50066 PWs)   bands (ev):

   -46.1063 -46.1063 -46.1056 -46.1056 -46.1056 -46.1056 -46.1048 -46.1048
   -22.4175 -22.4175 -22.4155 -22.4155 -22.4155 -22.4155 -22.4138 -22.4138
   -22.3783 -22.3783 -22.3783 -22.3783 -22.3764 -22.3764 -22.3761 -22.3761
   -22.3408 -22.3408 -22.3405 -22.3405 -22.3391 -22.3391 -22.3391 -22.3391
   -14.3750 -14.3750 -14.3068 -14.3068 -14.3068 -14.3067 -14.2522 -14.2522
    -6.4991  -6.4990  -6.4257  -6.4257  -6.4256  -6.4255  -6.1324  -6.1323
    -5.8696  -5.8696  -5.8267  -5.8266  -5.8266  -5.8266  -5.7754  -5.7753
    -5.6972  -5.6971  -5.6820  -5.6819  -5.6724  -5.6724  -5.6723  -5.6722
     0.0256   0.0257   0.0293   0.0294   0.3044   0.3044   0.3045   0.3045
     0.3739   0.3740   0.3793   0.3793   0.3794   0.3794   0.3969   0.3970
     0.4292   0.4292   0.7131   0.7132   0.7132   0.7132   0.7180   0.7180
     6.3306   6.3307   6.4897   6.4897   6.4898   6.4898   6.8066   6.8067
     7.0082   7.0082   7.0083   7.0083   7.0262   7.0263   7.1051   7.1051
     7.2964   7.2964   7.2965   7.2965   7.4137   7.4138   7.5654   7.5655
     7.6818   7.6818   7.6819   7.6819   7.7782   7.7783   7.8715   7.8715
     7.9332   7.9332   8.0062   8.0062   8.0063   8.0063   8.1842   8.1843
     8.2361   8.2362   8.5177   8.5177   8.5177   8.5178   8.9305   8.9306
     9.2523   9.2523   9.2523   9.2523   9.2936   9.2937   9.4554   9.4554
     9.4554   9.4554   9.5525   9.5525   9.6442   9.6442   9.6896   9.6897
     9.6947   9.6947   9.7614   9.7614   9.7614   9.7614  10.1547  10.1549
    12.8083  12.8084  13.3384  13.3384  13.3647  13.3648  13.4320  13.4320
    13.4320  13.4320  13.8136  13.8136  13.8136  13.8136  13.9494  13.9494
    13.9495  13.9495  14.0769  14.0770  14.1089  14.1090  14.2635  14.2635
    15.1263  15.1264  15.5937  15.5937  15.5937  15.5937  15.9761  15.9762
    16.5092  16.5094  16.7283  16.7285  16.9206  16.9206  16.9207  16.9207

          k = 0.2500 0.3750 0.0000 ( 50031 PWs)   bands (ev):

   -46.1066 -46.1062 -46.1058 -46.1057 -46.1054 -46.1053 -46.1050 -46.1046
   -22.4408 -22.4395 -22.4385 -22.4374 -22.3932 -22.3923 -22.3917 -22.3909
   -22.3792 -22.3780 -22.3764 -22.3755 -22.3710 -22.3689 -22.3683 -22.3666
   -22.3504 -22.3486 -22.3482 -22.3466 -22.3413 -22.3404 -22.3393 -22.3385
   -14.4062 -14.3623 -14.3299 -14.3118 -14.2977 -14.2822 -14.2582 -14.2314
    -6.6208  -6.5960  -6.5520  -6.4890  -6.4448  -6.2719  -6.0820  -5.8686
    -5.8571  -5.8371  -5.8362  -5.8256  -5.8096  -5.7939  -5.7864  -5.7647
    -5.7565  -5.7342  -5.7105  -5.7041  -5.6849  -5.6778  -5.6438  -5.6270
    -0.1614  -0.0214   0.0880   0.1200   0.2221   0.2313   0.3172   0.3259
     0.3692   0.4014   0.4070   0.4227   0.4395   0.4479   0.5067   0.5124
     0.5649   0.5777   0.5808   0.6117   0.6352   0.6437   0.6468   0.6617
     6.1607   6.1956   6.2464   6.2858   6.4305   6.5574   6.6690   6.6870
     6.7137   6.8475   6.8944   6.9125   6.9872   7.0109   7.0283   7.0967
     7.3558   7.3731   7.4280   7.5142   7.5637   7.5887   7.6080   7.6288
     7.6449   7.7037   7.7132   7.7984   7.8176   7.8291   7.8443   7.8904
     7.9151   7.9504   7.9737   7.9815   8.0497   8.1381   8.1811   8.3337
     8.4310   8.5558   8.6098   8.6197   8.6573   8.7253   8.8834   9.0131
     9.0403   9.0660   9.1411   9.1786   9.1880   9.3017   9.3380   9.4079
     9.4412   9.4495   9.4831   9.5365   9.5795   9.6194   9.6916   9.7170
     9.8262   9.8753   9.9164   9.9217   9.9472  10.0740  10.0873  10.1113
    12.6939  12.7562  12.9473  12.9787  12.9969  13.1137  13.5071  13.5129
    13.5396  13.6405  13.7689  13.7972  13.8214  13.9653  14.0009  14.0291
    14.0389  14.0437  14.1282  14.1880  14.2412  14.3288  14.3479  14.4220
    14.8385  14.8392  14.9958  15.1362  15.3801  15.4817  15.6918  16.1359
    16.1935  16.2852  16.3354  16.6340  16.9841  17.0010  17.0355  17.3313

          k = 0.2500 0.3750 0.1236 ( 50069 PWs)   bands (ev):

   -46.1065 -46.1061 -46.1058 -46.1057 -46.1054 -46.1053 -46.1050 -46.1046
   -22.4390 -22.4377 -22.4367 -22.4356 -22.3950 -22.3942 -22.3935 -22.3927
   -22.3791 -22.3779 -22.3765 -22.3756 -22.3709 -22.3688 -22.3684 -22.3667
   -22.3503 -22.3485 -22.3483 -22.3467 -22.3412 -22.3403 -22.3393 -22.3385
   -14.4027 -14.3593 -14.3272 -14.3155 -14.2953 -14.2853 -14.2610 -14.2340
    -6.6053  -6.5784  -6.5418  -6.4834  -6.4266  -6.2792  -6.1045  -5.9083
    -5.8614  -5.8358  -5.8337  -5.8336  -5.8074  -5.7852  -5.7744  -5.7704
    -5.7604  -5.7355  -5.7087  -5.7038  -5.6837  -5.6822  -5.6474  -5.6316
    -0.1436  -0.0375   0.1019   0.1737   0.2063   0.2382   0.3052   0.3190
     0.3678   0.3854   0.3864   0.4137   0.4144   0.4476   0.4757   0.4816
     0.5122   0.5287   0.6121   0.6344   0.6702   0.6815   0.6839   0.6884
     6.2058   6.2398   6.2951   6.3398   6.4274   6.5495   6.6802   6.7063
     6.7261   6.8338   6.9044   6.9292   6.9946   7.0061   7.0474   7.1113
     7.3397   7.3628   7.3962   7.5322   7.5585   7.5938   7.5953   7.6377
     7.6617   7.7103   7.7305   7.7660   7.8035   7.8376   7.8553   7.8903
     7.9064   7.9102   7.9584   7.9930   8.0660   8.1064   8.1423   8.2279
     8.4147   8.5480   8.5504   8.5892   8.6213   8.7634   8.8471   8.9900
     9.0929   9.1107   9.1494   9.2125   9.2375   9.2966   9.3267   9.4167
     9.4181   9.4813   9.5084   9.5193   9.5213   9.6562   9.6595   9.7048
     9.7936   9.8512   9.8699   9.9328   9.9395  10.0675  10.0691  10.0958
    12.7455  12.8096  12.9722  13.0105  13.0252  13.1085  13.5173  13.5449
    13.5476  13.6354  13.7804  13.8155  13.8284  13.9511  13.9580  13.9916
    13.9963  14.0372  14.0847  14.1499  14.2311  14.2969  14.3128  14.3907
    14.9341  14.9404  15.1039  15.2557  15.3816  15.4905  15.6896  16.1573
    16.1933  16.3331  16.3977  16.6435  16.9273  17.0402  17.0486  17.3296

          k = 0.2500 0.3750 0.2473 ( 50065 PWs)   bands (ev):

   -46.1064 -46.1060 -46.1058 -46.1057 -46.1054 -46.1053 -46.1051 -46.1047
   -22.4339 -22.4326 -22.4317 -22.4306 -22.4002 -22.3993 -22.3986 -22.3977
   -22.3788 -22.3776 -22.3768 -22.3758 -22.3706 -22.3687 -22.3685 -22.3670
   -22.3501 -22.3485 -22.3483 -22.3469 -22.3410 -22.3401 -22.3395 -22.3387
   -14.3927 -14.3507 -14.3259 -14.3196 -14.2941 -14.2882 -14.2689 -14.2413
    -6.5611  -6.5277  -6.5151  -6.4701  -6.3741  -6.3046  -6.1667  -5.9891
    -5.8721  -5.8481  -5.8361  -5.8236  -5.8047  -5.8021  -5.7808  -5.7507
    -5.7487  -5.7412  -5.7066  -5.7027  -5.6928  -5.6818  -5.6570  -5.6447
    -0.0940  -0.0393   0.1412   0.1852   0.2452   0.2573   0.2855   0.3237
     0.3281   0.3307   0.3579   0.3616   0.3785   0.3868   0.4257   0.4356
     0.4619   0.5547   0.6731   0.6740   0.6813   0.7219   0.7296   0.7316
     6.3083   6.3407   6.4192   6.4213   6.4906   6.5283   6.7367   6.7740
     6.7861   6.7951   6.9248   6.9830   6.9979   7.0257   7.1098   7.1628
     7.2523   7.2993   7.3718   7.4759   7.5564   7.5732   7.6069   7.7021
     7.7072   7.7116   7.7234   7.7314   7.7353   7.8243   7.8666   7.8911
     7.8934   7.8996   7.9253   7.9984   8.0030   8.0276   8.1299   8.1523
     8.3418   8.3754   8.4180   8.5296   8.5317   8.7068   8.7771   8.8994
     9.2136   9.2469   9.2551   9.2652   9.2803   9.3258   9.3682   9.4075
     9.4473   9.4528   9.4901   9.5250   9.5687   9.6114   9.6745   9.6772
     9.7251   9.7848   9.8000   9.9023   9.9122  10.0048  10.0566  10.0617
    12.8799  12.9568  13.0230  13.0832  13.0935  13.1540  13.5415  13.5804
    13.6195  13.6335  13.8118  13.8131  13.8508  13.8576  13.8642  13.8687
    13.9228  13.9775  14.0467  14.0607  14.1917  14.2116  14.2272  14.3072
    15.1672  15.1802  15.3845  15.3856  15.5444  15.5793  15.6793  16.1839
    16.2361  16.4714  16.5823  16.6788  16.7593  17.0487  17.2942  17.3237

          k = 0.2500 0.3750 0.3709 ( 50067 PWs)   bands (ev):

   -46.1063 -46.1060 -46.1059 -46.1056 -46.1056 -46.1052 -46.1052 -46.1048
   -22.4262 -22.4250 -22.4241 -22.4231 -22.4079 -22.4070 -22.4062 -22.4053
   -22.3784 -22.3773 -22.3772 -22.3762 -22.3702 -22.3692 -22.3682 -22.3673
   -22.3497 -22.3489 -22.3480 -22.3472 -22.3406 -22.3399 -22.3398 -22.3390
   -14.3775 -14.3414 -14.3379 -14.3081 -14.3073 -14.2806 -14.2775 -14.2521
    -6.4959  -6.4835  -6.4589  -6.4498  -6.3533  -6.2935  -6.2554  -6.0886
    -5.8802  -5.8542  -5.8445  -5.8405  -5.8101  -5.7978  -5.7726  -5.7507
    -5.7355  -5.7348  -5.7071  -5.7030  -5.6985  -5.6806  -5.6687  -5.6641
    -0.0269   0.0084   0.1536   0.1786   0.2075   0.2077   0.2631   0.2830
     0.3300   0.3450   0.3453   0.3457   0.3584   0.3692   0.3881   0.4086
     0.4137   0.6270   0.6325   0.7255   0.7260   0.7261   0.7537   0.7586
     6.3858   6.4168   6.4233   6.5001   6.5561   6.7053   6.7362   6.8694
     6.9117   6.9118   6.9387   7.0215   7.0861   7.0989   7.1376   7.1412
     7.2307   7.2638   7.2987   7.3697   7.5144   7.5875   7.6107   7.6131
     7.6291   7.6299   7.6446   7.7462   7.7623   7.8670   7.8752   7.8906
     7.8912   7.9086   7.9116   7.9488   7.9644   8.0889   8.1040   8.1103
     8.1731   8.1986   8.3051   8.3635   8.5050   8.5817   8.7202   8.7763
     9.2589   9.3322   9.3372   9.3455   9.3455   9.3816   9.3905   9.4780
     9.5078   9.5115   9.5338   9.5341   9.6369   9.6503   9.6546   9.6598
     9.6617   9.6635   9.7441   9.8135   9.8550   9.8926  10.0379  10.0423
    12.9943  13.0699  13.1505  13.1672  13.2338  13.3400  13.5683  13.5781
    13.6095  13.6536  13.6604  13.6854  13.7626  13.7648  13.8548  13.9002
    13.9073  13.9261  13.9523  14.0683  14.0965  14.0987  14.1625  14.2036
    15.3416  15.3854  15.4140  15.6488  15.7305  15.7746  16.0235  16.1381
    16.4121  16.4898  16.6856  16.7669  16.8778  16.8806  17.0213  17.2317

          k = 0.2500 0.3750-0.4946 ( 50068 PWs)   bands (ev):

   -46.1061 -46.1061 -46.1057 -46.1057 -46.1054 -46.1054 -46.1050 -46.1050
   -22.4171 -22.4171 -22.4160 -22.4160 -22.4152 -22.4151 -22.4142 -22.4142
   -22.3778 -22.3778 -22.3767 -22.3767 -22.3697 -22.3697 -22.3678 -22.3677
   -22.3493 -22.3493 -22.3476 -22.3476 -22.3403 -22.3402 -22.3394 -22.3394
   -14.3596 -14.3595 -14.3227 -14.3226 -14.2944 -14.2943 -14.2649 -14.2648
    -6.4619  -6.4618  -6.4216  -6.4214  -6.3549  -6.3547  -6.1943  -6.1942
    -5.8728  -5.8727  -5.8490  -5.8489  -5.7999  -5.7998  -5.7619  -5.7618
    -5.7295  -5.7294  -5.7075  -5.7074  -5.6849  -5.6848  -5.6774  -5.6773
     0.0541   0.0541   0.0996   0.0996   0.2084   0.2085   0.2800   0.2801
     0.3102   0.3103   0.3364   0.3364   0.3584   0.3584   0.3775   0.3776
     0.5346   0.5346   0.6940   0.6940   0.7521   0.7521   0.7566   0.7567
     6.4113   6.4114   6.4680   6.4681   6.6593   6.6594   6.9358   6.9359
     6.9441   6.9442   7.0126   7.0127   7.1021   7.1022   7.1204   7.1205
     7.3128   7.3129   7.4145   7.4146   7.4192   7.4192   7.4448   7.4449
     7.6164   7.6165   7.6961   7.6962   7.7913   7.7914   7.8870   7.8871
     7.9351   7.9351   7.9585   7.9585   8.0390   8.0391   8.0475   8.0476
     8.1849   8.1850   8.2351   8.2352   8.5059   8.5059   8.7100   8.7100
     9.3018   9.3019   9.3550   9.3550   9.3855   9.3856   9.5075   9.5075
     9.5082   9.5082   9.5859   9.5860   9.6425   9.6427   9.6801   9.6801
     9.6946   9.6946   9.7294   9.7294   9.7609   9.7609  10.0335  10.0337
    13.0388  13.0389  13.3765  13.3766  13.4022  13.4023  13.4374  13.4375
    13.5538  13.5539  13.6003  13.6003  13.7669  13.7670  13.8916  13.8916
    13.9142  13.9142  13.9873  13.9874  14.0587  14.0587  14.1412  14.1412
    15.3784  15.3785  15.5736  15.5736  16.0027  16.0028  16.1419  16.1420
    16.4910  16.4912  16.6983  16.6984  16.9546  16.9547  16.9548  16.9550

          k = 0.2500-0.5000 0.0000 ( 49990 PWs)   bands (ev):

   -46.1064 -46.1064 -46.1056 -46.1056 -46.1055 -46.1055 -46.1048 -46.1048
   -22.4401 -22.4401 -22.4379 -22.4379 -22.3928 -22.3928 -22.3913 -22.3913
   -22.3786 -22.3786 -22.3760 -22.3760 -22.3607 -22.3607 -22.3588 -22.3588
   -22.3583 -22.3583 -22.3567 -22.3567 -22.3408 -22.3408 -22.3389 -22.3389
   -14.3844 -14.3844 -14.3139 -14.3139 -14.2971 -14.2971 -14.2449 -14.2449
    -6.5801  -6.5801  -6.5189  -6.5189  -6.3841  -6.3841  -5.9775  -5.9775
    -5.8441  -5.8441  -5.8157  -5.8157  -5.7908  -5.7908  -5.7859  -5.7859
    -5.7428  -5.7428  -5.7197  -5.7197  -5.6777  -5.6777  -5.6554  -5.6554
    -0.0459  -0.0459   0.0990   0.0990   0.2655   0.2655   0.2859   0.2859
     0.3597   0.3597   0.3902   0.3902   0.4725   0.4725   0.4896   0.4896
     0.5710   0.5710   0.6171   0.6171   0.6264   0.6264   0.6309   0.6309
     6.1860   6.1860   6.2706   6.2706   6.5044   6.5044   6.7049   6.7049
     6.8717   6.8717   7.1079   7.1079   7.1163   7.1163   7.1397   7.1397
     7.2749   7.2749   7.2936   7.2936   7.3520   7.3521   7.6226   7.6226
     7.7083   7.7083   7.7176   7.7176   7.8648   7.8648   7.8859   7.8859
     7.9234   7.9234   8.0060   8.0060   8.0558   8.0558   8.2477   8.2478
     8.4625   8.4625   8.6034   8.6034   8.7042   8.7042   8.8237   8.8237
     9.1199   9.1199   9.1330   9.1330   9.2422   9.2422   9.3378   9.3378
     9.3927   9.3927   9.6798   9.6798   9.7455   9.7455   9.7478   9.7478
     9.7595   9.7595   9.7874   9.7874   9.9211   9.9211  10.0954  10.0954
    12.7286  12.7286  13.2207  13.2208  13.2407  13.2407  13.2665  13.2665
    13.3809  13.3809  13.7821  13.7821  13.9097  13.9097  14.0253  14.0253
    14.0966  14.0966  14.0990  14.0991  14.2304  14.2304  14.3752  14.3752
    14.8438  14.8438  15.0951  15.0951  15.5788  15.5788  15.8378  15.8378
    16.6433  16.6434  16.6540  16.6540  16.7701  16.7701  16.9860  16.9860

          k = 0.2500-0.5000 0.1236 ( 50038 PWs)   bands (ev):

   -46.1063 -46.1063 -46.1056 -46.1056 -46.1055 -46.1055 -46.1048 -46.1048
   -22.4383 -22.4383 -22.4362 -22.4362 -22.3946 -22.3946 -22.3931 -22.3931
   -22.3785 -22.3785 -22.3761 -22.3761 -22.3607 -22.3607 -22.3587 -22.3587
   -22.3584 -22.3584 -22.3567 -22.3567 -22.3407 -22.3407 -22.3389 -22.3389
   -14.3811 -14.3811 -14.3113 -14.3113 -14.3005 -14.3004 -14.2476 -14.2475
    -6.5670  -6.5670  -6.5010  -6.5010  -6.3834  -6.3834  -6.0053  -6.0053
    -5.8459  -5.8459  -5.8072  -5.8072  -5.8030  -5.8030  -5.7828  -5.7828
    -5.7447  -5.7447  -5.7198  -5.7198  -5.6791  -5.6791  -5.6573  -5.6573
    -0.0303  -0.0303   0.0815   0.0816   0.2695   0.2696   0.3321   0.3321
     0.3390   0.3390   0.3869   0.3869   0.4403   0.4403   0.4595   0.4595
     0.4882   0.4882   0.6594   0.6594   0.6622   0.6622   0.6733   0.6733
     6.2314   6.2314   6.3221   6.3221   6.4982   6.4982   6.7154   6.7154
     6.8900   6.8901   7.1023   7.1023   7.1046   7.1046   7.1180   7.1180
     7.2825   7.2825   7.3111   7.3111   7.3699   7.3699   7.6460   7.6460
     7.6921   7.6921   7.7154   7.7155   7.8452   7.8452   7.8674   7.8674
     7.9333   7.9333   8.0001   8.0001   8.0244   8.0244   8.2542   8.2542
     8.3733   8.3733   8.5684   8.5684   8.6819   8.6819   8.8238   8.8238
     9.1553   9.1553   9.1840   9.1840   9.2432   9.2432   9.3267   9.3267
     9.4207   9.4207   9.6566   9.6566   9.6920   9.6920   9.7499   9.7499
     9.7603   9.7603   9.7940   9.7940   9.9130   9.9130  10.0743  10.0743
    12.7815  12.7815  13.2374  13.2374  13.2762  13.2762  13.2794  13.2794
    13.3758  13.3758  13.7975  13.7975  13.9175  13.9175  13.9767  13.9768
    14.0529  14.0529  14.0899  14.0900  14.1909  14.1909  14.3436  14.3436
    14.9409  14.9409  15.2115  15.2115  15.5785  15.5785  15.8544  15.8544
    16.6582  16.6583  16.6871  16.6871  16.8226  16.8226  16.9870  16.9870

          k = 0.2500-0.5000 0.2473 ( 50076 PWs)   bands (ev):

   -46.1062 -46.1062 -46.1056 -46.1056 -46.1055 -46.1055 -46.1049 -46.1049
   -22.4332 -22.4332 -22.4311 -22.4311 -22.3997 -22.3997 -22.3981 -22.3981
   -22.3782 -22.3782 -22.3763 -22.3763 -22.3604 -22.3604 -22.3586 -22.3586
   -22.3585 -22.3585 -22.3570 -22.3570 -22.3405 -22.3405 -22.3391 -22.3391
   -14.3718 -14.3718 -14.3101 -14.3101 -14.3039 -14.3039 -14.2551 -14.2551
    -6.5309  -6.5309  -6.4494  -6.4494  -6.3852  -6.3852  -6.0758  -6.0757
    -5.8523  -5.8523  -5.8307  -5.8307  -5.7905  -5.7905  -5.7750  -5.7750
    -5.7474  -5.7474  -5.7227  -5.7227  -5.6827  -5.6827  -5.6635  -5.6635
     0.0122   0.0122   0.0688   0.0688   0.2792   0.2792   0.2808   0.2808
     0.3761   0.3761   0.3812   0.3813   0.3887   0.3887   0.4106   0.4106
     0.4294   0.4294   0.7059   0.7059   0.7139   0.7139   0.7143   0.7143
     6.3348   6.3348   6.4616   6.4616   6.4826   6.4826   6.7707   6.7707
     6.9519   6.9519   7.0536   7.0536   7.0781   7.0781   7.0988   7.0988
     7.3033   7.3033   7.3626   7.3627   7.4068   7.4069   7.5958   7.5959
     7.7074   7.7074   7.7114   7.7114   7.7732   7.7732   7.8784   7.8784
     7.9629   7.9629   7.9654   7.9654   7.9861   7.9861   8.1985   8.1985
     8.2537   8.2537   8.4162   8.4162   8.6269   8.6269   8.7458   8.7458
     9.2557   9.2557   9.2658   9.2658   9.2974   9.2974   9.3565   9.3565
     9.4734   9.4734   9.6104   9.6104   9.6181   9.6181   9.7148   9.7148
     9.7583   9.7583   9.8070   9.8070   9.8923   9.8923  10.0107  10.0107
    12.9268  12.9269  13.2740  13.2740  13.3215  13.3215  13.3605  13.3605
    13.3867  13.3867  13.8407  13.8407  13.8425  13.8425  13.9321  13.9321
    13.9401  13.9401  14.0503  14.0503  14.0952  14.0952  14.2589  14.2589
    15.1756  15.1756  15.5236  15.5236  15.5749  15.5750  15.9228  15.9228
    16.6548  16.6548  16.8088  16.9850  16.9907  16.9916  17.0143  17.0145

          k = 0.2500-0.5000 0.3709 ( 50070 PWs)   bands (ev):

   -46.1061 -46.1061 -46.1058 -46.1058 -46.1054 -46.1054 -46.1050 -46.1050
   -22.4256 -22.4256 -22.4236 -22.4236 -22.4075 -22.4075 -22.4057 -22.4057
   -22.3778 -22.3778 -22.3768 -22.3768 -22.3600 -22.3600 -22.3590 -22.3590
   -22.3581 -22.3581 -22.3573 -22.3573 -22.3402 -22.3402 -22.3395 -22.3395
   -14.3578 -14.3578 -14.3244 -14.3244 -14.2928 -14.2928 -14.2664 -14.2664
    -6.4813  -6.4813  -6.3991  -6.3991  -6.3701  -6.3701  -6.1701  -6.1700
    -5.8622  -5.8622  -5.8564  -5.8564  -5.7751  -5.7751  -5.7671  -5.7671
    -5.7457  -5.7457  -5.7298  -5.7298  -5.6852  -5.6852  -5.6732  -5.6732
     0.0608   0.0608   0.1056   0.1056   0.1954   0.1954   0.2810   0.2810
     0.2966   0.2966   0.3420   0.3420   0.3689   0.3690   0.3753   0.3753
     0.5366   0.5366   0.6902   0.6902   0.7538   0.7538   0.7544   0.7544
     6.4144   6.4144   6.4647   6.4647   6.6436   6.6437   6.9058   6.9058
     6.9505   6.9505   7.0479   7.0479   7.0724   7.0724   7.1326   7.1326
     7.3213   7.3213   7.4360   7.4361   7.4389   7.4389   7.4494   7.4494
     7.6209   7.6209   7.6882   7.6882   7.8032   7.8032   7.8943   7.8943
     7.9152   7.9152   7.9869   7.9869   8.0271   8.0271   8.0388   8.0389
     8.1998   8.1998   8.2033   8.2033   8.5697   8.5697   8.6192   8.6192
     9.3171   9.3171   9.3466   9.3466   9.3780   9.3780   9.5070   9.5070
     9.5150   9.5150   9.5341   9.5341   9.5664   9.5664   9.7078   9.7078
     9.7577   9.7577   9.7885   9.7885   9.8697   9.8697   9.9155   9.9155
    13.1288  13.1288  13.3136  13.3136  13.3349  13.3349  13.4272  13.4272
    13.5428  13.5428  13.6426  13.6426  13.7622  13.7622  13.9071  13.9071
    13.9137  13.9137  13.9765  13.9765  14.0418  14.0418  14.1462  14.1462
    15.4018  15.4018  15.5605  15.5605  15.9404  15.9405  16.1041  16.1041
    16.5849  16.5849  16.7452  16.7452  17.0076  17.0076  17.2194  17.2212

          k = 0.2500-0.5000-0.4946 ( 50108 PWs)   bands (ev):

   -46.1059 -46.1059 -46.1059 -46.1059 -46.1052 -46.1052 -46.1052 -46.1052
   -22.4165 -22.4165 -22.4165 -22.4165 -22.4147 -22.4147 -22.4147 -22.4147
   -22.3773 -22.3773 -22.3773 -22.3773 -22.3595 -22.3595 -22.3595 -22.3595
   -22.3577 -22.3577 -22.3577 -22.3577 -22.3398 -22.3398 -22.3398 -22.3398
   -14.3412 -14.3412 -14.3411 -14.3411 -14.2797 -14.2797 -14.2797 -14.2796
    -6.4327  -6.4327  -6.4326  -6.4326  -6.2729  -6.2729  -6.2728  -6.2728
    -5.8670  -5.8670  -5.8669  -5.8669  -5.7662  -5.7662  -5.7661  -5.7661
    -5.7388  -5.7388  -5.7387  -5.7387  -5.6823  -5.6823  -5.6821  -5.6821
     0.1167   0.1167   0.1167   0.1167   0.1869   0.1869   0.1869   0.1870
     0.3152   0.3152   0.3153   0.3153   0.3630   0.3630   0.3630   0.3630
     0.6296   0.6296   0.6297   0.6297   0.7686   0.7686   0.7686   0.7686
     6.4468   6.4468   6.4469   6.4469   6.8135   6.8135   6.8136   6.8136
     7.0086   7.0086   7.0087   7.0087   7.2483   7.2483   7.2484   7.2484
     7.2640   7.2640   7.2640   7.2640   7.4842   7.4842   7.4842   7.4842
     7.5688   7.5688   7.5688   7.5688   7.8981   7.8982   7.8982   7.8982
     7.9078   7.9078   7.9079   7.9079   8.0505   8.0505   8.0506   8.0506
     8.1179   8.1179   8.1180   8.1180   8.5525   8.5525   8.5525   8.5525
     9.3734   9.3734   9.3735   9.3735   9.4402   9.4402   9.4402   9.4402
     9.5373   9.5373   9.5374   9.5374   9.6844   9.6844   9.6844   9.6844
     9.7371   9.7371   9.7371   9.7371   9.8630   9.8630   9.8631   9.8631
    13.2874  13.2874  13.2875  13.2875  13.4256  13.4256  13.4256  13.4257
    13.5818  13.5818  13.5818  13.5818  13.7245  13.7245  13.7246  13.7246
    13.9911  13.9911  13.9911  13.9911  14.0389  14.0389  14.0390  14.0390
    15.5173  15.5173  15.5174  15.5174  16.3413  16.3413  16.3414  16.3414
    16.4132  16.4133  16.4134  16.4134  17.0639  17.0639  17.0639  17.0639

          k = 0.3750 0.3750 0.0000 ( 50048 PWs)   bands (ev):

   -46.1064 -46.1060 -46.1060 -46.1056 -46.1055 -46.1051 -46.1051 -46.1047
   -22.4402 -22.4390 -22.4390 -22.4379 -22.3928 -22.3920 -22.3920 -22.3912
   -22.3705 -22.3705 -22.3697 -22.3690 -22.3680 -22.3679 -22.3672 -22.3668
   -22.3504 -22.3497 -22.3490 -22.3490 -22.3480 -22.3477 -22.3470 -22.3470
   -14.3890 -14.3477 -14.3476 -14.3127 -14.2997 -14.2707 -14.2706 -14.2432
    -6.5697  -6.5697  -6.5440  -6.4722  -6.4040  -6.1863  -6.1863  -5.9704
    -5.8310  -5.8177  -5.8177  -5.8131  -5.8131  -5.8009  -5.7907  -5.7736
    -5.7650  -5.7299  -5.7179  -5.7041  -5.7041  -5.6881  -5.6881  -5.6404
    -0.1077   0.0724   0.1065   0.1065   0.2276   0.2578   0.3006   0.3007
     0.3235   0.3532   0.3757   0.3758   0.4672   0.4948   0.5221   0.5221
     0.5348   0.5349   0.5615   0.6200   0.6217   0.6264   0.6538   0.6538
     6.2113   6.2452   6.2453   6.2797   6.5795   6.7829   6.7829   6.7860
     6.7860   6.8732   7.0025   7.0464   7.0614   7.0614   7.0615   7.1464
     7.2574   7.2673   7.4445   7.4446   7.5007   7.5065   7.5503   7.5503
     7.6752   7.7413   7.7413   7.7576   7.8056   7.8056   7.8718   7.8718
     7.8942   7.9247   7.9486   7.9985   8.0213   8.2189   8.2578   8.2578
     8.2698   8.2698   8.5047   8.5761   8.5776   8.5776   8.6175   8.7619
     9.1476   9.1476   9.2263   9.2368   9.2917   9.3934   9.4769   9.4796
     9.4994   9.4994   9.5100   9.5100   9.5482   9.5483   9.7392   9.7800
     9.7845   9.7845   9.8683   9.8689   9.9431   9.9431  10.0016  10.0198
    12.8407  12.9557  12.9557  13.0361  13.1579  13.3100  13.4332  13.5261
    13.5261  13.6101  13.6101  13.6209  13.7691  13.7691  13.8782  14.0325
    14.0713  14.0928  14.1047  14.1047  14.2259  14.2259  14.3002  14.3228
    14.9493  15.0013  15.0013  15.1309  15.7184  15.7692  16.1374  16.1374
    16.4102  16.4102  16.5704  16.6460  16.9369  17.0764  17.0865  17.1959

          k = 0.3750 0.3750 0.1236 ( 50029 PWs)   bands (ev):

   -46.1064 -46.1060 -46.1060 -46.1056 -46.1056 -46.1052 -46.1052 -46.1048
   -22.4385 -22.4372 -22.4372 -22.4361 -22.3946 -22.3938 -22.3938 -22.3930
   -22.3704 -22.3704 -22.3696 -22.3690 -22.3680 -22.3680 -22.3673 -22.3669
   -22.3503 -22.3496 -22.3490 -22.3490 -22.3481 -22.3477 -22.3471 -22.3471
   -14.3856 -14.3448 -14.3448 -14.3101 -14.3031 -14.2737 -14.2736 -14.2459
    -6.5535  -6.5535  -6.5319  -6.4547  -6.4010  -6.1958  -6.1958  -5.9924
    -5.8366  -5.8231  -5.8231  -5.8122  -5.8122  -5.7961  -5.7880  -5.7852
    -5.7605  -5.7317  -5.7207  -5.7069  -5.7069  -5.6892  -5.6892  -5.6454
    -0.0916   0.0536   0.1174   0.1175   0.2326   0.2785   0.2785   0.3067
     0.3078   0.3486   0.3640   0.3640   0.4301   0.4538   0.4685   0.4787
     0.4788   0.5581   0.5581   0.6602   0.6679   0.6817   0.6984   0.6985
     6.2614   6.2942   6.2942   6.3315   6.5708   6.7716   6.7716   6.7870
     6.7870   6.8651   7.0121   7.0464   7.0603   7.0819   7.0819   7.1496
     7.2344   7.2877   7.4194   7.4194   7.5115   7.5422   7.5689   7.5689
     7.6697   7.6833   7.6833   7.7643   7.8603   7.8603   7.8676   7.8773
     7.8773   7.8948   7.9568   7.9884   7.9992   8.1867   8.1867   8.2271
     8.2584   8.2584   8.4467   8.5229   8.5756   8.5756   8.5926   8.7338
     9.1994   9.1994   9.2247   9.2765   9.3271   9.4057   9.4562   9.4562
     9.4798   9.4798   9.4902   9.5007   9.5944   9.5944   9.7052   9.7702
     9.7702   9.7761   9.8488   9.8505   9.9322   9.9322   9.9956  10.0123
    12.8881  13.0016  13.0016  13.0623  13.1668  13.3040  13.4675  13.5415
    13.5415  13.6180  13.6180  13.6397  13.7622  13.7622  13.8868  13.9841
    14.0256  14.0598  14.0598  14.0834  14.1885  14.1885  14.2635  14.2875
    15.0628  15.1108  15.1108  15.2499  15.7215  15.7677  16.1377  16.1377
    16.4166  16.4166  16.6263  16.6826  16.9473  17.0276  17.0742  17.2379

          k = 0.3750 0.3750 0.2473 ( 50088 PWs)   bands (ev):

   -46.1063 -46.1059 -46.1059 -46.1056 -46.1055 -46.1053 -46.1053 -46.1049
   -22.4334 -22.4322 -22.4322 -22.4311 -22.3998 -22.3989 -22.3989 -22.3981
   -22.3702 -22.3702 -22.3693 -22.3687 -22.3683 -22.3683 -22.3676 -22.3672
   -22.3500 -22.3494 -22.3487 -22.3487 -22.3483 -22.3479 -22.3473 -22.3473
   -14.3761 -14.3366 -14.3365 -14.3130 -14.3027 -14.2821 -14.2821 -14.2535
    -6.5076  -6.5076  -6.4992  -6.4041  -6.3958  -6.2273  -6.2273  -6.0522
    -5.8504  -5.8322  -5.8322  -5.8145  -5.8114  -5.8114  -5.7847  -5.7803
    -5.7475  -5.7372  -5.7288  -5.7129  -5.7129  -5.6937  -5.6936  -5.6594
    -0.0457   0.0383   0.1487   0.1488   0.2442   0.2442   0.2468   0.2591
     0.3300   0.3300   0.3356   0.3391   0.3731   0.3912   0.3935   0.3935
     0.4127   0.6317   0.6317   0.7168   0.7252   0.7311   0.7512   0.7512
     6.3820   6.4153   6.4153   6.4722   6.5505   6.7315   6.7315   6.8241
     6.8241   6.8769   7.0466   7.0571   7.0571   7.1378   7.1378   7.1402
     7.1647   7.3449   7.3449   7.3584   7.5274   7.6187   7.6187   7.6245
     7.6245   7.6529   7.6551   7.7383   7.7612   7.8918   7.8918   7.8971
     7.8971   7.8972   7.9460   7.9641   7.9820   8.0640   8.0640   8.2171
     8.2267   8.2267   8.3226   8.3379   8.4848   8.4848   8.5327   8.6323
     9.2542   9.3340   9.3340   9.3752   9.4178   9.4178   9.4204   9.4380
     9.4442   9.4442   9.5271   9.5493   9.6411   9.6411   9.6519   9.7356
     9.7356   9.7623   9.7857   9.8011   9.8957   9.8957   9.9785   9.9929
    13.0153  13.1284  13.1284  13.1425  13.1965  13.2864  13.5621  13.5868
    13.5868  13.6424  13.6424  13.6951  13.7408  13.7408  13.8506  13.8961
    13.9113  13.9360  13.9360  14.0548  14.0869  14.0869  14.1657  14.1908
    15.3654  15.3968  15.3968  15.5722  15.7294  15.7634  16.1329  16.1329
    16.4422  16.4422  16.7910  16.7930  16.8525  16.9735  17.0671  17.2105

          k = 0.3750 0.3750 0.3709 ( 50083 PWs)   bands (ev):

   -46.1061 -46.1058 -46.1057 -46.1057 -46.1054 -46.1054 -46.1053 -46.1050
   -22.4257 -22.4246 -22.4246 -22.4236 -22.4075 -22.4066 -22.4066 -22.4057
   -22.3697 -22.3697 -22.3689 -22.3688 -22.3688 -22.3684 -22.3680 -22.3675
   -22.3496 -22.3490 -22.3487 -22.3484 -22.3484 -22.3483 -22.3476 -22.3476
   -14.3618 -14.3276 -14.3242 -14.3242 -14.2948 -14.2947 -14.2915 -14.2649
    -6.4562  -6.4389  -6.4389  -6.3983  -6.3271  -6.2840  -6.2840  -6.1374
    -5.8639  -5.8467  -5.8333  -5.8333  -5.8154  -5.8154  -5.7711  -5.7686
    -5.7460  -5.7407  -5.7278  -5.7156  -5.7156  -5.7019  -5.7019  -5.6801
     0.0234   0.0581   0.1882   0.1953   0.1954   0.2166   0.2301   0.2301
     0.2678   0.2814   0.2814   0.3159   0.3199   0.3199   0.3342   0.3443
     0.5289   0.6985   0.7043   0.7043   0.7723   0.7723   0.7740   0.7770
     6.4821   6.5312   6.5342   6.5342   6.6585   6.6754   6.6754   6.9433
     6.9433   6.9841   7.0023   7.0476   7.0532   7.1691   7.1817   7.2316
     7.2316   7.2387   7.2387   7.4429   7.5431   7.5431   7.5546   7.5636
     7.6251   7.6837   7.6837   7.7031   7.8169   7.8411   7.8411   7.8993
     7.9037   7.9354   7.9354   7.9375   7.9919   7.9919   8.0267   8.0759
     8.1533   8.1913   8.1913   8.1964   8.3215   8.3215   8.4686   8.4925
     9.3706   9.4026   9.4026   9.4070   9.4070   9.4548   9.4741   9.5402
     9.5420   9.5421   9.5824   9.5965   9.6314   9.6622   9.6622   9.6762
     9.7011   9.7011   9.7266   9.7304   9.8244   9.8244   9.9589   9.9696
    13.1560  13.2583  13.2779  13.2839  13.3115  13.3115  13.6475  13.6475
    13.6626  13.6898  13.6898  13.6975  13.6975  13.6992  13.7045  13.7744
    13.7744  13.7841  13.9486  13.9486  13.9489  13.9942  14.0352  14.0690
    15.7392  15.7456  15.7456  15.7569  15.7718  16.0158  16.1042  16.1042
    16.5171  16.5171  16.5683  16.9094  17.0028  17.0029  17.0050  17.0538

          k = 0.3750 0.3750-0.4946 ( 50094 PWs)   bands (ev):

   -46.1060 -46.1060 -46.1056 -46.1056 -46.1056 -46.1056 -46.1052 -46.1052
   -22.4166 -22.4166 -22.4156 -22.4156 -22.4156 -22.4156 -22.4146 -22.4146
   -22.3693 -22.3693 -22.3692 -22.3692 -22.3685 -22.3684 -22.3680 -22.3679
   -22.3492 -22.3492 -22.3487 -22.3486 -22.3480 -22.3480 -22.3480 -22.3480
   -14.3448 -14.3447 -14.3096 -14.3095 -14.3095 -14.3095 -14.2783 -14.2782
    -6.4185  -6.4184  -6.3594  -6.3594  -6.3593  -6.3593  -6.2339  -6.2338
    -5.8652  -5.8651  -5.8251  -5.8251  -5.8250  -5.8250  -5.7577  -5.7576
    -5.7548  -5.7547  -5.7110  -5.7110  -5.7109  -5.7109  -5.7042  -5.7041
     0.1054   0.1055   0.1190   0.1190   0.2393   0.2393   0.2393   0.2393
     0.2579   0.2580   0.2580   0.2580   0.2921   0.2921   0.3239   0.3240
     0.6310   0.6310   0.7552   0.7552   0.7552   0.7552   0.7926   0.7926
     6.5164   6.5165   6.6123   6.6123   6.6124   6.6124   6.8403   6.8404
     7.0497   7.0498   7.1069   7.1069   7.1070   7.1070   7.1369   7.1370
     7.3553   7.3554   7.3848   7.3849   7.3849   7.3849   7.5604   7.5605
     7.5898   7.5899   7.7543   7.7543   7.7544   7.7544   7.9166   7.9166
     7.9176   7.9177   7.9727   7.9727   7.9727   7.9727   8.0021   8.0021
     8.0962   8.0963   8.2052   8.2052   8.2052   8.2052   8.4372   8.4373
     9.4094   9.4095   9.4095   9.4095   9.4870   9.4871   9.5282   9.5283
     9.6229   9.6229   9.6514   9.6514   9.6527   9.6528   9.6583   9.6583
     9.6584   9.6584   9.7197   9.7197   9.7197   9.7197   9.9546   9.9547
    13.2199  13.2199  13.4594  13.4595  13.4829  13.4830  13.5196  13.5196
    13.5196  13.5196  13.6961  13.6961  13.6962  13.6962  13.8080  13.8080
    13.8080  13.8080  13.8571  13.8572  13.9012  13.9012  13.9967  13.9968
    15.7487  15.7487  16.0008  16.0008  16.0008  16.0008  16.1946  16.1947
    16.4890  16.4892  16.7087  16.7087  16.7088  16.7088  17.0330  17.0330

          k = 0.3750-0.5000 0.0000 ( 50064 PWs)   bands (ev):

   -46.1062 -46.1062 -46.1058 -46.1058 -46.1053 -46.1053 -46.1049 -46.1049
   -22.4396 -22.4396 -22.4384 -22.4384 -22.3924 -22.3924 -22.3916 -22.3916
   -22.3700 -22.3700 -22.3675 -22.3675 -22.3603 -22.3603 -22.3592 -22.3592
   -22.3579 -22.3579 -22.3570 -22.3570 -22.3495 -22.3495 -22.3474 -22.3474
   -14.3684 -14.3684 -14.3303 -14.3303 -14.2852 -14.2852 -14.2570 -14.2570
    -6.5495  -6.5495  -6.5160  -6.5160  -6.2988  -6.2988  -6.0814  -6.0813
    -5.8162  -5.8162  -5.8091  -5.8091  -5.7952  -5.7952  -5.7849  -5.7848
    -5.7621  -5.7620  -5.7273  -5.7273  -5.7006  -5.7006  -5.6628  -5.6628
    -0.0138  -0.0138   0.1539   0.1539   0.1850   0.1850   0.3406   0.3406
     0.3559   0.3559   0.3961   0.3961   0.3986   0.3986   0.5006   0.5006
     0.5652   0.5652   0.5862   0.5862   0.6287   0.6287   0.6464   0.6464
     6.2358   6.2358   6.2691   6.2691   6.7010   6.7010   6.8666   6.8666
     6.8917   6.8917   7.0403   7.0403   7.1193   7.1193   7.2328   7.2328
     7.2981   7.2981   7.3298   7.3299   7.4384   7.4384   7.5174   7.5174
     7.5449   7.5449   7.7872   7.7873   7.8725   7.8725   7.8885   7.8885
     7.9166   7.9166   7.9859   7.9859   8.0989   8.0990   8.1280   8.1280
     8.3700   8.3701   8.4186   8.4186   8.5315   8.5315   8.6155   8.6155
     9.2132   9.2132   9.2291   9.2291   9.3780   9.3780   9.4265   9.4265
     9.4989   9.4989   9.6147   9.6147   9.6337   9.6337   9.7277   9.7277
     9.7359   9.7359   9.8398   9.8398   9.9230   9.9230   9.9508   9.9508
    12.9199  12.9199  13.2099  13.2099  13.2547  13.2548  13.3747  13.3747
    13.5398  13.5398  13.5521  13.5521  13.7279  13.7279  13.9272  13.9272
    14.0732  14.0732  14.1318  14.1318  14.1972  14.1972  14.2706  14.2706
    14.9914  14.9914  15.0934  15.0934  15.9878  15.9878  16.1088  16.1088
    16.5872  16.5872  16.7503  16.7503  16.8721  16.8722  17.0956  17.0964

          k = 0.3750-0.5000 0.1236 ( 50058 PWs)   bands (ev):

   -46.1062 -46.1062 -46.1058 -46.1058 -46.1054 -46.1054 -46.1050 -46.1050
   -22.4378 -22.4378 -22.4367 -22.4367 -22.3942 -22.3942 -22.3934 -22.3934
   -22.3699 -22.3699 -22.3676 -22.3676 -22.3602 -22.3602 -22.3591 -22.3591
   -22.3580 -22.3580 -22.3571 -22.3571 -22.3494 -22.3494 -22.3475 -22.3475
   -14.3653 -14.3653 -14.3275 -14.3275 -14.2885 -14.2884 -14.2598 -14.2598
    -6.5353  -6.5353  -6.4992  -6.4992  -6.3004  -6.3004  -6.0950  -6.0950
    -5.8183  -5.8183  -5.8108  -5.8108  -5.8048  -5.8048  -5.7826  -5.7826
    -5.7624  -5.7624  -5.7291  -5.7291  -5.7031  -5.7031  -5.6665  -5.6665
    -0.0003  -0.0003   0.1619   0.1619   0.1635   0.1635   0.3263   0.3263
     0.3485   0.3485   0.3654   0.3654   0.4432   0.4432   0.4519   0.4519
     0.4782   0.4782   0.6247   0.6247   0.6906   0.6906   0.6939   0.6939
     6.2859   6.2859   6.3194   6.3194   6.6874   6.6874   6.8576   6.8576
     6.8982   6.8983   7.0155   7.0155   7.1315   7.1315   7.2236   7.2237
     7.3174   7.3175   7.3585   7.3586   7.4255   7.4255   7.5334   7.5334
     7.5418   7.5418   7.7972   7.7972   7.8010   7.8010   7.8905   7.8905
     7.9227   7.9228   8.0333   8.0333   8.0797   8.0798   8.0983   8.0983
     8.3108   8.3108   8.3968   8.3968   8.4960   8.4960   8.5949   8.5949
     9.2637   9.2637   9.2667   9.2667   9.3610   9.3610   9.4190   9.4190
     9.5303   9.5303   9.5846   9.5846   9.6216   9.6216   9.7364   9.7364
     9.7365   9.7365   9.8237   9.8237   9.9124   9.9124   9.9400   9.9400
    12.9655  12.9655  13.2484  13.2484  13.2756  13.2756  13.3832  13.3832
    13.5332  13.5332  13.5704  13.5704  13.7365  13.7365  13.9187  13.9187
    14.0268  14.0268  14.0892  14.0892  14.1561  14.1561  14.2340  14.2340
    15.1035  15.1035  15.2103  15.2103  15.9903  15.9903  16.1107  16.1107
    16.5914  16.5914  16.7496  16.7496  16.9204  16.9204  17.1221  17.1224

          k = 0.3750-0.5000 0.2473 ( 50090 PWs)   bands (ev):

   -46.1061 -46.1061 -46.1057 -46.1057 -46.1055 -46.1055 -46.1051 -46.1051
   -22.4328 -22.4328 -22.4316 -22.4316 -22.3994 -22.3994 -22.3985 -22.3985
   -22.3696 -22.3696 -22.3679 -22.3679 -22.3600 -22.3600 -22.3589 -22.3589
   -22.3583 -22.3583 -22.3573 -22.3573 -22.3492 -22.3492 -22.3477 -22.3477
   -14.3564 -14.3564 -14.3197 -14.3197 -14.2976 -14.2976 -14.2679 -14.2679
    -6.4957  -6.4957  -6.4509  -6.4509  -6.3093  -6.3093  -6.1374  -6.1374
    -5.8267  -5.8267  -5.8264  -5.8264  -5.8115  -5.8115  -5.7790  -5.7790
    -5.7601  -5.7601  -5.7314  -5.7314  -5.7110  -5.7110  -5.6770  -5.6770
     0.0383   0.0383   0.1369   0.1369   0.1844   0.1844   0.2851   0.2851
     0.3162   0.3162   0.3273   0.3273   0.3640   0.3640   0.3756   0.3756
     0.5358   0.5358   0.6953   0.6953   0.7458   0.7458   0.7529   0.7529
     6.4083   6.4083   6.4506   6.4507   6.6520   6.6520   6.8685   6.8685
     6.9392   6.9392   6.9454   6.9454   7.1554   7.1554   7.1988   7.1988
     7.3602   7.3602   7.4056   7.4056   7.4366   7.4366   7.4947   7.4947
     7.6188   7.6189   7.6850   7.6850   7.8090   7.8090   7.8983   7.8983
     7.9430   7.9430   8.0303   8.0303   8.0325   8.0325   8.0688   8.0688
     8.1884   8.1884   8.3404   8.3404   8.3527   8.3527   8.4903   8.4903
     9.3365   9.3365   9.3750   9.3750   9.3982   9.3982   9.4263   9.4263
     9.5475   9.5475   9.5838   9.5838   9.5987   9.5987   9.7331   9.7331
     9.7424   9.7424   9.7812   9.7812   9.8846   9.8846   9.9070   9.9070
    13.0912  13.0912  13.3382  13.3382  13.3548  13.3548  13.4098  13.4098
    13.5136  13.5137  13.6250  13.6250  13.7611  13.7611  13.8930  13.8931
    13.8987  13.8987  13.9709  13.9709  14.0446  14.0446  14.1341  14.1341
    15.3982  15.3982  15.5246  15.5246  15.9950  15.9951  16.1207  16.1208
    16.5972  16.5972  16.7482  16.7482  17.0301  17.0302  17.2344  17.2363

          k = 0.3750-0.5000 0.3709 ( 50080 PWs)   bands (ev):

   -46.1059 -46.1059 -46.1056 -46.1056 -46.1055 -46.1055 -46.1052 -46.1052
   -22.4251 -22.4251 -22.4241 -22.4241 -22.4071 -22.4071 -22.4061 -22.4061
   -22.3692 -22.3692 -22.3683 -22.3683 -22.3596 -22.3596 -22.3586 -22.3586
   -22.3585 -22.3585 -22.3577 -22.3577 -22.3489 -22.3489 -22.3481 -22.3481
   -14.3431 -14.3431 -14.3113 -14.3112 -14.3079 -14.3079 -14.2799 -14.2799
    -6.4393  -6.4393  -6.3782  -6.3782  -6.3345  -6.3345  -6.2066  -6.2066
    -5.8456  -5.8456  -5.8398  -5.8398  -5.8053  -5.8053  -5.7821  -5.7821
    -5.7514  -5.7514  -5.7261  -5.7261  -5.7234  -5.7233  -5.6930  -5.6930
     0.0952   0.0952   0.1397   0.1397   0.2180   0.2181   0.2233   0.2233
     0.2638   0.2638   0.2848   0.2848   0.2960   0.2960   0.3145   0.3145
     0.6333   0.6333   0.7517   0.7517   0.7570   0.7570   0.7902   0.7902
     6.5172   6.5172   6.6044   6.6044   6.6096   6.6096   6.8454   6.8454
     6.9711   6.9711   7.0593   7.0593   7.1644   7.1644   7.1902   7.1902
     7.3712   7.3713   7.4107   7.4107   7.4136   7.4136   7.5432   7.5432
     7.5691   7.5691   7.7444   7.7444   7.7706   7.7707   7.9132   7.9132
     7.9615   7.9615   7.9796   7.9796   7.9822   7.9822   8.0496   8.0496
     8.0757   8.0757   8.1354   8.1354   8.2734   8.2734   8.3226   8.3226
     9.4117   9.4117   9.4546   9.4546   9.4625   9.4625   9.5273   9.5273
     9.5656   9.5656   9.5748   9.5748   9.6272   9.6272   9.7147   9.7147
     9.7221   9.7221   9.7284   9.7284   9.8518   9.8518   9.8589   9.8590
    13.2682  13.2682  13.4242  13.4242  13.4759  13.4759  13.4812  13.4812
    13.5089  13.5089  13.7136  13.7136  13.7174  13.7174  13.8002  13.8003
    13.8027  13.8027  13.8379  13.8379  13.9018  13.9018  13.9978  13.9978
    15.7587  15.7587  15.9488  15.9488  15.9938  15.9938  16.1720  16.1720
    16.5715  16.5715  16.7466  16.7466  16.7506  16.7506  16.9741  16.9741

          k = 0.3750-0.5000-0.4946 ( 50072 PWs)   bands (ev):

   -46.1058 -46.1058 -46.1058 -46.1058 -46.1054 -46.1054 -46.1054 -46.1054
   -22.4161 -22.4161 -22.4161 -22.4161 -22.4151 -22.4151 -22.4151 -22.4151
   -22.3687 -22.3687 -22.3687 -22.3687 -22.3591 -22.3591 -22.3591 -22.3591
   -22.3581 -22.3581 -22.3581 -22.3581 -22.3485 -22.3485 -22.3484 -22.3484
   -14.3273 -14.3273 -14.3272 -14.3272 -14.2940 -14.2940 -14.2939 -14.2939
    -6.3805  -6.3805  -6.3804  -6.3804  -6.2920  -6.2920  -6.2919  -6.2919
    -5.8496  -5.8496  -5.8495  -5.8495  -5.7934  -5.7934  -5.7934  -5.7933
    -5.7380  -5.7380  -5.7379  -5.7378  -5.7112  -5.7112  -5.7111  -5.7111
     0.1574   0.1574   0.1574   0.1574   0.1854   0.1854   0.1854   0.1854
     0.2576   0.2576   0.2577   0.2577   0.2829   0.2829   0.2830   0.2830
     0.7109   0.7109   0.7110   0.7110   0.7916   0.7916   0.7916   0.7916
     6.5702   6.5702   6.5703   6.5703   6.7330   6.7330   6.7331   6.7331
     7.1063   7.1063   7.1064   7.1064   7.2524   7.2524   7.2525   7.2525
     7.2751   7.2751   7.2751   7.2751   7.4741   7.4741   7.4741   7.4742
     7.6649   7.6649   7.6649   7.6649   7.8984   7.8984   7.8984   7.8984
     7.9196   7.9197   7.9197   7.9197   7.9996   7.9996   7.9996   7.9996
     8.0406   8.0406   8.0407   8.0407   8.2385   8.2385   8.2386   8.2386
     9.4790   9.4790   9.4790   9.4791   9.5021   9.5021   9.5021   9.5021
     9.6354   9.6354   9.6355   9.6355   9.6502   9.6502   9.6503   9.6503
     9.6932   9.6932   9.6933   9.6933   9.8345   9.8345   9.8346   9.8346
    13.4237  13.4237  13.4238  13.4238  13.5269  13.5269  13.5270  13.5270
    13.6230  13.6230  13.6230  13.6230  13.6859  13.6859  13.6859  13.6859
    13.8155  13.8155  13.8155  13.8155  13.8677  13.8677  13.8677  13.8677
    15.9585  15.9585  15.9585  15.9585  16.3639  16.3639  16.3640  16.3640
    16.4024  16.4025  16.4026  16.4026  16.7853  16.7853  16.7853  16.7853

          k =-0.5000-0.5000 0.0000 ( 50056 PWs)   bands (ev):

   -46.1060 -46.1060 -46.1060 -46.1060 -46.1051 -46.1051 -46.1051 -46.1051
   -22.4390 -22.4390 -22.4390 -22.4390 -22.3920 -22.3920 -22.3920 -22.3920
   -22.3602 -22.3602 -22.3602 -22.3602 -22.3594 -22.3594 -22.3594 -22.3594
   -22.3577 -22.3577 -22.3577 -22.3577 -22.3573 -22.3573 -22.3573 -22.3573
   -14.3495 -14.3494 -14.3494 -14.3494 -14.2712 -14.2711 -14.2711 -14.2711
    -6.5257  -6.5257  -6.5257  -6.5257  -6.1935  -6.1935  -6.1935  -6.1935
    -5.8017  -5.8017  -5.8017  -5.8017  -5.7782  -5.7782  -5.7782  -5.7782
    -5.7755  -5.7755  -5.7755  -5.7755  -5.6797  -5.6797  -5.6797  -5.6797
     0.0554   0.0554   0.0555   0.0555   0.2889   0.2890   0.2890   0.2890
     0.3386   0.3386   0.3387   0.3387   0.5047   0.5047   0.5047   0.5047
     0.5339   0.5339   0.5339   0.5339   0.6463   0.6463   0.6463   0.6463
     6.2600   6.2600   6.2600   6.2600   6.8936   6.8936   6.8936   6.8936
     6.9106   6.9106   6.9106   6.9106   7.3028   7.3028   7.3028   7.3028
     7.3161   7.3161   7.3161   7.3161   7.3693   7.3693   7.3693   7.3693
     7.6955   7.6955   7.6955   7.6955   7.8489   7.8489   7.8489   7.8489
     7.9065   7.9065   7.9065   7.9065   8.2210   8.2210   8.2210   8.2210
     8.2416   8.2416   8.2416   8.2416   8.5208   8.5208   8.5208   8.5208
     9.2558   9.2559   9.2559   9.2559   9.4836   9.4836   9.4836   9.4836
     9.5176   9.5176   9.5176   9.5176   9.6879   9.6879   9.6879   9.6879
     9.7764   9.7764   9.7764   9.7764   9.8984   9.8984   9.8984   9.8984
    13.1217  13.1217  13.1217  13.1218  13.3411  13.3411  13.3411  13.3411
    13.5366  13.5366  13.5366  13.5366  13.7311  13.7312  13.7312  13.7312
    14.1453  14.1453  14.1453  14.1453  14.1804  14.1804  14.1804  14.1804
    15.0662  15.0663  15.0663  15.0663  16.3598  16.3599  16.3599  16.3599
    16.4412  16.4412  16.4412  16.4412  17.1345  17.1345  17.3240  17.3262

          k =-0.5000-0.5000 0.1236 ( 50068 PWs)   bands (ev):

   -46.1060 -46.1060 -46.1060 -46.1060 -46.1052 -46.1052 -46.1052 -46.1052
   -22.4373 -22.4373 -22.4373 -22.4373 -22.3938 -22.3938 -22.3938 -22.3938
   -22.3601 -22.3601 -22.3601 -22.3601 -22.3593 -22.3593 -22.3593 -22.3593
   -22.3578 -22.3578 -22.3578 -22.3578 -22.3573 -22.3573 -22.3573 -22.3573
   -14.3465 -14.3465 -14.3465 -14.3465 -14.2742 -14.2742 -14.2742 -14.2742
    -6.5101  -6.5101  -6.5101  -6.5101  -6.1994  -6.1994  -6.1994  -6.1994
    -5.8083  -5.8083  -5.8083  -5.8082  -5.7801  -5.7801  -5.7801  -5.7801
    -5.7746  -5.7746  -5.7746  -5.7745  -5.6836  -5.6835  -5.6835  -5.6835
     0.0663   0.0663   0.0663   0.0663   0.2624   0.2624   0.2624   0.2624
     0.3279   0.3279   0.3280   0.3280   0.4653   0.4653   0.4653   0.4653
     0.5471   0.5471   0.5471   0.5471   0.7018   0.7018   0.7018   0.7018
     6.3104   6.3104   6.3104   6.3104   6.8710   6.8710   6.8710   6.8710
     6.9041   6.9041   6.9041   6.9041   7.3042   7.3043   7.3043   7.3043
     7.3626   7.3626   7.3626   7.3627   7.3662   7.3662   7.3662   7.3662
     7.6390   7.6390   7.6390   7.6390   7.8869   7.8869   7.8869   7.8870
     7.9100   7.9100   7.9100   7.9100   8.1968   8.1968   8.1968   8.1968
     8.2088   8.2088   8.2088   8.2088   8.4840   8.4840   8.4840   8.4840
     9.3010   9.3010   9.3010   9.3010   9.4585   9.4585   9.4585   9.4585
     9.5264   9.5264   9.5264   9.5264   9.6873   9.6873   9.6873   9.6874
     9.7782   9.7782   9.7782   9.7782   9.8850   9.8850   9.8850   9.8850
    13.1627  13.1627  13.1627  13.1627  13.3612  13.3612  13.3612  13.3612
    13.5454  13.5454  13.5454  13.5454  13.7234  13.7234  13.7234  13.7234
    14.1022  14.1022  14.1022  14.1022  14.1396  14.1396  14.1396  14.1396
    15.1830  15.1830  15.1830  15.1830  16.3649  16.3649  16.3649  16.3649
    16.4394  16.4394  16.4394  16.4394  17.2669  17.2675  17.2679  17.2680

          k =-0.5000-0.5000 0.2473 ( 50036 PWs)   bands (ev):

   -46.1059 -46.1059 -46.1059 -46.1059 -46.1053 -46.1053 -46.1053 -46.1053
   -22.4322 -22.4322 -22.4322 -22.4322 -22.3989 -22.3989 -22.3989 -22.3989
   -22.3598 -22.3598 -22.3598 -22.3598 -22.3590 -22.3590 -22.3590 -22.3590
   -22.3580 -22.3580 -22.3580 -22.3580 -22.3576 -22.3576 -22.3576 -22.3576
   -14.3382 -14.3381 -14.3381 -14.3381 -14.2828 -14.2828 -14.2828 -14.2828
    -6.4661  -6.4661  -6.4661  -6.4661  -6.2210  -6.2210  -6.2210  -6.2210
    -5.8218  -5.8218  -5.8218  -5.8218  -5.7927  -5.7927  -5.7927  -5.7927
    -5.7642  -5.7642  -5.7642  -5.7642  -5.6946  -5.6945  -5.6945  -5.6945
     0.0972   0.0972   0.0972   0.0972   0.2232   0.2233   0.2233   0.2233
     0.2974   0.2974   0.2975   0.2975   0.3654   0.3654   0.3654   0.3654
     0.6312   0.6312   0.6312   0.6312   0.7637   0.7637   0.7637   0.7637
     6.4374   6.4374   6.4374   6.4375   6.8104   6.8104   6.8104   6.8104
     6.9216   6.9216   6.9216   6.9216   7.3090   7.3090   7.3090   7.3090
     7.3574   7.3575   7.3575   7.3575   7.4803   7.4803   7.4803   7.4804
     7.5471   7.5471   7.5471   7.5471   7.9219   7.9219   7.9219   7.9219
     7.9221   7.9221   7.9221   7.9221   8.1334   8.1334   8.1334   8.1334
     8.1336   8.1337   8.1337   8.1337   8.3439   8.3439   8.3439   8.3439
     9.4067   9.4067   9.4067   9.4067   9.4424   9.4424   9.4424   9.4424
     9.5505   9.5505   9.5505   9.5505   9.6777   9.6777   9.6777   9.6777
     9.7792   9.7792   9.7792   9.7792   9.8490   9.8490   9.8490   9.8490
    13.2757  13.2757  13.2757  13.2758  13.4221  13.4221  13.4221  13.4221
    13.5710  13.5710  13.5710  13.5710  13.7004  13.7004  13.7004  13.7004
    13.9858  13.9858  13.9858  13.9858  14.0253  14.0253  14.0253  14.0253
    15.4972  15.4972  15.4972  15.4972  16.3779  16.3779  16.3779  16.3779
    16.4337  16.4337  16.4337  16.4338  17.0859  17.0859  17.0859  17.0859

          k =-0.5000-0.5000 0.3709 ( 50076 PWs)   bands (ev):

   -46.1057 -46.1057 -46.1057 -46.1057 -46.1054 -46.1054 -46.1054 -46.1054
   -22.4246 -22.4246 -22.4246 -22.4246 -22.4066 -22.4066 -22.4066 -22.4066
   -22.3594 -22.3594 -22.3594 -22.3594 -22.3587 -22.3587 -22.3587 -22.3587
   -22.3584 -22.3584 -22.3584 -22.3584 -22.3579 -22.3579 -22.3579 -22.3579
   -14.3256 -14.3256 -14.3256 -14.3256 -14.2957 -14.2956 -14.2956 -14.2956
    -6.4015  -6.4015  -6.4015  -6.4015  -6.2647  -6.2647  -6.2647  -6.2647
    -5.8296  -5.8296  -5.8296  -5.8296  -5.8096  -5.8096  -5.8096  -5.8096
    -5.7485  -5.7485  -5.7485  -5.7485  -5.7108  -5.7108  -5.7108  -5.7108
     0.1433   0.1433   0.1433   0.1433   0.2075   0.2075   0.2075   0.2075
     0.2517   0.2517   0.2517   0.2517   0.2810   0.2811   0.2811   0.2811
     0.7131   0.7131   0.7131   0.7131   0.7887   0.7887   0.7887   0.7887
     6.5675   6.5675   6.5675   6.5675   6.7326   6.7326   6.7326   6.7326
     7.0351   7.0351   7.0351   7.0351   7.3178   7.3178   7.3178   7.3178
     7.3445   7.3446   7.3446   7.3446   7.4273   7.4273   7.4273   7.4273
     7.6429   7.6429   7.6429   7.6429   7.9398   7.9398   7.9398   7.9399
     7.9470   7.9470   7.9470   7.9470   8.0533   8.0533   8.0533   8.0534
     8.0537   8.0538   8.0538   8.0538   8.1035   8.1035   8.1035   8.1035
     9.4937   9.4937   9.4937   9.4937   9.5169   9.5169   9.5169   9.5169
     9.5797   9.5797   9.5797   9.5797   9.6432   9.6432   9.6432   9.6432
     9.7729   9.7729   9.7729   9.7729   9.8033   9.8033   9.8033   9.8033
    13.4365  13.4365  13.4365  13.4365  13.5246  13.5246  13.5246  13.5246
    13.6129  13.6129  13.6129  13.6130  13.6620  13.6620  13.6620  13.6620
    13.8279  13.8279  13.8279  13.8279  13.8608  13.8608  13.8608  13.8608
    15.9256  15.9256  15.9256  15.9256  16.3945  16.3945  16.3945  16.3945
    16.4241  16.4241  16.4241  16.4241  16.7821  16.7821  16.7821  16.7822

          k =-0.5000-0.5000-0.4946 ( 50144 PWs)   bands (ev):

   -46.1056 -46.1056 -46.1056 -46.1056 -46.1056 -46.1056 -46.1056 -46.1056
   -22.4156 -22.4156 -22.4156 -22.4156 -22.4156 -22.4156 -22.4156 -22.4156
   -22.3589 -22.3589 -22.3589 -22.3589 -22.3589 -22.3589 -22.3589 -22.3589
   -22.3583 -22.3583 -22.3583 -22.3583 -22.3583 -22.3583 -22.3583 -22.3583
   -14.3107 -14.3107 -14.3107 -14.3107 -14.3107 -14.3106 -14.3106 -14.3106
    -6.3291  -6.3291  -6.3291  -6.3291  -6.3290  -6.3290  -6.3290  -6.3290
    -5.8244  -5.8244  -5.8244  -5.8244  -5.8243  -5.8243  -5.8243  -5.8243
    -5.7299  -5.7299  -5.7299  -5.7298  -5.7297  -5.7297  -5.7297  -5.7297
     0.1975   0.1975   0.1975   0.1976   0.1976   0.1976   0.1976   0.1976
     0.2264   0.2264   0.2264   0.2264   0.2264   0.2265   0.2265   0.2265
     0.7701   0.7701   0.7702   0.7702   0.7702   0.7702   0.7702   0.7702
     6.6555   6.6555   6.6555   6.6555   6.6556   6.6556   6.6556   6.6556
     7.2409   7.2409   7.2409   7.2409   7.2410   7.2410   7.2410   7.2410
     7.3302   7.3303   7.3303   7.3303   7.3303   7.3303   7.3304   7.3304
     7.8472   7.8473   7.8473   7.8473   7.8473   7.8473   7.8473   7.8473
     7.9843   7.9843   7.9843   7.9843   7.9844   7.9844   7.9844   7.9844
     7.9898   7.9899   7.9899   7.9899   7.9899   7.9899   7.9899   7.9900
     9.5763   9.5763   9.5763   9.5763   9.5763   9.5763   9.5763   9.5763
     9.5815   9.5815   9.5815   9.5815   9.5816   9.5816   9.5816   9.5816
     9.7721   9.7721   9.7721   9.7721   9.7722   9.7722   9.7723   9.7723
    13.5913  13.5913  13.5913  13.5913  13.5913  13.5913  13.5913  13.5914
    13.6647  13.6647  13.6647  13.6647  13.6648  13.6648  13.6648  13.6648
    13.6946  13.6946  13.6946  13.6946  13.6946  13.6946  13.6946  13.6946
    16.3786  16.3786  16.3786  16.3786  16.3788  16.3788  16.3788  16.3788
    16.4106  16.4106  16.4106  16.4106  16.4106  16.4107  16.4107  16.4107

     highest occupied, lowest unoccupied level (ev):    10.4077   12.2288

!    total energy              =   -5964.63708222 Ry
     total all-electron energy =   -147449.090655 Ry
     estimated scf accuracy    <          4.0E-11 Ry

     The total energy is the sum of the following terms:
     one-electron contribution =    -550.52066740 Ry
     hartree contribution      =     483.91591819 Ry
     xc contribution           =    -491.51478258 Ry
     ewald contribution        =   -1653.96634398 Ry
     one-center paw contrib.   =   -3752.55120644 Ry

     convergence has been achieved in   4 iterations

     Forces acting on atoms (cartesian axes, Ry/au):

     atom    1 type  1   force =     0.00000000    0.00000000   -0.00097837
     atom    2 type  1   force =     0.00000000    0.00000000   -0.00094740
     atom    3 type  1   force =     0.00000000    0.00000000   -0.00096738
     atom    4 type  1   force =     0.00000000    0.00000000   -0.00095349
     atom    5 type  1   force =     0.00000000    0.00000000   -0.00096738
     atom    6 type  1   force =     0.00000000    0.00000000   -0.00095349
     atom    7 type  1   force =     0.00000000    0.00000000   -0.00098275
     atom    8 type  1   force =     0.00000000    0.00000000   -0.00094533
     atom    9 type  2   force =    -0.00000122   -0.00000122    0.00024542
     atom   10 type  2   force =    -0.00000184   -0.00000184    0.00025236
     atom   11 type  2   force =    -0.00000122    0.00000122    0.00024542
     atom   12 type  2   force =    -0.00000184    0.00000184    0.00025236
     atom   13 type  2   force =     0.00000122   -0.00000122    0.00024542
     atom   14 type  2   force =     0.00000184   -0.00000184    0.00025236
     atom   15 type  2   force =     0.00000122    0.00000122    0.00024542
     atom   16 type  2   force =     0.00000184    0.00000184    0.00025236
     atom   17 type  3   force =    -0.00000144   -0.00000144   -0.00014363
     atom   18 type  3   force =    -0.00000237   -0.00000237   -0.00013430
     atom   19 type  3   force =    -0.00000144    0.00000144   -0.00014363
     atom   20 type  3   force =    -0.00000237    0.00000237   -0.00013430
     atom   21 type  3   force =     0.00000144   -0.00000144   -0.00014363
     atom   22 type  3   force =     0.00000237   -0.00000237   -0.00013430
     atom   23 type  3   force =     0.00000144    0.00000144   -0.00014363
     atom   24 type  3   force =     0.00000237    0.00000237   -0.00013430
     atom   25 type  3   force =    -0.00000189    0.00000000    0.00042026
     atom   26 type  3   force =    -0.00000558    0.00000000    0.00042484
     atom   27 type  3   force =     0.00000076    0.00000000    0.00042480
     atom   28 type  3   force =     0.00000306    0.00000000    0.00043416
     atom   29 type  3   force =     0.00000189    0.00000000    0.00042026
     atom   30 type  3   force =     0.00000558    0.00000000    0.00042484
     atom   31 type  3   force =    -0.00000076   -0.00000000    0.00042480
     atom   32 type  3   force =    -0.00000306   -0.00000000    0.00043416
     atom   33 type  3   force =     0.00000000   -0.00000189    0.00042026
     atom   34 type  3   force =     0.00000000   -0.00000558    0.00042484
     atom   35 type  3   force =     0.00000000    0.00000189    0.00042026
     atom   36 type  3   force =     0.00000000    0.00000558    0.00042484
     atom   37 type  3   force =     0.00000000    0.00000076    0.00042480
     atom   38 type  3   force =     0.00000000    0.00000306    0.00043416
     atom   39 type  3   force =     0.00000000   -0.00000076    0.00042480
     atom   40 type  3   force =     0.00000000   -0.00000306    0.00043416

     Total force =     0.003310     Total SCF correction =     0.000005


     Computing stress (Cartesian axis) and pressure

          total   stress  (Ry/bohr**3)                   (kbar)     P=       43.11
   0.00026339   0.00000000   0.00000000           38.75        0.00        0.00
   0.00000000   0.00026339   0.00000000            0.00       38.75        0.00
   0.00000000   0.00000000   0.00035240            0.00        0.00       51.84


     Writing all to output data dir ./tmp/90_ecut_8_kmesh_PBE.save/ :
     XML data file, charge density, pseudopotentials, collected wavefunctions

     init_run     :      2.61s CPU      6.74s WALL (       1 calls)
     electrons    :     44.12s CPU     45.01s WALL (       1 calls)
     forces       :      1.67s CPU      1.75s WALL (       1 calls)
     stress       :      4.72s CPU      4.81s WALL (       1 calls)

     Called by init_run:
     wfcinit      :      1.04s CPU      4.96s WALL (       1 calls)
     potinit      :      0.63s CPU      0.72s WALL (       1 calls)
     hinit0       :      0.22s CPU      0.31s WALL (       1 calls)

     Called by electrons:
     c_bands      :     38.83s CPU     39.50s WALL (       5 calls)
     sum_band     :      4.46s CPU      4.58s WALL (       5 calls)
     v_of_rho     :      0.23s CPU      0.25s WALL (       5 calls)
     newd         :      0.54s CPU      0.55s WALL (       5 calls)
     PAW_pot      :      0.21s CPU      0.22s WALL (       5 calls)
     mix_rho      :      0.01s CPU      0.01s WALL (       5 calls)

     Called by c_bands:
     init_us_2    :      1.10s CPU      1.11s WALL (     120 calls)
     cegterg      :     35.75s CPU     36.37s WALL (      50 calls)

     Called by *egterg:
     cdiaghg      :      3.99s CPU      4.14s WALL (     240 calls)
     h_psi        :     18.17s CPU     18.46s WALL (     260 calls)
     s_psi        :      2.95s CPU      2.98s WALL (     260 calls)
     g_psi        :      0.08s CPU      0.08s WALL (     210 calls)

     Called by h_psi:
     h_psi:calbec :      3.65s CPU      3.77s WALL (     260 calls)
     vloc_psi     :     11.27s CPU     11.40s WALL (     260 calls)
                                        0.00s GPU  (     260 calls)
     add_vuspsi   :      3.00s CPU      3.03s WALL (     260 calls)

     General routines
     calbec       :      9.61s CPU      9.91s WALL (     480 calls)
     fft          :      0.32s CPU      0.39s WALL (      89 calls)
     ffts         :      0.53s CPU      0.54s WALL (      10 calls)
     fftw         :     12.59s CPU     12.74s WALL (   59110 calls)
     interpolate  :      0.54s CPU      0.55s WALL (       5 calls)

     Parallel routines

     PWSCF        :     54.93s CPU     62.33s WALL


   This run was terminated on:   0:17:25  21May2026            

=------------------------------------------------------------------------------=
   JOB DONE.
=------------------------------------------------------------------------------=
