
     Program PWSCF v.7.5 starts on 21May2026 at  4:12:50 

     This program is part of the open-source Quantum ESPRESSO suite
     for quantum simulation of materials; please cite
         "P. Giannozzi et al., J. Phys.:Condens. Matter 21 395502 (2009);
         "P. Giannozzi et al., J. Phys.:Condens. Matter 29 465901 (2017);
         "P. Giannozzi et al., J. Chem. Phys. 152 154105 (2020);
          URL http://www.quantum-espresso.org", 
     in publications or presentations arising from this work. More details at
     http://www.quantum-espresso.org/quote

     Parallel version (MPI & OpenMP), running on     192 processor cores
     Number of MPI processes:               192
     Threads/MPI process:                     1

     MPI processes distributed on     1 nodes
     246443 MiB available memory on the printing compute node when the environment starts

     Waiting for input...
     Reading input from standard input

     Current dimensions of program PWSCF are:
     Max number of different atomic species (ntypx) = 10
     Max number of k-points (npk) =  40000
     Max angular momentum in pseudopotentials (lmaxx) =  4
     file Ba.pbe-spn-kjpaw_psl.1.0.0.UPF: wavefunction(s)  5S 6S renormalized
     file Ti.pbe-spn-kjpaw_psl.1.0.0.UPF: wavefunction(s)  3S 3P 3D renormalized
     file O.pbe-n-kjpaw_psl.1.0.0.UPF: wavefunction(s)  2S 2P renormalized

     IMPORTANT: XC functional enforced from input :
     Exchange-correlation= PBESOL
                           (   1   4  10   8   0   0   0)
     Any further DFT definition will be discarded
     Please, verify this is what you really want

     Found identity + ( -0.5000 -0.5000  0.0000) symmetry
     This is a supercell, fractional translations are disabled

     K-points division:     npool     =       8
     R & G space division:  proc/nbgrp/npool/nimage =      24
     Subspace diagonalization in iterative solution of the eigenvalue problem:
     one sub-group per band group will be used
     ELPA distributed-memory algorithm (size of sub-group:  2*  2 procs)


     Parallelization info
     --------------------
     sticks:   dense  smooth     PW     G-vecs:    dense   smooth      PW
     Min         482     240     65                39550    13981    1967
     Max         485     242     66                39552    13987    1972
     Sum       11585    5785   1565               949235   335575   47241

     Using Slab Decomposition



     bravais-lattice index     =            6
     lattice parameter (alat)  =      15.0876  a.u.
     unit-cell volume          =    3472.3239 (a.u.)^3
     number of atoms/cell      =           40
     number of atomic types    =            3
     number of electrons       =       320.00
     number of Kohn-Sham states=          200
     kinetic-energy cutoff     =      80.0000  Ry
     charge density cutoff     =     640.0000  Ry
     scf convergence threshold =      1.0E-10
     mixing beta               =       0.3000
     number of iterations used =           16  plain     mixing
     Exchange-correlation= PBESOL
                           (   1   4  10   8   0   0   0)

     celldm(1)=  15.087600  celldm(2)=   0.000000  celldm(3)=   1.011020
     celldm(4)=   0.000000  celldm(5)=   0.000000  celldm(6)=   0.000000

     crystal axes: (cart. coord. in units of alat)
               a(1) = (   1.000000   0.000000   0.000000 )  
               a(2) = (   0.000000   1.000000   0.000000 )  
               a(3) = (   0.000000   0.000000   1.011020 )  

     reciprocal axes: (cart. coord. in units 2 pi/alat)
               b(1) = (  1.000000  0.000000  0.000000 )  
               b(2) = (  0.000000  1.000000  0.000000 )  
               b(3) = (  0.000000  0.000000  0.989100 )  


     PseudoPot. # 1 for Ba read from file:
     /home/kylay/scratch/BTO/pseuds/Ba.pbe-spn-kjpaw_psl.1.0.0.UPF
     MD5 check sum: 7cfe25f1fe7574a4710541d5a11d6531
     Pseudo is Projector augmented-wave + core cor, Zval = 10.0
     Generated using &quot;atomic&quot; code by A. Dal Corso  v.6.2.2
     Shape of augmentation charge: PSQ
     Using radial grid of 1251 points,  7 beta functions with: 
                l(1) =   0
                l(2) =   0
                l(3) =   0
                l(4) =   1
                l(5) =   1
                l(6) =   2
                l(7) =   2
     Q(r) pseudized with 0 coefficients 


     PseudoPot. # 2 for Ti read from file:
     /home/kylay/scratch/BTO/pseuds/Ti.pbe-spn-kjpaw_psl.1.0.0.UPF
     MD5 check sum: 01f69b0d8ba4438b2e03ac6ea4af1c0b
     Pseudo is Projector augmented-wave + core cor, Zval = 12.0
     Generated using &quot;atomic&quot; code by A. Dal Corso  v.6.2.2
     Shape of augmentation charge: PSQ
     Using radial grid of 1177 points,  6 beta functions with: 
                l(1) =   0
                l(2) =   0
                l(3) =   1
                l(4) =   1
                l(5) =   2
                l(6) =   2
     Q(r) pseudized with 0 coefficients 


     PseudoPot. # 3 for O  read from file:
     /home/kylay/scratch/BTO/pseuds/O.pbe-n-kjpaw_psl.1.0.0.UPF
     MD5 check sum: e99d9cef9b487d1ca56f5b95ecd0fd7a
     Pseudo is Projector augmented-wave + core cor, Zval =  6.0
     Generated using &quot;atomic&quot; code by A. Dal Corso  v.6.3
     Shape of augmentation charge: PSQ
     Using radial grid of 1095 points,  4 beta functions with: 
                l(1) =   0
                l(2) =   0
                l(3) =   1
                l(4) =   1
     Q(r) pseudized with 0 coefficients 


     atomic species   valence    mass     pseudopotential
     Ba               10.00   137.32700     Ba( 1.00)
     Ti               12.00    47.86700     Ti( 1.00)
     O                 6.00    15.99900     O ( 1.00)

      8 Sym. Ops. (no inversion) found



   Cartesian axes

     site n.     atom                  positions (alat units)
         1        Ba     tau(   1) = (   0.0000000   0.0000000  -0.0010787  )
         2        Ba     tau(   2) = (   0.0000000   0.0000000   0.5044220  )
         3        Ba     tau(   3) = (   0.0000000   0.5000000  -0.0010832  )
         4        Ba     tau(   4) = (   0.0000000   0.5000000   0.5044235  )
         5        Ba     tau(   5) = (   0.5000000   0.0000000  -0.0010832  )
         6        Ba     tau(   6) = (   0.5000000   0.0000000   0.5044235  )
         7        Ba     tau(   7) = (   0.5000000   0.5000000  -0.0010766  )
         8        Ba     tau(   8) = (   0.5000000   0.5000000   0.5044202  )
         9        Ti     tau(   9) = (   0.2500002   0.2500002   0.2436990  )
        10        Ti     tau(  10) = (   0.2500007   0.2500007   0.7492042  )
        11        Ti     tau(  11) = (   0.2500002   0.7499998   0.2436990  )
        12        Ti     tau(  12) = (   0.2500007   0.7499993   0.7492042  )
        13        Ti     tau(  13) = (   0.7499998   0.2500002   0.2436990  )
        14        Ti     tau(  14) = (   0.7499993   0.2500007   0.7492042  )
        15        Ti     tau(  15) = (   0.7499998   0.7499998   0.2436990  )
        16        Ti     tau(  16) = (   0.7499993   0.7499993   0.7492042  )
        17        O      tau(  17) = (   0.2500011   0.2500011   0.0113903  )
        18        O      tau(  18) = (   0.2500007   0.2500007   0.5168954  )
        19        O      tau(  19) = (   0.2500011   0.7499989   0.0113903  )
        20        O      tau(  20) = (   0.2500007   0.7499993   0.5168954  )
        21        O      tau(  21) = (   0.7499989   0.2500011   0.0113903  )
        22        O      tau(  22) = (   0.7499993   0.2500007   0.5168954  )
        23        O      tau(  23) = (   0.7499989   0.7499989   0.0113903  )
        24        O      tau(  24) = (   0.7499993   0.7499993   0.5168954  )
        25        O      tau(  25) = (   0.2500005   0.0000000   0.2592128  )
        26        O      tau(  26) = (   0.2500020   0.0000000   0.7647195  )
        27        O      tau(  27) = (   0.2499999   0.5000000   0.2592107  )
        28        O      tau(  28) = (   0.2499998   0.5000000   0.7647148  )
        29        O      tau(  29) = (   0.7499995   0.0000000   0.2592128  )
        30        O      tau(  30) = (   0.7499980   0.0000000   0.7647195  )
        31        O      tau(  31) = (   0.7500001   0.5000000   0.2592107  )
        32        O      tau(  32) = (   0.7500002   0.5000000   0.7647148  )
        33        O      tau(  33) = (   0.0000000   0.2500005   0.2592128  )
        34        O      tau(  34) = (   0.0000000   0.2500020   0.7647195  )
        35        O      tau(  35) = (   0.0000000   0.7499995   0.2592128  )
        36        O      tau(  36) = (   0.0000000   0.7499980   0.7647195  )
        37        O      tau(  37) = (   0.5000000   0.2499999   0.2592107  )
        38        O      tau(  38) = (   0.5000000   0.2499998   0.7647148  )
        39        O      tau(  39) = (   0.5000000   0.7500001   0.2592107  )
        40        O      tau(  40) = (   0.5000000   0.7500002   0.7647148  )

     number of k points=    75
                       cart. coord. in units 2pi/alat
        k(    1) = (   0.0000000   0.0000000   0.0000000), wk =   0.0039062
        k(    2) = (   0.0000000   0.0000000   0.1236375), wk =   0.0078125
        k(    3) = (   0.0000000   0.0000000   0.2472750), wk =   0.0078125
        k(    4) = (   0.0000000   0.0000000   0.3709125), wk =   0.0078125
        k(    5) = (   0.0000000   0.0000000  -0.4945501), wk =   0.0039062
        k(    6) = (   0.0000000   0.1250000   0.0000000), wk =   0.0156250
        k(    7) = (   0.0000000   0.1250000   0.1236375), wk =   0.0312500
        k(    8) = (   0.0000000   0.1250000   0.2472750), wk =   0.0312500
        k(    9) = (   0.0000000   0.1250000   0.3709125), wk =   0.0312500
        k(   10) = (   0.0000000   0.1250000  -0.4945501), wk =   0.0156250
        k(   11) = (   0.0000000   0.2500000   0.0000000), wk =   0.0156250
        k(   12) = (   0.0000000   0.2500000   0.1236375), wk =   0.0312500
        k(   13) = (   0.0000000   0.2500000   0.2472750), wk =   0.0312500
        k(   14) = (   0.0000000   0.2500000   0.3709125), wk =   0.0312500
        k(   15) = (   0.0000000   0.2500000  -0.4945501), wk =   0.0156250
        k(   16) = (   0.0000000   0.3750000   0.0000000), wk =   0.0156250
        k(   17) = (   0.0000000   0.3750000   0.1236375), wk =   0.0312500
        k(   18) = (   0.0000000   0.3750000   0.2472750), wk =   0.0312500
        k(   19) = (   0.0000000   0.3750000   0.3709125), wk =   0.0312500
        k(   20) = (   0.0000000   0.3750000  -0.4945501), wk =   0.0156250
        k(   21) = (   0.0000000  -0.5000000   0.0000000), wk =   0.0078125
        k(   22) = (   0.0000000  -0.5000000   0.1236375), wk =   0.0156250
        k(   23) = (   0.0000000  -0.5000000   0.2472750), wk =   0.0156250
        k(   24) = (   0.0000000  -0.5000000   0.3709125), wk =   0.0156250
        k(   25) = (   0.0000000  -0.5000000  -0.4945501), wk =   0.0078125
        k(   26) = (   0.1250000   0.1250000   0.0000000), wk =   0.0156250
        k(   27) = (   0.1250000   0.1250000   0.1236375), wk =   0.0312500
        k(   28) = (   0.1250000   0.1250000   0.2472750), wk =   0.0312500
        k(   29) = (   0.1250000   0.1250000   0.3709125), wk =   0.0312500
        k(   30) = (   0.1250000   0.1250000  -0.4945501), wk =   0.0156250
        k(   31) = (   0.1250000   0.2500000   0.0000000), wk =   0.0312500
        k(   32) = (   0.1250000   0.2500000   0.1236375), wk =   0.0625000
        k(   33) = (   0.1250000   0.2500000   0.2472750), wk =   0.0625000
        k(   34) = (   0.1250000   0.2500000   0.3709125), wk =   0.0625000
        k(   35) = (   0.1250000   0.2500000  -0.4945501), wk =   0.0312500
        k(   36) = (   0.1250000   0.3750000   0.0000000), wk =   0.0312500
        k(   37) = (   0.1250000   0.3750000   0.1236375), wk =   0.0625000
        k(   38) = (   0.1250000   0.3750000   0.2472750), wk =   0.0625000
        k(   39) = (   0.1250000   0.3750000   0.3709125), wk =   0.0625000
        k(   40) = (   0.1250000   0.3750000  -0.4945501), wk =   0.0312500
        k(   41) = (   0.1250000  -0.5000000   0.0000000), wk =   0.0156250
        k(   42) = (   0.1250000  -0.5000000   0.1236375), wk =   0.0312500
        k(   43) = (   0.1250000  -0.5000000   0.2472750), wk =   0.0312500
        k(   44) = (   0.1250000  -0.5000000   0.3709125), wk =   0.0312500
        k(   45) = (   0.1250000  -0.5000000  -0.4945501), wk =   0.0156250
        k(   46) = (   0.2500000   0.2500000   0.0000000), wk =   0.0156250
        k(   47) = (   0.2500000   0.2500000   0.1236375), wk =   0.0312500
        k(   48) = (   0.2500000   0.2500000   0.2472750), wk =   0.0312500
        k(   49) = (   0.2500000   0.2500000   0.3709125), wk =   0.0312500
        k(   50) = (   0.2500000   0.2500000  -0.4945501), wk =   0.0156250
        k(   51) = (   0.2500000   0.3750000   0.0000000), wk =   0.0312500
        k(   52) = (   0.2500000   0.3750000   0.1236375), wk =   0.0625000
        k(   53) = (   0.2500000   0.3750000   0.2472750), wk =   0.0625000
        k(   54) = (   0.2500000   0.3750000   0.3709125), wk =   0.0625000
        k(   55) = (   0.2500000   0.3750000  -0.4945501), wk =   0.0312500
        k(   56) = (   0.2500000  -0.5000000   0.0000000), wk =   0.0156250
        k(   57) = (   0.2500000  -0.5000000   0.1236375), wk =   0.0312500
        k(   58) = (   0.2500000  -0.5000000   0.2472750), wk =   0.0312500
        k(   59) = (   0.2500000  -0.5000000   0.3709125), wk =   0.0312500
        k(   60) = (   0.2500000  -0.5000000  -0.4945501), wk =   0.0156250
        k(   61) = (   0.3750000   0.3750000   0.0000000), wk =   0.0156250
        k(   62) = (   0.3750000   0.3750000   0.1236375), wk =   0.0312500
        k(   63) = (   0.3750000   0.3750000   0.2472750), wk =   0.0312500
        k(   64) = (   0.3750000   0.3750000   0.3709125), wk =   0.0312500
        k(   65) = (   0.3750000   0.3750000  -0.4945501), wk =   0.0156250
        k(   66) = (   0.3750000  -0.5000000   0.0000000), wk =   0.0156250
        k(   67) = (   0.3750000  -0.5000000   0.1236375), wk =   0.0312500
        k(   68) = (   0.3750000  -0.5000000   0.2472750), wk =   0.0312500
        k(   69) = (   0.3750000  -0.5000000   0.3709125), wk =   0.0312500
        k(   70) = (   0.3750000  -0.5000000  -0.4945501), wk =   0.0156250
        k(   71) = (  -0.5000000  -0.5000000   0.0000000), wk =   0.0039062
        k(   72) = (  -0.5000000  -0.5000000   0.1236375), wk =   0.0078125
        k(   73) = (  -0.5000000  -0.5000000   0.2472750), wk =   0.0078125
        k(   74) = (  -0.5000000  -0.5000000   0.3709125), wk =   0.0078125
        k(   75) = (  -0.5000000  -0.5000000  -0.4945501), wk =   0.0039062

     Dense  grid:   949235 G-vectors     FFT dimensions: ( 125, 125, 125)

     Smooth grid:   335575 G-vectors     FFT dimensions: (  90,  90,  90)

     Estimated max dynamical RAM per process >     149.90 MB

     Estimated total dynamical RAM >      24.94 GB
     Cannot read rho : file not found

     Initial potential from superposition of free atoms

     starting charge     319.8521, renormalised to     320.0000
     Message from routine qexsd_readschema :
     xml data file ./tmp/80_ecut_8_kmesh_PBE.save/data-file-schema.xml not found
     Cannot read wfcs: file not found
     Starting wfcs are  216 randomized atomic wfcs
     Checking if some PAW data can be deallocated... 

     total cpu time spent up to now is        4.7 secs

     per-process dynamical memory:   209.7 Mb

     Self-consistent Calculation

     iteration #  1     ecut=    80.00 Ry     beta= 0.30
     Davidson diagonalization with overlap
     c_bands:  3 eigenvalues not converged
     c_bands:  1 eigenvalues not converged
     ethr =  1.00E-05,  avg # of iterations = 39.0

     total cpu time spent up to now is       53.7 secs

     total energy              =   -5884.38269765 Ry
     estimated scf accuracy    <      13.70990481 Ry

     iteration #  2     ecut=    80.00 Ry     beta= 0.30
     Davidson diagonalization with overlap
     ethr =  4.28E-03,  avg # of iterations =  1.9

     total cpu time spent up to now is       60.7 secs

     total energy              =   -5886.03160333 Ry
     estimated scf accuracy    <       0.61747325 Ry

     iteration #  3     ecut=    80.00 Ry     beta= 0.30
     Davidson diagonalization with overlap
     ethr =  1.93E-04,  avg # of iterations = 14.6

     total cpu time spent up to now is       79.6 secs

     total energy              =   -5887.00447878 Ry
     estimated scf accuracy    <       1.18980925 Ry

     iteration #  4     ecut=    80.00 Ry     beta= 0.30
     Davidson diagonalization with overlap
     ethr =  1.93E-04,  avg # of iterations =  2.2

     total cpu time spent up to now is       87.0 secs

     total energy              =   -5887.11142004 Ry
     estimated scf accuracy    <       0.19604985 Ry

     iteration #  5     ecut=    80.00 Ry     beta= 0.30
     Davidson diagonalization with overlap
     ethr =  6.13E-05,  avg # of iterations = 11.8

     total cpu time spent up to now is      101.1 secs

     total energy              =   -5886.99232518 Ry
     estimated scf accuracy    <       0.92705761 Ry

     iteration #  6     ecut=    80.00 Ry     beta= 0.30
     Davidson diagonalization with overlap
     ethr =  6.13E-05,  avg # of iterations =  5.5

     total cpu time spent up to now is      112.3 secs

     total energy              =   -5887.12999483 Ry
     estimated scf accuracy    <       0.20806322 Ry

     iteration #  7     ecut=    80.00 Ry     beta= 0.30
     Davidson diagonalization with overlap
     ethr =  6.13E-05,  avg # of iterations =  2.1

     total cpu time spent up to now is      119.6 secs

     total energy              =   -5887.13791173 Ry
     estimated scf accuracy    <       0.04028832 Ry

     iteration #  8     ecut=    80.00 Ry     beta= 0.30
     Davidson diagonalization with overlap
     ethr =  1.26E-05,  avg # of iterations = 10.8

     total cpu time spent up to now is      134.2 secs

     total energy              =   -5887.14596222 Ry
     estimated scf accuracy    <       0.06643324 Ry

     iteration #  9     ecut=    80.00 Ry     beta= 0.30
     Davidson diagonalization with overlap
     ethr =  1.26E-05,  avg # of iterations =  6.0

     total cpu time spent up to now is      145.7 secs

     total energy              =   -5887.16352665 Ry
     estimated scf accuracy    <       0.01263348 Ry

     iteration # 10     ecut=    80.00 Ry     beta= 0.30
     Davidson diagonalization with overlap
     ethr =  3.95E-06,  avg # of iterations =  2.9

     total cpu time spent up to now is      153.5 secs

     total energy              =   -5887.16490190 Ry
     estimated scf accuracy    <       0.00140338 Ry

     iteration # 11     ecut=    80.00 Ry     beta= 0.30
     Davidson diagonalization with overlap
     ethr =  4.39E-07,  avg # of iterations =  9.1

     total cpu time spent up to now is      166.7 secs

     total energy              =   -5887.16582075 Ry
     estimated scf accuracy    <       0.00058970 Ry

     iteration # 12     ecut=    80.00 Ry     beta= 0.30
     Davidson diagonalization with overlap
     ethr =  1.84E-07,  avg # of iterations =  3.1

     total cpu time spent up to now is      174.8 secs

     total energy              =   -5887.16558055 Ry
     estimated scf accuracy    <       0.00066386 Ry

     iteration # 13     ecut=    80.00 Ry     beta= 0.30
     Davidson diagonalization with overlap
     ethr =  1.84E-07,  avg # of iterations =  6.7

     total cpu time spent up to now is      184.9 secs

     total energy              =   -5887.16586269 Ry
     estimated scf accuracy    <       0.00036369 Ry

     iteration # 14     ecut=    80.00 Ry     beta= 0.30
     Davidson diagonalization with overlap
     ethr =  1.14E-07,  avg # of iterations =  3.8

     total cpu time spent up to now is      193.0 secs

     total energy              =   -5887.16574653 Ry
     estimated scf accuracy    <       0.00058912 Ry

     iteration # 15     ecut=    80.00 Ry     beta= 0.30
     Davidson diagonalization with overlap
     ethr =  1.14E-07,  avg # of iterations =  1.5

     total cpu time spent up to now is      199.7 secs

     total energy              =   -5887.16572704 Ry
     estimated scf accuracy    <       0.00018170 Ry

     iteration # 16     ecut=    80.00 Ry     beta= 0.30
     Davidson diagonalization with overlap
     ethr =  5.68E-08,  avg # of iterations =  2.0

     total cpu time spent up to now is      206.8 secs

     total energy              =   -5887.16573031 Ry
     estimated scf accuracy    <       0.00004319 Ry

     iteration # 17     ecut=    80.00 Ry     beta= 0.30
     Davidson diagonalization with overlap
     ethr =  1.35E-08,  avg # of iterations =  6.3

     total cpu time spent up to now is      216.3 secs

     total energy              =   -5887.16573840 Ry
     estimated scf accuracy    <       0.00000682 Ry

     iteration # 18     ecut=    80.00 Ry     beta= 0.30
     Davidson diagonalization with overlap
     ethr =  2.13E-09,  avg # of iterations =  5.9

     total cpu time spent up to now is      227.9 secs

     total energy              =   -5887.16574387 Ry
     estimated scf accuracy    <       0.00000109 Ry

     iteration # 19     ecut=    80.00 Ry     beta= 0.30
     Davidson diagonalization with overlap
     ethr =  3.40E-10,  avg # of iterations =  4.6

     total cpu time spent up to now is      236.9 secs

     total energy              =   -5887.16574350 Ry
     estimated scf accuracy    <       0.00000119 Ry

     iteration # 20     ecut=    80.00 Ry     beta= 0.30
     Davidson diagonalization with overlap
     ethr =  3.40E-10,  avg # of iterations =  2.1

     total cpu time spent up to now is      244.1 secs

     total energy              =   -5887.16574337 Ry
     estimated scf accuracy    <       0.00000041 Ry

     iteration # 21     ecut=    80.00 Ry     beta= 0.30
     Davidson diagonalization with overlap
     ethr =  1.29E-10,  avg # of iterations =  6.3

     total cpu time spent up to now is      255.5 secs

     total energy              =   -5887.16574355 Ry
     estimated scf accuracy    <       0.00000009 Ry

     iteration # 22     ecut=    80.00 Ry     beta= 0.30
     Davidson diagonalization with overlap
     ethr =  2.79E-11,  avg # of iterations =  3.9

     total cpu time spent up to now is      263.9 secs

     total energy              =   -5887.16574355 Ry
     estimated scf accuracy    <       0.00000005 Ry

     iteration # 23     ecut=    80.00 Ry     beta= 0.30
     Davidson diagonalization with overlap
     ethr =  1.46E-11,  avg # of iterations =  2.6

     total cpu time spent up to now is      272.0 secs

     total energy              =   -5887.16574356 Ry
     estimated scf accuracy    <       0.00000002 Ry

     iteration # 24     ecut=    80.00 Ry     beta= 0.30
     Davidson diagonalization with overlap
     ethr =  5.65E-12,  avg # of iterations =  7.0

     total cpu time spent up to now is      282.4 secs

     total energy              =   -5887.16574356 Ry
     estimated scf accuracy    <       0.00000002 Ry

     iteration # 25     ecut=    80.00 Ry     beta= 0.30
     Davidson diagonalization with overlap
     ethr =  5.65E-12,  avg # of iterations =  5.0

     total cpu time spent up to now is      293.8 secs

     total energy              =   -5887.16574357 Ry
     estimated scf accuracy    <       0.00000003 Ry

     iteration # 26     ecut=    80.00 Ry     beta= 0.30
     Davidson diagonalization with overlap
     ethr =  5.65E-12,  avg # of iterations =  1.6

     total cpu time spent up to now is      300.6 secs

     total energy              =   -5887.16574356 Ry
     estimated scf accuracy    <       0.00000002 Ry

     iteration # 27     ecut=    80.00 Ry     beta= 0.30
     Davidson diagonalization with overlap
     ethr =  5.53E-12,  avg # of iterations =  2.0

     total cpu time spent up to now is      308.1 secs

     total energy              =   -5887.16574356 Ry
     estimated scf accuracy    <          2.3E-09 Ry

     iteration # 28     ecut=    80.00 Ry     beta= 0.30
     Davidson diagonalization with overlap
     ethr =  7.17E-13,  avg # of iterations =  5.4

     total cpu time spent up to now is      319.3 secs

     total energy              =   -5887.16574356 Ry
     estimated scf accuracy    <          7.4E-10 Ry

     iteration # 29     ecut=    80.00 Ry     beta= 0.30
     Davidson diagonalization with overlap
     ethr =  2.31E-13,  avg # of iterations =  3.8

     total cpu time spent up to now is      327.6 secs

     total energy              =   -5887.16574356 Ry
     estimated scf accuracy    <          1.2E-10 Ry

     iteration # 30     ecut=    80.00 Ry     beta= 0.30
     Davidson diagonalization with overlap
     ethr =  1.00E-13,  avg # of iterations =  4.9

     total cpu time spent up to now is      336.6 secs

     End of self-consistent calculation

          k = 0.0000 0.0000 0.0000 ( 42051 PWs)   bands (ev):

   -45.9800 -45.9791 -45.9789 -45.9789 -45.9780 -45.9780 -45.9779 -45.9770
   -22.4288 -22.4250 -22.4250 -22.4223 -22.3792 -22.3770 -22.3770 -22.3748
   -22.3736 -22.3736 -22.3702 -22.3702 -22.3700 -22.3700 -22.3675 -22.3675
   -22.3180 -22.3180 -22.3160 -22.3160 -22.3158 -22.3158 -22.3140 -22.3140
   -14.5426 -14.4278 -14.4182 -14.4182 -14.3472 -14.3472 -14.3391 -14.2768
    -6.8465  -6.8465  -6.7971  -6.5949  -6.3051  -6.1974  -6.1974  -5.9527
    -5.9527  -5.9507  -5.8892  -5.8892  -5.8590  -5.8253  -5.7978  -5.7978
    -5.7946  -5.7946  -5.7736  -5.7068  -5.6189  -5.6189  -5.5564  -5.5564
    -0.4728  -0.4728  -0.4103   0.2091   0.2091   0.2255   0.2255   0.2724
     0.2819   0.2820   0.2832   0.2832   0.4418   0.4418   0.4460   0.4460
     0.4643   0.4643   0.6608   0.6660   0.6660   0.6890   0.6890   0.7330
     5.7138   5.8849   5.9124   5.9124   6.0817   6.0817   6.1335   6.1597
     6.2305   6.2305   6.3955   6.3955   6.3966   6.4150   6.4313   7.3353
     7.3353   7.3917   7.3917   7.4389   7.4389   7.4394   7.4394   7.4460
     7.4460   7.5441   7.5441   7.7685   7.7685   7.7949   7.8898   7.9094
     7.9094   7.9215   7.9215   8.2185   8.2185   8.2643   8.2743   8.2810
     8.2810   8.3798   8.3798   8.4562   8.5255   8.5255   8.5428   8.5428
     8.8885   8.8885   9.0665   9.1896   9.1896   9.2299   9.2299   9.3234
     9.3234   9.3348   9.3348   9.3497   9.3497   9.5638   9.5638   9.8562
     9.9148   9.9148  10.0333  10.0333  10.1044  10.1044  10.1938  10.2654
    12.0411  12.1941  12.3659  12.3659  12.4880  12.4880  13.8049  13.8049
    13.8352  13.8352  13.8618  13.8618  13.8684  13.8684  13.8842  13.8842
    13.8861  13.8861  14.2237  14.2237  14.2528  14.3543  14.3550  14.4365
    14.4365  14.4818  14.4818  14.4882  14.5013  14.9690  15.0675  15.1813
    15.1813  15.2145  16.1730  16.1730  16.3741  16.6779  16.8759  16.8759

          k = 0.0000 0.0000 0.1236 ( 42023 PWs)   bands (ev):

   -45.9800 -45.9791 -45.9789 -45.9789 -45.9781 -45.9781 -45.9778 -45.9770
   -22.4269 -22.4232 -22.4232 -22.4205 -22.3812 -22.3788 -22.3788 -22.3766
   -22.3735 -22.3735 -22.3704 -22.3704 -22.3699 -22.3699 -22.3676 -22.3676
   -22.3179 -22.3179 -22.3161 -22.3161 -22.3157 -22.3157 -22.3140 -22.3140
   -14.5383 -14.4323 -14.4156 -14.4156 -14.3500 -14.3500 -14.3367 -14.2792
    -6.8273  -6.8273  -6.7841  -6.5937  -6.2862  -6.2392  -6.2392  -5.9523
    -5.9340  -5.9340  -5.8870  -5.8870  -5.8577  -5.8266  -5.7953  -5.7885
    -5.7885  -5.7884  -5.7884  -5.7234  -5.6261  -5.6261  -5.5655  -5.5655
    -0.4483  -0.4483  -0.3767   0.1813   0.1813   0.2414   0.2414   0.2865
     0.2866   0.2890   0.2890   0.2902   0.4354   0.4354   0.4379   0.4380
     0.4715   0.4715   0.6098   0.6578   0.6578   0.6696   0.6696   0.7156
     5.7411   5.8856   5.9460   5.9460   6.1226   6.1226   6.2066   6.2211
     6.2229   6.2229   6.4156   6.4265   6.4265   6.4307   6.4393   7.3383
     7.3383   7.3902   7.3902   7.4311   7.4311   7.4627   7.4627   7.4684
     7.4684   7.5739   7.5739   7.7115   7.7115   7.7385   7.7643   7.7643
     7.8193   7.9100   7.9100   8.2316   8.2316   8.2902   8.3171   8.3171
     8.3189   8.3449   8.3456   8.3456   8.5442   8.5442   8.7391   8.7391
     8.8438   8.8438   9.0296   9.1547   9.1547   9.2496   9.2496   9.2710
     9.2710   9.2950   9.2950   9.3095   9.3095   9.5756   9.5756   9.7659
     9.9009   9.9009  10.0115  10.0115  10.0575  10.0575  10.1965  10.2626
    12.0466  12.1881  12.4323  12.4323  12.5477  12.5477  13.8062  13.8062
    13.8161  13.8161  13.8341  13.8341  13.8341  13.8341  13.8633  13.8634
    13.9062  13.9062  14.1973  14.1973  14.2614  14.3542  14.3544  14.4539
    14.4539  14.4789  14.5149  14.5149  14.6059  15.0916  15.1442  15.1768
    15.1768  15.2892  16.2183  16.2183  16.3214  16.6792  16.9741  17.0265

          k = 0.0000 0.0000 0.2473 ( 41979 PWs)   bands (ev):

   -45.9799 -45.9792 -45.9788 -45.9788 -45.9782 -45.9782 -45.9777 -45.9771
   -22.4216 -22.4181 -22.4181 -22.4154 -22.3866 -22.3840 -22.3840 -22.3818
   -22.3731 -22.3731 -22.3707 -22.3707 -22.3696 -22.3696 -22.3679 -22.3679
   -22.3177 -22.3177 -22.3163 -22.3163 -22.3155 -22.3155 -22.3142 -22.3142
   -14.5261 -14.4450 -14.4080 -14.4080 -14.3578 -14.3578 -14.3301 -14.2861
    -6.7716  -6.7716  -6.7481  -6.5953  -6.3360  -6.3360  -6.2319  -5.9508
    -5.9030  -5.9030  -5.8814  -5.8814  -5.8565  -5.8541  -5.8302  -5.7704
    -5.7704  -5.7686  -5.7621  -5.7621  -5.6462  -5.6462  -5.5914  -5.5914
    -0.3779  -0.3779  -0.2786   0.1033   0.1033   0.2873   0.2873   0.3003
     0.3004   0.3055   0.3055   0.3409   0.4159   0.4159   0.4175   0.4175
     0.4708   0.4923   0.4923   0.6151   0.6151   0.6348   0.6348   0.6662
     5.8000   5.8867   6.0210   6.0210   6.2023   6.2023   6.2435   6.2435
     6.3976   6.4087   6.4174   6.4289   6.5356   6.5356   6.5835   7.3462
     7.3462   7.3641   7.3641   7.3814   7.3814   7.3857   7.3857   7.5274
     7.5274   7.5292   7.5292   7.5758   7.6203   7.6596   7.6596   7.7498
     7.7498   7.8745   7.8745   8.0470   8.2493   8.2493   8.2719   8.2719
     8.3653   8.4346   8.4346   8.4496   8.5994   8.5994   8.7284   8.7284
     8.9282   9.0615   9.0615   9.0646   9.0646   9.1340   9.1340   9.1951
     9.1951   9.2182   9.2182   9.3115   9.3115   9.5323   9.6102   9.6102
     9.8608   9.8608   9.9300   9.9300   9.9421   9.9421  10.2041  10.2547
    12.0626  12.1708  12.6147  12.6147  12.7129  12.7129  13.6661  13.6661
    13.6913  13.6913  13.8099  13.8099  13.8312  13.8312  13.8730  13.8730
    13.9639  13.9639  14.1278  14.1278  14.2860  14.3534  14.3538  14.3788
    14.3788  14.4525  14.7011  14.7011  14.8787  15.1594  15.1594  15.3609
    15.4187  15.5066  16.1662  16.3638  16.3638  16.6617  16.7928  17.2037

          k = 0.0000 0.0000 0.3709 ( 41944 PWs)   bands (ev):

   -45.9797 -45.9794 -45.9787 -45.9787 -45.9783 -45.9783 -45.9776 -45.9772
   -22.4136 -22.4103 -22.4103 -22.4077 -22.3946 -22.3919 -22.3919 -22.3895
   -22.3726 -22.3726 -22.3713 -22.3713 -22.3692 -22.3692 -22.3683 -22.3683
   -22.3174 -22.3174 -22.3166 -22.3166 -22.3152 -22.3152 -22.3145 -22.3145
   -14.5078 -14.4639 -14.3966 -14.3966 -14.3695 -14.3694 -14.3201 -14.2962
    -6.6981  -6.6847  -6.6847  -6.6112  -6.4543  -6.4543  -6.1491  -5.9461
    -5.9329  -5.8819  -5.8819  -5.8755  -5.8755  -5.8487  -5.8357  -5.8301
    -5.7430  -5.7430  -5.7227  -5.7227  -5.6758  -5.6758  -5.6303  -5.6302
    -0.2711  -0.2711  -0.1249  -0.0111  -0.0111   0.2777   0.3228   0.3229
     0.3305   0.3305   0.3582   0.3582   0.3852   0.3852   0.3911   0.3911
     0.4162   0.5239   0.5239   0.5356   0.5356   0.5921   0.6010   0.6010
     5.8498   5.8854   6.0898   6.0898   6.1735   6.1735   6.4200   6.4263
     6.4390   6.4390   6.6668   6.6968   6.7408   6.7408   6.8502   7.0147
     7.0147   7.2402   7.2402   7.3257   7.3282   7.3571   7.3571   7.3783
     7.3783   7.6020   7.6020   7.6240   7.6240   7.6442   7.7201   7.7201
     7.7899   7.7899   7.8127   7.8127   8.1085   8.1085   8.3428   8.3428
     8.4824   8.5835   8.5835   8.6116   8.6117   8.6570   8.6885   8.6885
     8.7855   8.9360   8.9360   9.0231   9.0231   9.0363   9.0363   9.1188
     9.1188   9.2308   9.3720   9.3720   9.4204   9.4204   9.6641   9.6641
     9.7554   9.7554   9.8004   9.8004   9.8164   9.8164  10.2156  10.2430
    12.0868  12.1454  12.8731  12.8731  12.9494  12.9494  13.4382  13.4382
    13.4758  13.4758  13.8151  13.8151  13.8266  13.8266  13.9019  13.9019
    14.0393  14.0393  14.0523  14.0523  14.2747  14.2747  14.3233  14.3529
    14.3533  14.4134  14.8964  14.8964  15.1185  15.1185  15.2345  15.6832
    15.8474  15.8523  15.9187  16.4537  16.5532  16.6205  16.6205  16.7540

          k = 0.0000 0.0000-0.4946 ( 41964 PWs)   bands (ev):

   -45.9796 -45.9795 -45.9785 -45.9785 -45.9785 -45.9785 -45.9774 -45.9774
   -22.4041 -22.4041 -22.4011 -22.4011 -22.4011 -22.4011 -22.3986 -22.3986
   -22.3719 -22.3719 -22.3719 -22.3719 -22.3687 -22.3687 -22.3687 -22.3687
   -22.3170 -22.3170 -22.3170 -22.3170 -22.3149 -22.3149 -22.3149 -22.3149
   -14.4860 -14.4859 -14.3831 -14.3831 -14.3830 -14.3830 -14.3082 -14.3081
    -6.6478  -6.6476  -6.5752  -6.5752  -6.5751  -6.5751  -6.0491  -6.0490
    -5.8905  -5.8904  -5.8739  -5.8739  -5.8739  -5.8739  -5.8423  -5.8421
    -5.7099  -5.7099  -5.7098  -5.7098  -5.6764  -5.6764  -5.6763  -5.6763
    -0.1427  -0.1427  -0.1426  -0.1426   0.0683   0.0685   0.3522   0.3523
     0.3523   0.3524   0.3605   0.3605   0.3606   0.3606   0.4452   0.4452
     0.4452   0.4452   0.5043   0.5044   0.5620   0.5620   0.5620   0.5620
     5.8759   5.8760   6.1377   6.1377   6.1378   6.1378   6.4231   6.4232
     6.7001   6.7001   6.7003   6.7003   6.9927   6.9928   7.0035   7.0035
     7.0037   7.0037   7.0189   7.0190   7.2213   7.2215   7.3684   7.3684
     7.3685   7.3685   7.6705   7.6705   7.6705   7.6705   7.7255   7.7255
     7.7256   7.7256   7.9470   7.9470   7.9471   7.9471   8.4478   8.4478
     8.4479   8.4479   8.6286   8.6288   8.8049   8.8049   8.8049   8.8049
     8.8184   8.8185   8.8186   8.8186   8.9255   8.9256   9.0399   9.0399
     9.0400   9.0400   9.5743   9.5743   9.5743   9.5743   9.6265   9.6265
     9.6265   9.6265   9.7307   9.7307   9.7308   9.7308  10.2292  10.2293
    12.1158  12.1159  13.1616  13.1616  13.1617  13.1617  13.2167  13.2167
    13.2168  13.2168  13.8209  13.8209  13.8210  13.8210  13.9583  13.9583
    13.9583  13.9583  14.1605  14.1605  14.1605  14.1605  14.3529  14.3530
    14.3680  14.3680  15.0371  15.0371  15.0371  15.0371  15.5978  15.5979
    16.0649  16.0651  16.2711  16.2713  16.2791  16.2792  16.9628  16.9628

          k = 0.0000 0.1250 0.0000 ( 41983 PWs)   bands (ev):

   -45.9800 -45.9791 -45.9790 -45.9789 -45.9781 -45.9780 -45.9779 -45.9770
   -22.4287 -22.4252 -22.4249 -22.4224 -22.3792 -22.3771 -22.3769 -22.3749
   -22.3735 -22.3715 -22.3701 -22.3701 -22.3682 -22.3679 -22.3676 -22.3655
   -22.3201 -22.3181 -22.3179 -22.3179 -22.3160 -22.3160 -22.3159 -22.3140
   -14.5380 -14.4248 -14.4231 -14.4153 -14.3504 -14.3446 -14.3422 -14.2796
    -6.8327  -6.8282  -6.7777  -6.5969  -6.3294  -6.2272  -6.1770  -5.9479
    -5.9462  -5.9439  -5.8907  -5.8843  -5.8576  -5.8217  -5.7955  -5.7921
    -5.7914  -5.7854  -5.7811  -5.7160  -5.6424  -5.6262  -5.5751  -5.5652
    -0.4478  -0.4405  -0.3821   0.1970   0.2163   0.2253   0.2318   0.2532
     0.2786   0.2898   0.2972   0.2991   0.4314   0.4390   0.4411   0.4498
     0.4570   0.4647   0.6119   0.6524   0.6568   0.6687   0.6739   0.7140
     5.7434   5.9124   5.9199   5.9444   6.1095   6.1534   6.1571   6.1755
     6.2214   6.2912   6.3956   6.4018   6.4438   6.4461   6.4668   7.3586
     7.3638   7.3857   7.4171   7.4186   7.4412   7.4443   7.4479   7.4624
     7.4758   7.5418   7.5628   7.7098   7.7635   7.7946   7.8410   7.8472
     7.8534   7.8863   7.9111   7.9408   8.0049   8.1834   8.3089   8.3151
     8.3859   8.4147   8.4782   8.5101   8.5566   8.5627   8.6455   8.7587
     8.8211   8.8510   9.0351   9.0473   9.1928   9.2070   9.2104   9.2810
     9.3296   9.3448   9.3544   9.3725   9.3921   9.4890   9.5067   9.7441
     9.8703   9.9301  10.0106  10.0360  10.0621  10.1010  10.1696  10.2195
    12.1288  12.2728  12.3715  12.3976  12.4823  12.5172  13.7483  13.7801
    13.7967  13.8088  13.8206  13.8536  13.8564  13.8631  13.8688  13.8835
    13.8849  13.8931  14.1924  14.2223  14.2335  14.4243  14.4409  14.4470
    14.4498  14.4544  14.4738  14.5178  14.5545  14.9791  15.1463  15.1755
    15.2926  15.3099  16.1340  16.2292  16.4212  16.7173  16.9368  17.1538

          k = 0.0000 0.1250 0.1236 ( 41987 PWs)   bands (ev):

   -45.9799 -45.9791 -45.9789 -45.9789 -45.9781 -45.9780 -45.9779 -45.9770
   -22.4268 -22.4234 -22.4231 -22.4206 -22.3811 -22.3789 -22.3787 -22.3767
   -22.3734 -22.3714 -22.3703 -22.3700 -22.3683 -22.3678 -22.3677 -22.3656
   -22.3201 -22.3182 -22.3179 -22.3178 -22.3161 -22.3160 -22.3158 -22.3141
   -14.5338 -14.4292 -14.4204 -14.4126 -14.3532 -14.3473 -14.3398 -14.2820
    -6.8140  -6.8090  -6.7653  -6.5948  -6.3105  -6.2611  -6.2196  -5.9500
    -5.9326  -5.9269  -5.8887  -5.8820  -5.8562  -5.8231  -5.8058  -5.7895
    -5.7832  -5.7827  -5.7796  -5.7324  -5.6464  -5.6326  -5.5839  -5.5737
    -0.4270  -0.4236  -0.3392   0.1870   0.1979   0.2131   0.2409   0.2556
     0.2771   0.2956   0.3073   0.3225   0.4132   0.4243   0.4298   0.4434
     0.4642   0.4893   0.6065   0.6094   0.6488   0.6490   0.6578   0.6997
     5.7721   5.9206   5.9459   5.9796   6.1516   6.1932   6.2141   6.2141
     6.2435   6.2829   6.4265   6.4363   6.4467   6.4719   6.4723   7.3606
     7.3667   7.3798   7.4172   7.4363   7.4463   7.4465   7.4648   7.4649
     7.4965   7.5717   7.5903   7.6700   7.6701   7.7511   7.7610   7.7769
     7.7848   7.8664   7.8860   7.9004   7.9986   8.1962   8.3400   8.3509
     8.3509   8.3683   8.4329   8.5751   8.6556   8.6628   8.7488   8.7576
     8.7954   8.8067   8.9914   9.0389   9.1763   9.2156   9.2226   9.2257
     9.2955   9.3167   9.3247   9.3361   9.3363   9.5032   9.5189   9.6804
     9.8555   9.8931   9.9910  10.0132  10.0159  10.0530  10.1716  10.2204
    12.1338  12.2670  12.4376  12.4587  12.5423  12.5761  13.7497  13.7778
    13.7991  13.8013  13.8109  13.8166  13.8345  13.8426  13.8433  13.8548
    13.8654  13.9044  14.1639  14.2070  14.2308  14.4207  14.4353  14.4396
    14.4468  14.4515  14.5186  14.6009  14.6484  15.1015  15.1709  15.2212
    15.3063  15.3667  16.1792  16.2692  16.3682  16.7324  17.0170  17.0687

          k = 0.0000 0.1250 0.2473 ( 41972 PWs)   bands (ev):

   -45.9798 -45.9792 -45.9788 -45.9788 -45.9782 -45.9781 -45.9778 -45.9771
   -22.4215 -22.4182 -22.4180 -22.4155 -22.3865 -22.3841 -22.3840 -22.3819
   -22.3730 -22.3710 -22.3706 -22.3697 -22.3687 -22.3680 -22.3676 -22.3658
   -22.3198 -22.3184 -22.3176 -22.3176 -22.3163 -22.3163 -22.3156 -22.3143
   -14.5218 -14.4418 -14.4126 -14.4051 -14.3612 -14.3551 -14.3331 -14.2888
    -6.7596  -6.7532  -6.7309  -6.5936  -6.3456  -6.3171  -6.2560  -5.9502
    -5.9098  -5.8956  -5.8838  -5.8761  -5.8723  -5.8524  -5.8272  -5.7767
    -5.7722  -5.7632  -5.7600  -5.7577  -5.6605  -5.6507  -5.6088  -5.5978
    -0.3724  -0.3543  -0.2305   0.1047   0.1207   0.2600   0.2639   0.2644
     0.2876   0.3122   0.3400   0.3741   0.3745   0.4043   0.4046   0.4253
     0.4808   0.4848   0.5193   0.5936   0.6017   0.6124   0.6260   0.6585
     5.8339   5.9218   6.0204   6.0597   6.1945   6.2607   6.2759   6.3007
     6.3888   6.4318   6.4483   6.4579   6.5360   6.5721   6.5880   7.3424
     7.3429   7.3537   7.3659   7.3745   7.4129   7.4237   7.4555   7.4916
     7.5139   7.5267   7.5312   7.5505   7.5918   7.6576   7.6675   7.7515
     7.7527   7.8247   7.8672   7.9770   8.0119   8.0787   8.2357   8.2528
     8.4312   8.4628   8.4854   8.6119   8.6299   8.6917   8.7171   8.7193
     8.8809   8.9880   9.0170   9.0582   9.0851   9.0996   9.2090   9.2149
     9.2333   9.2418   9.2710   9.2850   9.2857   9.4842   9.5442   9.5544
     9.8132   9.8284   9.8903   9.9265   9.9279   9.9412  10.1775  10.2173
    12.1486  12.2507  12.6193  12.6288  12.7080  12.7384  13.6519  13.6670
    13.6875  13.7015  13.7536  13.7783  13.8112  13.8168  13.8501  13.8771
    13.9049  13.9606  14.0890  14.1373  14.2552  14.3422  14.3684  14.4212
    14.4415  14.4461  14.7030  14.8005  14.9166  15.1535  15.2907  15.4289
    15.4325  15.5826  16.2123  16.3244  16.3999  16.7219  16.8363  17.2762

          k = 0.0000 0.1250 0.3709 ( 41963 PWs)   bands (ev):

   -45.9797 -45.9793 -45.9787 -45.9786 -45.9783 -45.9783 -45.9776 -45.9773
   -22.4135 -22.4104 -22.4102 -22.4078 -22.3945 -22.3920 -22.3918 -22.3896
   -22.3725 -22.3712 -22.3705 -22.3693 -22.3692 -22.3684 -22.3672 -22.3662
   -22.3195 -22.3187 -22.3173 -22.3173 -22.3166 -22.3166 -22.3153 -22.3146
   -14.5037 -14.4604 -14.4010 -14.3938 -14.3731 -14.3667 -14.3230 -14.2991
    -6.6836  -6.6752  -6.6663  -6.6052  -6.4548  -6.4357  -6.1727  -5.9661
    -5.9350  -5.8899  -5.8793  -5.8748  -5.8697  -5.8465  -5.8393  -5.8306
    -5.7461  -5.7382  -5.7270  -5.7206  -5.6848  -5.6773  -5.6454  -5.6340
    -0.2752  -0.2490  -0.0754  -0.0146   0.0077   0.2796   0.2955   0.3043
     0.3109   0.3322   0.3367   0.3375   0.3695   0.3751   0.3963   0.3987
     0.4433   0.5128   0.5161   0.5456   0.5464   0.5884   0.5925   0.5961
     5.8855   5.9208   6.0876   6.1357   6.1673   6.2291   6.4508   6.4566
     6.4731   6.4772   6.6547   6.7014   6.7425   6.7678   6.8469   7.0115
     7.0387   7.2381   7.2685   7.2928   7.3056   7.3735   7.3851   7.3955
     7.4057   7.5186   7.5748   7.6179   7.6252   7.7235   7.7304   7.7429
     7.7581   7.7787   7.7884   7.8086   7.9852   8.1100   8.1100   8.3057
     8.4390   8.5466   8.5657   8.5735   8.6185   8.7182   8.7612   8.7873
     8.8178   8.8835   8.9471   8.9619   9.0345   9.0840   9.1118   9.1492
     9.1717   9.2225   9.3612   9.3903   9.4012   9.4052   9.6065   9.6098
     9.7185   9.7504   9.7527   9.7580   9.8117   9.8120  10.1866  10.2087
    12.1713  12.2266  12.8746  12.8766  12.9452  12.9706  13.4259  13.4398
    13.4726  13.4884  13.7593  13.7722  13.8250  13.8429  13.8439  13.9083
    13.9936  13.9990  14.0468  14.0484  14.2332  14.2655  14.2922  14.3819
    14.4433  14.4452  14.8956  15.0122  15.1133  15.2501  15.2740  15.7467
    15.8660  15.9216  15.9635  16.5012  16.5810  16.5988  16.6386  16.8264

          k = 0.0000 0.1250-0.4946 ( 41936 PWs)   bands (ev):

   -45.9795 -45.9795 -45.9785 -45.9785 -45.9784 -45.9784 -45.9774 -45.9774
   -22.4040 -22.4040 -22.4012 -22.4012 -22.4010 -22.4010 -22.3987 -22.3987
   -22.3718 -22.3718 -22.3699 -22.3698 -22.3689 -22.3688 -22.3667 -22.3667
   -22.3191 -22.3191 -22.3170 -22.3170 -22.3169 -22.3169 -22.3150 -22.3150
   -14.4822 -14.4821 -14.3871 -14.3870 -14.3803 -14.3802 -14.3111 -14.3110
    -6.6371  -6.6370  -6.5697  -6.5695  -6.5568  -6.5566  -6.0715  -6.0713
    -5.8955  -5.8954  -5.8799  -5.8798  -5.8675  -5.8674  -5.8396  -5.8394
    -5.7153  -5.7152  -5.7082  -5.7080  -5.6872  -5.6871  -5.6772  -5.6771
    -0.1491  -0.1491  -0.1223  -0.1222   0.1097   0.1098   0.3041   0.3042
     0.3313   0.3314   0.3420   0.3420   0.3678   0.3678   0.4207   0.4208
     0.4690   0.4691   0.5208   0.5209   0.5538   0.5539   0.5698   0.5698
     5.9117   5.9118   6.1335   6.1336   6.1894   6.1895   6.4537   6.4538
     6.7173   6.7175   6.7318   6.7319   6.9758   6.9760   7.0040   7.0041
     7.0062   7.0064   7.0271   7.0272   7.2049   7.2050   7.3826   7.3827
     7.3960   7.3962   7.6701   7.6702   7.6790   7.6790   7.6981   7.6981
     7.7246   7.7247   7.8971   7.8972   7.9466   7.9468   8.2676   8.2677
     8.4105   8.4106   8.6603   8.6603   8.7380   8.7381   8.7845   8.7845
     8.8330   8.8330   8.9205   8.9207   8.9840   8.9841   9.0701   9.0701
     9.0886   9.0886   9.5406   9.5406   9.5678   9.5679   9.6179   9.6179
     9.6352   9.6352   9.6784   9.6785   9.6813   9.6814  10.1975  10.1977
    12.1986  12.1987  13.1542  13.1543  13.1641  13.1642  13.2131  13.2132
    13.2333  13.2333  13.7658  13.7658  13.8341  13.8342  13.9058  13.9058
    13.9664  13.9664  14.1132  14.1132  14.1528  14.1529  14.3365  14.3366
    14.4443  14.4443  15.0336  15.0336  15.1644  15.1644  15.6402  15.6403
    16.1196  16.1198  16.2961  16.2963  16.3519  16.3521  16.9231  16.9677

          k = 0.0000 0.2500 0.0000 ( 41967 PWs)   bands (ev):

   -45.9799 -45.9791 -45.9789 -45.9788 -45.9782 -45.9780 -45.9779 -45.9771
   -22.4283 -22.4256 -22.4246 -22.4227 -22.3789 -22.3773 -22.3766 -22.3751
   -22.3731 -22.3705 -22.3698 -22.3679 -22.3655 -22.3624 -22.3621 -22.3597
   -22.3262 -22.3240 -22.3238 -22.3219 -22.3177 -22.3161 -22.3157 -22.3143
   -14.5248 -14.4369 -14.4162 -14.4068 -14.3593 -14.3509 -14.3371 -14.2873
    -6.7943  -6.7754  -6.7218  -6.6074  -6.3962  -6.3062  -6.1184  -5.9389
    -5.9275  -5.9180  -5.8951  -5.8707  -5.8489  -5.8120  -5.8025  -5.8003
    -5.7825  -5.7731  -5.7590  -5.7423  -5.7084  -5.6467  -5.6265  -5.5905
    -0.3760  -0.3505  -0.2969   0.1168   0.1720   0.2379   0.2505   0.2725
     0.2965   0.3085   0.3415   0.3441   0.4028   0.4114   0.4192   0.4364
     0.4652   0.4727   0.4831   0.6119   0.6288   0.6307   0.6311   0.6607
     5.8081   5.9115   5.9992   6.0095   6.1366   6.1974   6.2055   6.2999
     6.3649   6.3962   6.4030   6.4653   6.5553   6.5949   6.6038   7.2765
     7.3612   7.4149   7.4359   7.4400   7.4477   7.4487   7.4758   7.4942
     7.5269   7.5460   7.5466   7.5549   7.5606   7.6115   7.6566   7.7470
     7.7852   7.8539   7.8771   7.9907   8.0273   8.0846   8.1273   8.4064
     8.4126   8.4275   8.5113   8.5351   8.6299   8.6465   8.6649   8.7529
     8.8130   8.9729   9.0202   9.0870   9.1394   9.1527   9.1684   9.2681
     9.2710   9.3207   9.3585   9.3745   9.4040   9.4119   9.4430   9.5335
     9.7599   9.8671   9.9390   9.9476  10.0436  10.0772  10.0936  10.1080
    12.3358  12.4110  12.4666  12.4832  12.5230  12.6279  13.5850  13.6162
    13.6220  13.6419  13.8244  13.8402  13.8672  13.8702  13.8815  13.8816
    13.9178  13.9319  14.1106  14.1418  14.2615  14.3639  14.3697  14.4454
    14.4495  14.4570  14.6527  14.6966  14.8239  14.9971  15.1542  15.3739
    15.5158  15.6444  16.0148  16.4059  16.5673  16.7703  16.9129  17.1421

          k = 0.0000 0.2500 0.1236 ( 41981 PWs)   bands (ev):

   -45.9798 -45.9791 -45.9790 -45.9787 -45.9782 -45.9780 -45.9779 -45.9771
   -22.4264 -22.4238 -22.4228 -22.4209 -22.3808 -22.3792 -22.3785 -22.3770
   -22.3730 -22.3704 -22.3700 -22.3680 -22.3654 -22.3625 -22.3620 -22.3598
   -22.3261 -22.3241 -22.3237 -22.3219 -22.3176 -22.3161 -22.3158 -22.3143
   -14.5208 -14.4340 -14.4205 -14.4042 -14.3623 -14.3485 -14.3398 -14.2897
    -6.7768  -6.7561  -6.7110  -6.6027  -6.3771  -6.3246  -6.1638  -5.9420
    -5.9197  -5.9060  -5.8938  -5.8681  -5.8478  -5.8381  -5.8143  -5.7949
    -5.7752  -5.7659  -5.7572  -5.7548  -5.7006  -5.6510  -5.6344  -5.5972
    -0.3590  -0.3528  -0.2370   0.1338   0.1684   0.2042   0.2459   0.2500
     0.2838   0.3145   0.3577   0.3697   0.3736   0.3939   0.4070   0.4434
     0.4662   0.4779   0.5140   0.5913   0.5967   0.6233   0.6237   0.6541
     5.8399   5.9451   5.9995   6.0512   6.1911   6.1957   6.2464   6.3536
     6.3881   6.4269   6.4349   6.4551   6.5562   6.6066   6.6172   7.2939
     7.3534   7.4124   7.4194   7.4402   7.4552   7.4554   7.4714   7.4929
     7.4943   7.5088   7.5745   7.5748   7.5870   7.6199   7.6324   7.7493
     7.7752   7.8082   7.8592   7.8687   7.8955   8.0966   8.1474   8.3696
     8.4297   8.4492   8.4542   8.5814   8.6646   8.6869   8.7092   8.7626
     8.7842   9.0059   9.0141   9.0982   9.1196   9.1332   9.1677   9.2390
     9.2895   9.3239   9.3506   9.3645   9.3716   9.3746   9.4161   9.4847
     9.7426   9.8290   9.9034   9.9256  10.0183  10.0297  10.0937  10.1143
    12.3517  12.4647  12.4782  12.5271  12.5698  12.6829  13.5867  13.6195
    13.6210  13.6685  13.7879  13.8183  13.8287  13.8321  13.8718  13.8832
    13.8994  13.9145  14.0767  14.1501  14.2348  14.3315  14.3599  14.4180
    14.5129  14.5258  14.6524  14.7921  14.8753  15.1189  15.1495  15.4435
    15.5883  15.6434  16.0595  16.4321  16.5137  16.8154  16.9481  17.1886

          k = 0.0000 0.2500 0.2473 ( 41974 PWs)   bands (ev):

   -45.9797 -45.9791 -45.9790 -45.9786 -45.9783 -45.9780 -45.9779 -45.9772
   -22.4211 -22.4186 -22.4177 -22.4158 -22.3862 -22.3844 -22.3837 -22.3822
   -22.3726 -22.3703 -22.3701 -22.3683 -22.3651 -22.3628 -22.3617 -22.3601
   -22.3259 -22.3244 -22.3235 -22.3221 -22.3174 -22.3160 -22.3159 -22.3145
   -14.5092 -14.4325 -14.4257 -14.3968 -14.3708 -14.3474 -14.3417 -14.2967
    -6.7266  -6.7003  -6.6817  -6.5933  -6.3788  -6.3222  -6.2634  -5.9464
    -5.9193  -5.9177  -5.8911  -5.8739  -5.8612  -5.8440  -5.8235  -5.7945
    -5.7794  -5.7589  -5.7453  -5.7428  -5.6980  -5.6634  -5.6561  -5.6162
    -0.3318  -0.2864  -0.1160   0.1129   0.1643   0.1713   0.1832   0.2544
     0.2762   0.3042   0.3315   0.3702   0.3756   0.3984   0.4286   0.4476
     0.4635   0.5055   0.5080   0.5332   0.5495   0.6011   0.6013   0.6337
     5.9082   5.9998   6.0185   6.1521   6.1744   6.3650   6.3683   6.4271
     6.4595   6.5035   6.5256   6.5373   6.5587   6.6403   6.6979   7.2316
     7.3296   7.3439   7.3619   7.3914   7.4063   7.4465   7.4498   7.4817
     7.4830   7.4887   7.5369   7.5907   7.6113   7.6588   7.6814   7.6876
     7.7130   7.7539   7.7540   7.8314   7.8421   8.1344   8.1586   8.2038
     8.2668   8.4092   8.5314   8.5435   8.5947   8.6332   8.7181   8.9702
     8.9812   8.9842   9.0100   9.0301   9.1366   9.1532   9.2156   9.2175
     9.2178   9.2807   9.2967   9.3263   9.3338   9.3430   9.4099   9.4246
     9.6940   9.7600   9.7833   9.8809   9.9136   9.9394  10.0944  10.1133
    12.3719  12.4639  12.6363  12.6943  12.7055  12.8346  13.5916  13.6063
    13.6400  13.6400  13.6698  13.6970  13.7428  13.7458  13.8401  13.8890
    13.9052  13.9510  13.9874  14.1644  14.1739  14.2437  14.3275  14.3496
    14.5925  14.6512  14.7059  15.0294  15.0775  15.1326  15.4468  15.6328
    15.6387  15.8014  16.2041  16.3562  16.5220  16.8455  16.9587  17.0490

          k = 0.0000 0.2500 0.3709 ( 41966 PWs)   bands (ev):

   -45.9796 -45.9792 -45.9788 -45.9785 -45.9785 -45.9781 -45.9777 -45.9774
   -22.4131 -22.4108 -22.4099 -22.4081 -22.3942 -22.3923 -22.3915 -22.3899
   -22.3721 -22.3708 -22.3697 -22.3687 -22.3646 -22.3633 -22.3613 -22.3604
   -22.3255 -22.3247 -22.3232 -22.3225 -22.3171 -22.3163 -22.3156 -22.3148
   -14.4919 -14.4503 -14.4133 -14.3856 -14.3836 -14.3589 -14.3315 -14.3071
    -6.6498  -6.6432  -6.6133  -6.5919  -6.4611  -6.3825  -6.2376  -6.0227
    -5.9391  -5.9075  -5.8905  -5.8612  -5.8545  -5.8533  -5.8376  -5.8189
    -5.7568  -5.7393  -5.7248  -5.7150  -5.7097  -5.6857  -5.6817  -5.6450
    -0.2569  -0.1853  -0.0127   0.0376   0.0621   0.1717   0.2436   0.2592
     0.2702   0.2849   0.3359   0.3386   0.3575   0.3688   0.4202   0.4486
     0.4525   0.4902   0.4941   0.5403   0.5623   0.5663   0.5685   0.5984
     5.9632   5.9982   6.0821   6.1514   6.2563   6.3861   6.5623   6.5632
     6.5644   6.5834   6.6210   6.7205   6.7476   6.8430   6.8665   6.9865
     7.0998   7.2018   7.2321   7.2378   7.3627   7.3997   7.4106   7.4208
     7.4356   7.4612   7.4818   7.6154   7.6278   7.6559   7.7285   7.7556
     7.7571   7.7899   7.7936   7.8269   7.8299   7.8679   8.1184   8.2031
     8.2132   8.2853   8.4479   8.4910   8.6397   8.6527   8.8036   8.8363
     8.9711   9.0266   9.0368   9.0416   9.1025   9.1374   9.1599   9.2003
     9.2181   9.2462   9.3112   9.3358   9.3666   9.4698   9.4703   9.5173
     9.6191   9.6236   9.6904   9.7463   9.7935   9.8000  10.0967  10.1075
    12.3938  12.4429  12.8881  12.9140  12.9331  13.0521  13.4208  13.4444
    13.4591  13.5414  13.5990  13.6203  13.6848  13.8529  13.8559  13.8721
    13.8909  13.9265  14.0310  14.0741  14.1209  14.2100  14.2381  14.2990
    14.6277  14.6481  14.8908  15.0947  15.2944  15.4130  15.5915  15.8907
    15.9283  16.1045  16.1382  16.4603  16.6351  16.6920  16.7038  17.1489

          k = 0.0000 0.2500-0.4946 ( 41964 PWs)   bands (ev):

   -45.9794 -45.9794 -45.9786 -45.9786 -45.9783 -45.9783 -45.9776 -45.9776
   -22.4037 -22.4037 -22.4016 -22.4015 -22.4007 -22.4007 -22.3990 -22.3990
   -22.3715 -22.3715 -22.3692 -22.3692 -22.3640 -22.3639 -22.3609 -22.3609
   -22.3251 -22.3251 -22.3228 -22.3228 -22.3167 -22.3167 -22.3152 -22.3152
   -14.4713 -14.4712 -14.3985 -14.3984 -14.3723 -14.3722 -14.3194 -14.3193
    -6.6092  -6.6090  -6.5568  -6.5567  -6.5037  -6.5036  -6.1336  -6.1335
    -5.9095  -5.9094  -5.8960  -5.8960  -5.8492  -5.8491  -5.8293  -5.8292
    -5.7316  -5.7314  -5.7152  -5.7151  -5.7034  -5.7032  -5.6797  -5.6796
    -0.1444  -0.1443  -0.0633  -0.0632   0.1978   0.1979   0.2058   0.2058
     0.2984   0.2985   0.3076   0.3076   0.3521   0.3521   0.3885   0.3886
     0.5102   0.5102   0.5308   0.5309   0.5491   0.5491   0.5623   0.5623
     5.9894   5.9896   6.1228   6.1229   6.3321   6.3322   6.5657   6.5658
     6.7614   6.7614   6.8138   6.8139   6.9260   6.9262   6.9663   6.9664
     7.0150   7.0151   7.1116   7.1117   7.1677   7.1679   7.3975   7.3977
     7.4723   7.4724   7.5154   7.5155   7.6964   7.6965   7.7201   7.7202
     7.7661   7.7661   7.8082   7.8082   7.9506   7.9507   8.0144   8.0145
     8.3089   8.3090   8.3797   8.3797   8.7251   8.7252   8.8117   8.8117
     8.9140   8.9140   9.0709   9.0710   9.1213   9.1213   9.1325   9.1325
     9.1577   9.1578   9.4505   9.4506   9.5445   9.5445   9.5532   9.5533
     9.5961   9.5961   9.6096   9.6097   9.6542   9.6542  10.1012  10.1013
    12.4183  12.4183  13.1654  13.1655  13.1716  13.1717  13.2021  13.2021
    13.2993  13.2994  13.6080  13.6081  13.7639  13.7639  13.8736  13.8737
    13.9844  13.9844  13.9894  13.9895  14.1307  14.1307  14.2536  14.2537
    14.6416  14.6417  15.0205  15.0205  15.4885  15.4885  15.7780  15.7781
    16.2746  16.2748  16.3432  16.3434  16.5672  16.5674  16.7987  16.7990

          k = 0.0000 0.3750 0.0000 ( 41969 PWs)   bands (ev):

   -45.9797 -45.9793 -45.9788 -45.9786 -45.9784 -45.9782 -45.9777 -45.9773
   -22.4277 -22.4262 -22.4242 -22.4231 -22.3785 -22.3777 -22.3763 -22.3755
   -22.3725 -22.3711 -22.3694 -22.3683 -22.3566 -22.3536 -22.3533 -22.3511
   -22.3353 -22.3329 -22.3326 -22.3306 -22.3173 -22.3165 -22.3154 -22.3146
   -14.5050 -14.4574 -14.4033 -14.3942 -14.3725 -14.3639 -14.3257 -14.2988
    -6.7397  -6.6942  -6.6354  -6.6350  -6.4903  -6.4130  -6.0292  -5.9251
    -5.9022  -5.8989  -5.8782  -5.8512  -5.8371  -5.8220  -5.8120  -5.8017
    -5.8011  -5.7799  -5.7794  -5.7452  -5.7199  -5.6972  -5.6768  -5.6287
    -0.2669  -0.2255  -0.1508  -0.0006   0.0526   0.2626   0.2725   0.2807
     0.3238   0.3370   0.3455   0.3629   0.3663   0.3902   0.4062   0.4102
     0.4107   0.5078   0.5150   0.5293   0.5657   0.5830   0.5934   0.5940
     5.8641   5.9075   6.0574   6.0733   6.1141   6.1648   6.3930   6.3974
     6.4015   6.5018   6.6594   6.7296   6.7619   6.8371   6.8612   6.9711
     7.1030   7.2558   7.2958   7.3621   7.3738   7.4341   7.4347   7.4401
     7.4580   7.4761   7.6023   7.6192   7.6243   7.6719   7.6860   7.7164
     7.7637   7.7873   7.7985   7.8134   7.9404   7.9451   8.1526   8.4488
     8.4808   8.5520   8.5891   8.5952   8.6022   8.6305   8.6671   8.7681
     8.7869   8.8489   8.9288   9.0023   9.1153   9.1649   9.1787   9.1894
     9.2673   9.2717   9.3481   9.3659   9.4774   9.4999   9.5026   9.5630
     9.6233   9.7480   9.7923   9.8095   9.9128   9.9574  10.0552  10.0840
    12.3915  12.4438  12.6888  12.7547  12.7715  12.8337  13.3335  13.3537
    13.3806  13.3883  13.8546  13.8583  13.8724  13.8765  13.8786  13.8815
    14.0077  14.0108  14.0122  14.0383  14.2467  14.2540  14.3035  14.4032
    14.4564  14.4612  14.8612  14.8614  14.9984  15.1061  15.1847  15.7234
    15.8122  15.8557  16.0770  16.5596  16.7025  16.7310  16.7702  16.8125

          k = 0.0000 0.3750 0.1236 ( 41916 PWs)   bands (ev):

   -45.9796 -45.9792 -45.9788 -45.9786 -45.9784 -45.9782 -45.9777 -45.9773
   -22.4258 -22.4244 -22.4224 -22.4213 -22.3804 -22.3795 -22.3781 -22.3773
   -22.3724 -22.3710 -22.3695 -22.3685 -22.3564 -22.3537 -22.3532 -22.3512
   -22.3352 -22.3330 -22.3325 -22.3307 -22.3173 -22.3164 -22.3155 -22.3147
   -14.5012 -14.4542 -14.4073 -14.3916 -14.3758 -14.3614 -14.3284 -14.3013
    -6.7245  -6.6750  -6.6277  -6.6266  -6.4711  -6.4188  -6.0802  -5.9282
    -5.9021  -5.8973  -5.8894  -5.8726  -5.8480  -5.8225  -5.8125  -5.8073
    -5.7841  -5.7738  -5.7683  -5.7403  -5.7180  -5.7035  -5.6782  -5.6327
    -0.2472  -0.2452  -0.0859   0.0178   0.0403   0.2334   0.2736   0.2957
     0.3060   0.3203   0.3209   0.3432   0.3525   0.3744   0.4129   0.4269
     0.4374   0.5009   0.5073   0.5382   0.5711   0.5812   0.5859   0.5863
     5.8980   5.9413   6.0722   6.1066   6.1600   6.1708   6.4281   6.4296
     6.4326   6.5349   6.6653   6.7158   6.7640   6.8557   6.8588   6.9982
     7.0856   7.2553   7.2683   7.3470   7.3832   7.4241   7.4398   7.4444
     7.4813   7.4929   7.5709   7.6007   7.6406   7.6839   7.6853   7.7265
     7.7443   7.7595   7.8080   7.8184   7.8714   7.9517   8.0128   8.3838
     8.4095   8.4999   8.5876   8.6002   8.6063   8.6113   8.7257   8.8042
     8.8629   8.9109   8.9459   8.9809   9.1190   9.1572   9.1794   9.2168
     9.2326   9.2396   9.3371   9.3902   9.4669   9.4670   9.4689   9.5477
     9.6023   9.7171   9.7512   9.8061   9.9040   9.9545  10.0268  10.0559
    12.4517  12.5050  12.6961  12.7673  12.7847  12.8819  13.3359  13.3627
    13.3777  13.4212  13.8076  13.8211  13.8286  13.8622  13.8881  13.8917
    13.9649  13.9672  14.0068  14.0463  14.2098  14.2451  14.2765  14.3756
    14.5300  14.5314  14.8600  14.9704  15.1019  15.1192  15.2269  15.7837
    15.8559  15.9279  16.0814  16.5980  16.7139  16.7582  16.7722  16.8461

          k = 0.0000 0.3750 0.2473 ( 41952 PWs)   bands (ev):

   -45.9795 -45.9791 -45.9789 -45.9785 -45.9785 -45.9781 -45.9778 -45.9774
   -22.4205 -22.4192 -22.4172 -22.4162 -22.3858 -22.3848 -22.3834 -22.3825
   -22.3720 -22.3707 -22.3698 -22.3687 -22.3561 -22.3540 -22.3530 -22.3514
   -22.3349 -22.3332 -22.3323 -22.3309 -22.3171 -22.3162 -22.3157 -22.3149
   -14.4904 -14.4452 -14.4185 -14.3851 -14.3843 -14.3545 -14.3359 -14.3085
    -6.6812  -6.6191  -6.6080  -6.6055  -6.4402  -6.4156  -6.1826  -5.9944
    -5.9355  -5.9091  -5.9031  -5.8463  -5.8398  -5.8396  -5.8220  -5.7942
    -5.7918  -5.7647  -5.7467  -5.7267  -5.7193  -5.7128  -5.6823  -5.6442
    -0.2442  -0.1829   0.0269   0.0356   0.0709   0.1350   0.2342   0.2495
     0.2632   0.2829   0.3278   0.3392   0.3609   0.3688   0.4323   0.4454
     0.4649   0.4816   0.4859   0.5339   0.5617   0.5646   0.5768   0.5904
     5.9701   6.0140   6.0693   6.1475   6.2374   6.3319   6.5351   6.5400
     6.5444   6.6280   6.6765   6.6875   6.7700   6.8559   6.9215   7.0232
     7.0722   7.1892   7.2536   7.2592   7.3894   7.4205   7.4283   7.4503
     7.4527   7.5273   7.5446   7.5957   7.6049   7.6865   7.7011   7.7118
     7.7475   7.7536   7.7711   7.7785   7.7907   7.8959   7.9883   8.1937
     8.2544   8.3007   8.4427   8.4731   8.6385   8.6693   8.8408   8.8551
     8.9871   8.9879   9.0037   9.1236   9.1311   9.1418   9.1455   9.1610
     9.2219   9.2403   9.2593   9.3787   9.4493   9.4516   9.4726   9.5087
     9.5444   9.6394   9.6756   9.7903   9.8620   9.9395   9.9475   9.9906
    12.5995  12.6737  12.7345  12.7553  12.8772  13.0153  13.3430  13.3683
    13.3951  13.5126  13.6664  13.6743  13.6869  13.8365  13.8585  13.8827
    13.9103  13.9360  13.9913  14.0691  14.1088  14.2052  14.2193  14.3027
    14.6685  14.7051  14.8552  15.0869  15.2534  15.3817  15.4448  15.9517
    15.9994  16.0796  16.1416  16.5984  16.7091  16.7550  16.8236  17.0672

          k = 0.0000 0.3750 0.3709 ( 41976 PWs)   bands (ev):

   -45.9794 -45.9790 -45.9790 -45.9786 -45.9783 -45.9780 -45.9779 -45.9776
   -22.4126 -22.4113 -22.4095 -22.4085 -22.3938 -22.3928 -22.3912 -22.3903
   -22.3715 -22.3703 -22.3702 -22.3692 -22.3556 -22.3545 -22.3526 -22.3518
   -22.3345 -22.3336 -22.3320 -22.3312 -22.3167 -22.3160 -22.3159 -22.3152
   -14.4741 -14.4352 -14.4316 -14.3991 -14.3733 -14.3471 -14.3440 -14.3191
    -6.6178  -6.5862  -6.5838  -6.5322  -6.4834  -6.3299  -6.3019  -6.1071
    -5.9383  -5.9192  -5.9078  -5.8897  -5.8291  -5.8233  -5.8179  -5.8009
    -5.7760  -5.7577  -5.7452  -5.7372  -5.7067  -5.7052  -5.6887  -5.6621
    -0.1953  -0.0878   0.0121   0.0371   0.1460   0.1472   0.1525   0.1777
     0.2620   0.2733   0.3003   0.3025   0.3551   0.3878   0.4448   0.4486
     0.4531   0.4617   0.5081   0.5322   0.5333   0.5551   0.5695   0.5860
     6.0265   6.0643   6.0737   6.1304   6.3983   6.5706   6.6154   6.7011
     6.7265   6.7356   6.7558   6.7640   6.7780   6.8940   6.9211   7.0612
     7.0676   7.0904   7.1756   7.1828   7.2223   7.3545   7.3567   7.3716
     7.4396   7.5301   7.5552   7.5824   7.5870   7.6280   7.6945   7.7296
     7.7373   7.7472   7.7581   7.7921   7.8179   7.9818   7.9901   7.9961
     8.0589   8.1462   8.2537   8.3214   8.6842   8.6881   8.7442   8.9112
     8.9359   9.0664   9.1073   9.1230   9.1286   9.1529   9.2153   9.2204
     9.2644   9.2887   9.3013   9.3240   9.4342   9.4627   9.4640   9.4874
     9.5481   9.5547   9.6525   9.7365   9.7479   9.7887   9.9404   9.9497
    12.6849  12.7372  12.9135  12.9151  13.0330  13.2077  13.3419  13.3547
    13.4521  13.4629  13.4635  13.4850  13.6465  13.6485  13.7143  13.9098
    13.9548  13.9656  13.9676  14.0061  14.1039  14.1129  14.1768  14.2099
    14.7696  14.8438  14.8762  15.0542  15.6005  15.6691  15.8872  16.0319
    16.2019  16.2562  16.3440  16.4806  16.6952  16.8340  16.8506  16.8807

          k = 0.0000 0.3750-0.4946 ( 41966 PWs)   bands (ev):

   -45.9792 -45.9792 -45.9788 -45.9788 -45.9781 -45.9781 -45.9777 -45.9777
   -22.4032 -22.4032 -22.4021 -22.4020 -22.4004 -22.4003 -22.3994 -22.3994
   -22.3710 -22.3709 -22.3697 -22.3697 -22.3551 -22.3551 -22.3522 -22.3522
   -22.3341 -22.3341 -22.3316 -22.3316 -22.3164 -22.3164 -22.3156 -22.3155
   -14.4548 -14.4547 -14.4154 -14.4153 -14.3603 -14.3602 -14.3316 -14.3316
    -6.5756  -6.5755  -6.5468  -6.5467  -6.4228  -6.4226  -6.2232  -6.2230
    -5.9242  -5.9241  -5.9159  -5.9158  -5.8217  -5.8216  -5.8103  -5.8101
    -5.7575  -5.7574  -5.7502  -5.7501  -5.6968  -5.6967  -5.6840  -5.6839
    -0.1053  -0.1053   0.0273   0.0274   0.0781   0.0782   0.2520   0.2520
     0.2752   0.2752   0.2800   0.2800   0.3206   0.3206   0.4201   0.4201
     0.4971   0.4971   0.5151   0.5151   0.5455   0.5455   0.5668   0.5668
     6.0534   6.0535   6.1083   6.1084   6.5280   6.5280   6.7817   6.7818
     6.8158   6.8158   6.8430   6.8431   6.9188   6.9189   6.9243   6.9244
     7.0282   7.0284   7.1317   7.1319   7.2806   7.2807   7.2964   7.2964
     7.3318   7.3320   7.5739   7.5740   7.7043   7.7044   7.7101   7.7102
     7.7462   7.7463   7.7683   7.7684   7.8501   7.8501   7.9754   7.9755
     8.1095   8.1095   8.1727   8.1728   8.6889   8.6889   8.7758   8.7758
     9.0392   9.0393   9.1211   9.1212   9.1548   9.1548   9.1673   9.1673
     9.3345   9.3345   9.3726   9.3727   9.4337   9.4339   9.5418   9.5418
     9.5746   9.5746   9.6169   9.6169   9.6658   9.6658   9.9387   9.9389
    12.7146  12.7146  13.1764  13.1765  13.1851  13.1852  13.2388  13.2388
    13.3757  13.3758  13.4289  13.4290  13.5727  13.5728  13.8042  13.8042
    13.9391  13.9392  14.0242  14.0242  14.0949  14.0949  14.1473  14.1473
    14.8198  14.8198  14.9905  14.9905  15.8827  15.8827  16.0180  16.0181
    16.3423  16.3424  16.5069  16.5070  16.5914  16.5916  16.9120  16.9122

          k = 0.0000-0.5000 0.0000 ( 41958 PWs)   bands (ev):

   -45.9795 -45.9795 -45.9786 -45.9786 -45.9784 -45.9784 -45.9775 -45.9775
   -22.4269 -22.4269 -22.4237 -22.4237 -22.3781 -22.3781 -22.3759 -22.3759
   -22.3718 -22.3718 -22.3689 -22.3689 -22.3459 -22.3459 -22.3433 -22.3433
   -22.3430 -22.3430 -22.3408 -22.3408 -22.3169 -22.3169 -22.3150 -22.3150
   -14.4813 -14.4813 -14.3880 -14.3880 -14.3791 -14.3791 -14.3123 -14.3123
    -6.6820  -6.6820  -6.5948  -6.5948  -6.5281  -6.5281  -5.9225  -5.9225
    -5.9121  -5.9121  -5.8630  -5.8630  -5.8315  -5.8315  -5.8301  -5.8301
    -5.7847  -5.7847  -5.7687  -5.7687  -5.7115  -5.7115  -5.6740  -5.6740
    -0.1355  -0.1355  -0.0862  -0.0862   0.0453   0.0453   0.3171   0.3172
     0.3198   0.3198   0.3566   0.3566   0.3712   0.3712   0.4354   0.4355
     0.4885   0.4886   0.4948   0.4948   0.5500   0.5500   0.5540   0.5540
     5.8948   5.8948   6.0885   6.0885   6.1255   6.1255   6.3994   6.3994
     6.6571   6.6572   6.7731   6.7732   6.9864   6.9865   7.0274   7.0274
     7.0478   7.0478   7.1177   7.1178   7.2043   7.2043   7.4311   7.4311
     7.4700   7.4700   7.6828   7.6829   7.7170   7.7170   7.7175   7.7175
     7.7258   7.7258   7.7763   7.7763   7.8273   7.8273   8.3052   8.3052
     8.5227   8.5227   8.6229   8.6229   8.7021   8.7021   8.7475   8.7475
     8.8042   8.8042   8.9655   8.9655   8.9924   8.9924   9.1406   9.1407
     9.1586   9.1586   9.4869   9.4869   9.6135   9.6135   9.6186   9.6186
     9.6334   9.6334   9.7266   9.7266   9.7527   9.7527  10.0692  10.0692
    12.4178  12.4178  13.0223  13.0223  13.0502  13.0503  13.0851  13.0851
    13.1034  13.1034  13.8696  13.8697  13.8754  13.8754  13.9162  13.9162
    13.9426  13.9426  14.1217  14.1217  14.1290  14.1290  14.3533  14.3533
    14.4603  14.4603  14.9602  14.9603  15.0140  15.0141  15.5294  15.5295
    16.1434  16.1434  16.2837  16.2837  16.4857  16.4857  17.0730  17.0751

          k = 0.0000-0.5000 0.1236 ( 41932 PWs)   bands (ev):

   -45.9794 -45.9794 -45.9786 -45.9786 -45.9784 -45.9784 -45.9775 -45.9775
   -22.4251 -22.4251 -22.4219 -22.4219 -22.3800 -22.3800 -22.3777 -22.3777
   -22.3717 -22.3717 -22.3690 -22.3690 -22.3458 -22.3458 -22.3434 -22.3434
   -22.3429 -22.3429 -22.3409 -22.3409 -22.3168 -22.3168 -22.3151 -22.3151
   -14.4778 -14.4778 -14.3916 -14.3916 -14.3766 -14.3766 -14.3149 -14.3149
    -6.6698  -6.6698  -6.5756  -6.5756  -6.5256  -6.5256  -5.9840  -5.9840
    -5.9137  -5.9137  -5.8482  -5.8482  -5.8272  -5.8272  -5.8262  -5.8262
    -5.7803  -5.7803  -5.7723  -5.7723  -5.7096  -5.7096  -5.6751  -5.6751
    -0.1155  -0.1155  -0.1066  -0.1066   0.0984   0.0984   0.2734   0.2735
     0.3097   0.3097   0.3384   0.3384   0.3777   0.3777   0.4118   0.4118
     0.5062   0.5063   0.5066   0.5066   0.5428   0.5428   0.5611   0.5611
     5.9290   5.9290   6.1225   6.1225   6.1422   6.1422   6.4301   6.4301
     6.6898   6.6898   6.7823   6.7824   6.9745   6.9745   7.0284   7.0284
     7.0305   7.0305   7.1355   7.1355   7.1931   7.1932   7.4366   7.4367
     7.4921   7.4921   7.6611   7.6611   7.7055   7.7055   7.7146   7.7146
     7.7289   7.7289   7.7878   7.7879   7.7974   7.7974   8.1912   8.1912
     8.4811   8.4812   8.5463   8.5463   8.7692   8.7692   8.7807   8.7807
     8.8337   8.8337   8.9816   8.9816   9.0128   9.0128   9.1398   9.1398
     9.1536   9.1536   9.4618   9.4618   9.5894   9.5894   9.5962   9.5962
     9.6242   9.6242   9.7194   9.7195   9.7465   9.7465  10.0387  10.0387
    12.4795  12.4795  13.0261  13.0261  13.0672  13.0672  13.0816  13.0816
    13.1437  13.1437  13.8247  13.8247  13.8696  13.8696  13.8815  13.8815
    13.9498  13.9498  14.0800  14.0800  14.1215  14.1215  14.3259  14.3259
    14.5334  14.5334  15.0111  15.0112  15.0776  15.0776  15.5717  15.5717
    16.1908  16.1908  16.3584  16.3585  16.5030  16.5030  17.0690  17.0752

          k = 0.0000-0.5000 0.2473 ( 41938 PWs)   bands (ev):

   -45.9793 -45.9793 -45.9787 -45.9787 -45.9783 -45.9783 -45.9776 -45.9776
   -22.4198 -22.4198 -22.4167 -22.4167 -22.3853 -22.3853 -22.3829 -22.3829
   -22.3714 -22.3714 -22.3693 -22.3693 -22.3456 -22.3455 -22.3437 -22.3436
   -22.3427 -22.3427 -22.3412 -22.3411 -22.3166 -22.3166 -22.3153 -22.3153
   -14.4679 -14.4679 -14.4019 -14.4019 -14.3695 -14.3694 -14.3222 -14.3222
    -6.6366  -6.6366  -6.5220  -6.5220  -6.5198  -6.5198  -6.0875  -6.0875
    -5.9190  -5.9190  -5.8818  -5.8818  -5.8156  -5.8156  -5.7961  -5.7961
    -5.7797  -5.7797  -5.7773  -5.7773  -5.7045  -5.7045  -5.6781  -5.6781
    -0.1183  -0.1183  -0.0578  -0.0578   0.1757   0.1757   0.2041   0.2041
     0.2892   0.2892   0.3056   0.3057   0.3455   0.3455   0.3962   0.3962
     0.5226   0.5226   0.5318   0.5318   0.5374   0.5374   0.5552   0.5552
     6.0016   6.0016   6.1149   6.1149   6.2919   6.2919   6.5433   6.5433
     6.7808   6.7808   6.8057   6.8057   6.9438   6.9438   6.9704   6.9704
     7.0393   7.0393   7.1669   7.1669   7.1965   7.1966   7.4274   7.4274
     7.5063   7.5063   7.5489   7.5489   7.7056   7.7056   7.7331   7.7331
     7.7464   7.7464   7.7649   7.7649   7.8279   7.8280   7.9784   7.9784
     8.3397   8.3397   8.3679   8.3679   8.7322   8.7322   8.8333   8.8333
     9.0286   9.0286   9.0349   9.0349   9.0435   9.0435   9.1201   9.1201
     9.1755   9.1755   9.3937   9.3937   9.4954   9.4954   9.5715   9.5715
     9.6476   9.6476   9.7012   9.7013   9.7312   9.7312   9.9474   9.9474
    12.6481  12.6481  13.0381  13.0381  13.0715  13.0715  13.1233  13.1233
    13.2555  13.2555  13.6801  13.6801  13.7421  13.7421  13.9165  13.9165
    13.9646  13.9646  13.9709  13.9709  14.1001  14.1001  14.2536  14.2536
    14.6958  14.6958  15.0006  15.0006  15.3910  15.3910  15.7155  15.7155
    16.3257  16.3257  16.5207  16.5208  16.5772  16.5773  16.9040  16.9040

          k = 0.0000-0.5000 0.3709 ( 41926 PWs)   bands (ev):

   -45.9792 -45.9792 -45.9788 -45.9788 -45.9781 -45.9781 -45.9778 -45.9778
   -22.4120 -22.4120 -22.4090 -22.4090 -22.3933 -22.3933 -22.3907 -22.3907
   -22.3709 -22.3709 -22.3698 -22.3698 -22.3451 -22.3451 -22.3441 -22.3441
   -22.3423 -22.3423 -22.3415 -22.3415 -22.3163 -22.3163 -22.3156 -22.3156
   -14.4530 -14.4529 -14.4172 -14.4172 -14.3587 -14.3587 -14.3332 -14.3332
    -6.5923  -6.5923  -6.5277  -6.5276  -6.4332  -6.4332  -6.2053  -6.2053
    -5.9265  -5.9265  -5.9127  -5.9127  -5.8016  -5.8016  -5.7851  -5.7851
    -5.7843  -5.7843  -5.7794  -5.7794  -5.6974  -5.6974  -5.6832  -5.6832
    -0.0928  -0.0928   0.0304   0.0304   0.0664   0.0664   0.2485   0.2486
     0.2727   0.2727   0.2797   0.2797   0.3218   0.3218   0.4243   0.4243
     0.4927   0.4927   0.5118   0.5118   0.5548   0.5548   0.5598   0.5598
     6.0588   6.0588   6.1042   6.1042   6.5023   6.5023   6.7623   6.7623
     6.8356   6.8356   6.8706   6.8706   6.9057   6.9057   6.9128   6.9128
     7.0495   7.0495   7.1402   7.1402   7.2914   7.2914   7.3213   7.3213
     7.3317   7.3317   7.6131   7.6131   7.6887   7.6887   7.7197   7.7197
     7.7300   7.7300   7.7486   7.7486   7.8457   7.8457   7.9124   7.9124
     8.1053   8.1053   8.2116   8.2116   8.6965   8.6965   8.7741   8.7741
     9.0939   9.0939   9.1029   9.1029   9.1459   9.1459   9.1811   9.1811
     9.2993   9.2993   9.2996   9.2996   9.3603   9.3603   9.6117   9.6117
     9.6636   9.6636   9.6719   9.6719   9.7159   9.7159   9.8052   9.8052
    12.8765  12.8766  13.0544  13.0545  13.0679  13.0680  13.2285  13.2285
    13.4182  13.4182  13.4632  13.4632  13.5661  13.5661  13.7983  13.7983
    13.9712  13.9713  14.0059  14.0059  14.0674  14.0674  14.1592  14.1592
    14.8423  14.8423  14.9773  14.9773  15.8059  15.8059  15.9784  15.9784
    16.4505  16.4505  16.5318  16.5319  16.6429  16.6429  16.9214  16.9214

          k = 0.0000-0.5000-0.4946 ( 41948 PWs)   bands (ev):

   -45.9790 -45.9790 -45.9790 -45.9790 -45.9779 -45.9779 -45.9779 -45.9779
   -22.4026 -22.4026 -22.4026 -22.4026 -22.3999 -22.3999 -22.3999 -22.3999
   -22.3703 -22.3703 -22.3703 -22.3703 -22.3446 -22.3446 -22.3446 -22.3446
   -22.3419 -22.3419 -22.3419 -22.3419 -22.3160 -22.3160 -22.3159 -22.3159
   -14.4352 -14.4352 -14.4351 -14.4351 -14.3460 -14.3460 -14.3460 -14.3459
    -6.5517  -6.5517  -6.5516  -6.5516  -6.3247  -6.3247  -6.3246  -6.3246
    -5.9279  -5.9279  -5.9278  -5.9278  -5.7893  -5.7893  -5.7892  -5.7892
    -5.7833  -5.7833  -5.7832  -5.7832  -5.6900  -5.6900  -5.6898  -5.6898
    -0.0285  -0.0285  -0.0285  -0.0285   0.1377   0.1377   0.1377   0.1378
     0.2683   0.2684   0.2684   0.2684   0.4301   0.4301   0.4301   0.4301
     0.4581   0.4581   0.4582   0.4582   0.5658   0.5658   0.5658   0.5658
     6.0884   6.0884   6.0885   6.0885   6.7139   6.7139   6.7140   6.7140
     6.8687   6.8687   6.8687   6.8688   7.0061   7.0061   7.0062   7.0062
     7.0801   7.0801   7.0801   7.0802   7.1571   7.1571   7.1572   7.1572
     7.5167   7.5167   7.5168   7.5168   7.6601   7.6601   7.6602   7.6602
     7.7204   7.7204   7.7205   7.7205   7.9469   7.9469   7.9470   7.9470
     8.0478   8.0478   8.0479   8.0479   8.7058   8.7058   8.7059   8.7059
     9.1545   9.1545   9.1545   9.1545   9.1970   9.1970   9.1971   9.1971
     9.2313   9.2314   9.2314   9.2314   9.5417   9.5417   9.5418   9.5418
     9.6529   9.6529   9.6530   9.6530   9.7172   9.7172   9.7173   9.7173
    13.0216  13.0216  13.0216  13.0217  13.2143  13.2143  13.2144  13.2144
    13.3827  13.3827  13.3828  13.3828  13.6074  13.6074  13.6075  13.6075
    14.0263  14.0263  14.0263  14.0263  14.0679  14.0679  14.0679  14.0679
    14.9308  14.9308  14.9308  14.9308  16.2014  16.2015  16.2016  16.2016
    16.3146  16.3147  16.3148  16.3148  16.7889  16.7889  16.7890  16.7891

          k = 0.1250 0.1250 0.0000 ( 42013 PWs)   bands (ev):

   -45.9799 -45.9790 -45.9789 -45.9789 -45.9780 -45.9780 -45.9779 -45.9770
   -22.4285 -22.4251 -22.4251 -22.4225 -22.3791 -22.3770 -22.3770 -22.3750
   -22.3714 -22.3714 -22.3681 -22.3681 -22.3681 -22.3680 -22.3656 -22.3656
   -22.3201 -22.3200 -22.3181 -22.3180 -22.3180 -22.3180 -22.3161 -22.3161
   -14.5334 -14.4218 -14.4201 -14.4201 -14.3477 -14.3477 -14.3453 -14.2823
    -6.8149  -6.8149  -6.7584  -6.5980  -6.3501  -6.2070  -6.2070  -5.9448
    -5.9380  -5.9380  -5.8858  -5.8858  -5.8569  -5.8180  -5.7974  -5.7879
    -5.7857  -5.7857  -5.7785  -5.7246  -5.6718  -5.6273  -5.5838  -5.5838
    -0.4425  -0.3936  -0.3509   0.2014   0.2014   0.2120   0.2518   0.2688
     0.2689   0.2809   0.2849   0.3284   0.4014   0.4336   0.4336   0.4563
     0.4563   0.4747   0.6082   0.6082   0.6441   0.6575   0.6575   0.6946
     5.7739   5.9444   5.9444   5.9559   6.1476   6.1768   6.1768   6.2201
     6.2814   6.2814   6.4200   6.4464   6.4464   6.4734   6.4874   7.3852
     7.3853   7.3917   7.4086   7.4086   7.4459   7.4598   7.4679   7.4679
     7.4891   7.5593   7.5593   7.6538   7.7505   7.7618   7.7935   7.7988
     7.8759   7.8824   7.8848   7.8848   7.9932   8.0253   8.0253   8.4458
     8.4459   8.4972   8.5267   8.5267   8.5704   8.6997   8.7508   8.7520
     8.7520   8.8087   9.0482   9.0772   9.0772   9.1308   9.2168   9.3045
     9.3045   9.3533   9.3533   9.3847   9.4096   9.4096   9.4835   9.6146
     9.8834   9.9115  10.0126  10.0126  10.0409  10.0783  10.1475  10.1749
    12.2024  12.3458  12.3911  12.4175  12.5117  12.5117  13.7520  13.7520
    13.7985  13.7985  13.8009  13.8018  13.8018  13.8384  13.8478  13.8643
    13.8918  13.8918  14.1900  14.2023  14.2023  14.4196  14.4398  14.4439
    14.5227  14.5227  14.5419  14.5452  14.5567  14.9884  15.2252  15.3050
    15.3050  15.3678  16.1894  16.1894  16.4635  16.7769  16.9632  17.1988

          k = 0.1250 0.1250 0.1236 ( 41992 PWs)   bands (ev):

   -45.9799 -45.9791 -45.9789 -45.9789 -45.9781 -45.9781 -45.9779 -45.9771
   -22.4267 -22.4233 -22.4233 -22.4207 -22.3810 -22.3788 -22.3788 -22.3768
   -22.3713 -22.3713 -22.3682 -22.3682 -22.3680 -22.3679 -22.3657 -22.3657
   -22.3201 -22.3199 -22.3182 -22.3181 -22.3179 -22.3179 -22.3162 -22.3162
   -14.5293 -14.4262 -14.4174 -14.4174 -14.3505 -14.3505 -14.3429 -14.2847
    -6.7962  -6.7962  -6.7464  -6.5950  -6.3312  -6.2414  -6.2414  -5.9473
    -5.9261  -5.9261  -5.8837  -5.8837  -5.8554  -5.8195  -5.8158  -5.7913
    -5.7775  -5.7775  -5.7735  -5.7408  -5.6710  -5.6342  -5.5920  -5.5920
    -0.4189  -0.3915  -0.2982   0.1855   0.2123   0.2123   0.2198   0.2747
     0.2747   0.2813   0.2853   0.3535   0.3967   0.4076   0.4077   0.4639
     0.4756   0.4757   0.6036   0.6063   0.6063   0.6432   0.6432   0.6846
     5.8044   5.9569   5.9799   5.9799   6.2077   6.2138   6.2138   6.2735
     6.2735   6.2827   6.4581   6.4738   6.4743   6.4743   6.4868   7.3874
     7.3874   7.3975   7.3975   7.4078   7.4603   7.4603   7.4662   7.4786
     7.5081   7.5869   7.5869   7.6181   7.7223   7.7223   7.7429   7.7582
     7.7772   7.7925   7.8495   7.8719   8.0102   8.0191   8.0192   8.3885
     8.4630   8.4630   8.5908   8.6714   8.6714   8.7098   8.7118   8.7328
     8.7725   8.7725   9.0460   9.0460   9.0586   9.1529   9.2383   9.2492
     9.2492   9.3499   9.3499   9.3560   9.3560   9.4022   9.4965   9.5676
     9.8639   9.8650   9.9920   9.9920   9.9960  10.0284  10.1489  10.1805
    12.2081  12.3402  12.4549  12.4754  12.5706  12.5706  13.7543  13.7543
    13.7955  13.7984  13.7984  13.8017  13.8017  13.8122  13.8236  13.8436
    13.8436  13.8582  14.1738  14.1738  14.1985  14.4033  14.4108  14.4216
    14.5419  14.5444  14.6052  14.6052  14.6631  15.1104  15.2979  15.3012
    15.3012  15.4409  16.2292  16.2292  16.4102  16.7907  17.0517  17.1113

          k = 0.1250 0.1250 0.2473 ( 41985 PWs)   bands (ev):

   -45.9798 -45.9791 -45.9788 -45.9788 -45.9782 -45.9782 -45.9778 -45.9772
   -22.4213 -22.4181 -22.4181 -22.4156 -22.3864 -22.3841 -22.3841 -22.3820
   -22.3709 -22.3709 -22.3686 -22.3686 -22.3677 -22.3676 -22.3660 -22.3659
   -22.3198 -22.3197 -22.3184 -22.3183 -22.3177 -22.3177 -22.3164 -22.3164
   -14.5174 -14.4385 -14.4097 -14.4096 -14.3585 -14.3585 -14.3362 -14.2916
    -6.7417  -6.7417  -6.7136  -6.5912  -6.3268  -6.3268  -6.2766  -5.9491
    -5.9028  -5.9028  -5.8871  -5.8785  -5.8785  -5.8512  -5.8237  -5.7846
    -5.7739  -5.7593  -5.7558  -5.7558  -5.6762  -5.6537  -5.6152  -5.6152
    -0.3511  -0.3481  -0.1827   0.1109   0.1309   0.2383   0.2383   0.2883
     0.2981   0.2982   0.2982   0.3694   0.3694   0.3833   0.4076   0.4343
     0.4918   0.4918   0.4919   0.6006   0.6006   0.6071   0.6071   0.6546
     5.8701   5.9588   6.0596   6.0596   6.2521   6.2521   6.3252   6.3252
     6.3803   6.4571   6.4751   6.4851   6.5743   6.5743   6.5907   7.3082
     7.3082   7.3932   7.3932   7.4170   7.4170   7.4571   7.4735   7.4735
     7.4888   7.5196   7.5237   7.5578   7.5596   7.6646   7.6646   7.7455
     7.7554   7.7987   7.8391   7.9084   8.0283   8.0283   8.0599   8.1048
     8.5116   8.5116   8.5744   8.5987   8.6504   8.7109   8.7109   8.7530
     8.8858   8.8858   9.0383   9.0881   9.0881   9.1382   9.1382   9.2218
     9.2511   9.2511   9.3005   9.3005   9.3041   9.4109   9.4518   9.5341
     9.7763   9.8147   9.8717   9.9049   9.9262   9.9262  10.1530  10.1823
    12.2236  12.3243  12.6310  12.6383  12.7334  12.7334  13.6462  13.6630
    13.6971  13.6971  13.7606  13.7606  13.7976  13.7976  13.8158  13.8158
    13.8877  13.9154  14.0988  14.0988  14.2228  14.3303  14.3331  14.3891
    14.5418  14.5429  14.8032  14.8032  14.9413  15.2855  15.2855  15.4380
    15.5035  15.6544  16.2532  16.3595  16.3595  16.7771  16.8800  17.3378

          k = 0.1250 0.1250 0.3709 ( 41958 PWs)   bands (ev):

   -45.9796 -45.9793 -45.9787 -45.9787 -45.9783 -45.9783 -45.9777 -45.9773
   -22.4133 -22.4103 -22.4103 -22.4079 -22.3944 -22.3919 -22.3919 -22.3897
   -22.3704 -22.3704 -22.3691 -22.3691 -22.3673 -22.3672 -22.3664 -22.3663
   -22.3195 -22.3194 -22.3187 -22.3186 -22.3174 -22.3174 -22.3167 -22.3167
   -14.4996 -14.4569 -14.3981 -14.3980 -14.3704 -14.3703 -14.3261 -14.3019
    -6.6689  -6.6572  -6.6572  -6.5987  -6.4365  -6.4365  -6.1930  -5.9840
    -5.9363  -5.8831  -5.8831  -5.8735  -5.8735  -5.8450  -5.8434  -5.8301
    -5.7473  -5.7382  -5.7252  -5.7252  -5.6916  -5.6823  -5.6493  -5.6493
    -0.2579  -0.2484  -0.0276   0.0013   0.0046   0.2660   0.2660   0.3124
     0.3173   0.3306   0.3306   0.3319   0.3487   0.3487   0.3634   0.3932
     0.4743   0.4759   0.4760   0.5786   0.5786   0.5912   0.5912   0.6061
     5.9240   5.9585   6.1333   6.1333   6.2221   6.2221   6.4772   6.4827
     6.5052   6.5052   6.6426   6.7080   6.7704   6.7704   6.8423   7.0284
     7.0284   7.2694   7.2694   7.2720   7.2810   7.4013   7.4013   7.4242
     7.4242   7.4985   7.5369   7.6080   7.6205   7.7201   7.7258   7.7385
     7.7774   7.7774   7.7817   7.7897   7.9934   7.9934   8.0745   8.1409
     8.4036   8.4425   8.5813   8.5813   8.6945   8.6945   8.7433   8.8364
     8.8718   8.8718   8.9638   9.0165   9.0165   9.1165   9.1165   9.1858
     9.2079   9.2079   9.3418   9.3900   9.3900   9.4158   9.5247   9.5928
     9.6936   9.6963   9.7404   9.7440   9.8066   9.8066  10.1597  10.1768
    12.2465  12.3009  12.8771  12.8822  12.9661  12.9661  13.4211  13.4372
    13.4846  13.4846  13.7693  13.7693  13.7889  13.7889  13.8508  13.8508
    13.9836  14.0031  14.0031  14.0032  14.2209  14.2267  14.2597  14.3493
    14.5416  14.5418  15.0125  15.0125  15.2455  15.2455  15.3049  15.8098
    15.8782  15.9904  16.0024  16.5490  16.5980  16.5980  16.6384  16.8904

          k = 0.1250 0.1250-0.4946 ( 41940 PWs)   bands (ev):

   -45.9795 -45.9795 -45.9785 -45.9785 -45.9785 -45.9785 -45.9775 -45.9775
   -22.4039 -22.4039 -22.4011 -22.4011 -22.4011 -22.4011 -22.3988 -22.3988
   -22.3697 -22.3697 -22.3697 -22.3697 -22.3669 -22.3669 -22.3668 -22.3668
   -22.3191 -22.3191 -22.3190 -22.3190 -22.3170 -22.3170 -22.3170 -22.3170
   -14.4784 -14.4783 -14.3843 -14.3843 -14.3842 -14.3842 -14.3141 -14.3140
    -6.6262  -6.6261  -6.5516  -6.5516  -6.5514  -6.5514  -6.0910  -6.0909
    -5.8994  -5.8993  -5.8735  -5.8735  -5.8735  -5.8734  -5.8376  -5.8375
    -5.7153  -5.7152  -5.7141  -5.7140  -5.6882  -5.6882  -5.6881  -5.6881
    -0.1336  -0.1335  -0.1250  -0.1249   0.1506   0.1507   0.2956   0.2956
     0.2957   0.2957   0.3402   0.3402   0.3497   0.3498   0.4165   0.4165
     0.4166   0.4166   0.5436   0.5436   0.5803   0.5804   0.5804   0.5804
     5.9503   5.9504   6.1844   6.1844   6.1845   6.1845   6.4798   6.4799
     6.7435   6.7435   6.7436   6.7436   6.9582   6.9584   6.9853   6.9854
     7.0307   7.0307   7.0308   7.0308   7.2057   7.2058   7.4109   7.4109
     7.4110   7.4110   7.6332   7.6333   7.6780   7.6781   7.7007   7.7008
     7.7221   7.7222   7.8992   7.8992   7.8993   7.8993   8.2549   8.2550
     8.2614   8.2615   8.6490   8.6490   8.6490   8.6490   8.8556   8.8557
     8.9229   8.9229   8.9230   8.9230   8.9799   8.9799   9.1191   9.1191
     9.1191   9.1191   9.5076   9.5076   9.5674   9.5674   9.6090   9.6091
     9.6259   9.6259   9.6259   9.6259   9.6660   9.6661  10.1682  10.1684
    12.2735  12.2736  13.1519  13.1520  13.1647  13.1648  13.2292  13.2292
    13.2292  13.2292  13.7792  13.7792  13.7792  13.7792  13.9143  13.9144
    13.9144  13.9144  14.0995  14.0996  14.1113  14.1114  14.3039  14.3040
    14.5415  14.5415  15.1617  15.1617  15.1617  15.1617  15.6758  15.6759
    16.1743  16.1745  16.3175  16.3177  16.4181  16.4182  16.9264  16.9265

          k = 0.1250 0.2500 0.0000 ( 42021 PWs)   bands (ev):

   -45.9798 -45.9790 -45.9789 -45.9788 -45.9781 -45.9781 -45.9779 -45.9772
   -22.4281 -22.4255 -22.4248 -22.4228 -22.3788 -22.3772 -22.3767 -22.3752
   -22.3710 -22.3684 -22.3678 -22.3659 -22.3654 -22.3623 -22.3622 -22.3598
   -22.3261 -22.3240 -22.3239 -22.3219 -22.3198 -22.3182 -22.3178 -22.3163
   -14.5204 -14.4337 -14.4133 -14.4115 -14.3566 -14.3542 -14.3401 -14.2901
    -6.7781  -6.7638  -6.7024  -6.6059  -6.4084  -6.2862  -6.1488  -5.9347
    -5.9209  -5.9135  -5.8903  -5.8722  -5.8504  -5.8080  -5.8073  -5.8018
    -5.7764  -5.7674  -5.7601  -5.7491  -5.7408  -5.6438  -5.6348  -5.6086
    -0.3859  -0.3078  -0.2527   0.1160   0.1890   0.2152   0.2247   0.2878
     0.3032   0.3040   0.3142   0.3591   0.3797   0.4002   0.4121   0.4334
     0.4743   0.4758   0.5038   0.5974   0.6111   0.6207   0.6249   0.6403
     5.8406   5.9435   6.0112   6.0391   6.1324   6.2529   6.2556   6.3461
     6.3496   6.4339   6.4535   6.4704   6.5730   6.5999   6.6072   7.2481
     7.3640   7.4347   7.4482   7.4489   7.4619   7.4626   7.4719   7.4987
     7.5269   7.5286   7.5399   7.5629   7.5685   7.6029   7.6196   7.7488
     7.7886   7.8365   7.8471   7.9448   8.0051   8.0109   8.0835   8.1636
     8.5116   8.5340   8.5420   8.5798   8.5976   8.6443   8.6965   8.7546
     8.8201   9.0130   9.0177   9.0325   9.1721   9.1803   9.1832   9.1862
     9.1994   9.2945   9.3719   9.3747   9.3826   9.3962   9.4216   9.4605
     9.8045   9.8536   9.9385   9.9390  10.0184  10.0384  10.0746  10.0777
    12.3671  12.4553  12.4960  12.5355  12.5435  12.6226  13.5886  13.6195
    13.6349  13.6458  13.7676  13.8042  13.8228  13.8396  13.8644  13.8674
    13.8879  13.9296  14.1048  14.1206  14.2302  14.3316  14.3566  14.4136
    14.5328  14.5533  14.7024  14.7573  14.8530  15.0045  15.2854  15.4526
    15.5829  15.6421  16.0680  16.3642  16.5967  16.8488  16.9607  17.1306

          k = 0.1250 0.2500 0.1236 ( 41990 PWs)   bands (ev):

   -45.9798 -45.9790 -45.9789 -45.9788 -45.9782 -45.9780 -45.9779 -45.9772
   -22.4263 -22.4237 -22.4230 -22.4210 -22.3807 -22.3791 -22.3786 -22.3771
   -22.3709 -22.3683 -22.3679 -22.3660 -22.3653 -22.3624 -22.3621 -22.3599
   -22.3260 -22.3240 -22.3238 -22.3220 -22.3197 -22.3181 -22.3179 -22.3164
   -14.5165 -14.4308 -14.4175 -14.4088 -14.3596 -14.3518 -14.3429 -14.2926
    -6.7606  -6.7450  -6.6921  -6.6004  -6.3894  -6.3051  -6.1853  -5.9383
    -5.9147  -5.9073  -5.8888  -5.8698  -5.8490  -5.8482  -5.8102  -5.7963
    -5.7698  -5.7640  -5.7609  -5.7566  -5.7257  -5.6494  -5.6421  -5.6150
    -0.3653  -0.3182  -0.1905   0.1307   0.1850   0.1977   0.2190   0.2675
     0.2853   0.2973   0.3216   0.3552   0.3646   0.3920   0.4090   0.4401
     0.4850   0.4864   0.4899   0.5955   0.5976   0.6055   0.6235   0.6435
     5.8750   5.9795   6.0399   6.0529   6.1908   6.2486   6.2890   6.3711
     6.3978   6.4434   6.4630   6.4970   6.5737   6.6091   6.6221   7.2617
     7.3349   7.4334   7.4487   7.4523   7.4540   7.4649   7.4700   7.4771
     7.5124   7.5212   7.5695   7.5802   7.5815   7.5884   7.6241   7.7476
     7.7758   7.7988   7.8327   7.8563   7.9135   7.9609   8.0796   8.1807
     8.4380   8.5437   8.5472   8.6296   8.6497   8.6596   8.7186   8.7524
     8.8038   8.9974   9.0489   9.0586   9.1353   9.1636   9.1655   9.2026
     9.2311   9.3175   9.3218   9.3448   9.3486   9.3904   9.4127   9.4222
     9.7799   9.8133   9.8953   9.9246   9.9935   9.9953  10.0771  10.0829
    12.3930  12.4974  12.5383  12.5553  12.5810  12.6775  13.5915  13.6250
    13.6425  13.6615  13.7722  13.7872  13.8096  13.8158  13.8388  13.8416
    13.8569  13.8850  14.0869  14.1132  14.2017  14.3153  14.3305  14.3851
    14.6143  14.6257  14.7577  14.7976  14.8882  15.1260  15.2814  15.5196
    15.6407  15.6538  16.1071  16.3900  16.5426  16.8836  16.9962  17.2323

          k = 0.1250 0.2500 0.2473 ( 41951 PWs)   bands (ev):

   -45.9797 -45.9790 -45.9789 -45.9787 -45.9783 -45.9780 -45.9779 -45.9773
   -22.4210 -22.4185 -22.4178 -22.4159 -22.3861 -22.3843 -22.3838 -22.3822
   -22.3705 -22.3683 -22.3681 -22.3663 -22.3649 -22.3627 -22.3619 -22.3602
   -22.3258 -22.3243 -22.3236 -22.3222 -22.3195 -22.3181 -22.3179 -22.3166
   -14.5051 -14.4293 -14.4226 -14.4012 -14.3681 -14.3508 -14.3450 -14.2996
    -6.7102  -6.6903  -6.6642  -6.5890  -6.3601  -6.3346  -6.2730  -5.9439
    -5.9321  -5.9120  -5.8858  -5.8825  -5.8636  -5.8446  -5.8197  -5.8008
    -5.7805  -5.7553  -5.7466  -5.7439  -5.7142  -5.6654  -5.6623  -5.6334
    -0.3136  -0.2831  -0.0682   0.1195   0.1639   0.1737   0.1895   0.2299
     0.2774   0.3032   0.3068   0.3429   0.3437   0.3545   0.4415   0.4420
     0.4667   0.4701   0.5196   0.5234   0.5982   0.6015   0.6181   0.6419
     5.9494   6.0415   6.0588   6.1519   6.2299   6.3576   6.4001   6.4159
     6.4536   6.5312   6.5483   6.5781   6.5906   6.6385   6.7020   7.2081
     7.3070   7.3242   7.3725   7.4039   7.4299   7.4422   7.4645   7.4716
     7.4818   7.5008   7.5145   7.6147   7.6197   7.6643   7.6812   7.6846
     7.7048   7.7456   7.7516   7.8034   7.8458   8.0084   8.0757   8.1695
     8.2277   8.3949   8.5068   8.5804   8.6105   8.6997   8.7026   8.9117
     8.9798   8.9980   9.0306   9.0808   9.1378   9.1594   9.1693   9.2250
     9.2277   9.2573   9.2728   9.3134   9.3220   9.3411   9.3845   9.4369
     9.7005   9.7496   9.7785   9.8771   9.8842   9.9225  10.0761  10.0856
    12.4232  12.5237  12.6541  12.7142  12.7190  12.8292  13.5991  13.6254
    13.6389  13.6459  13.6683  13.7068  13.7355  13.7399  13.7844  13.8290
    13.8544  13.8957  13.9978  14.1265  14.1373  14.2329  14.2907  14.3148
    14.7192  14.7581  14.8087  15.0341  15.0780  15.2658  15.4539  15.6293
    15.7084  15.8623  16.2361  16.3833  16.4790  16.8909  17.0033  17.0967

          k = 0.1250 0.2500 0.3709 ( 41948 PWs)   bands (ev):

   -45.9795 -45.9792 -45.9788 -45.9785 -45.9784 -45.9782 -45.9778 -45.9774
   -22.4130 -22.4107 -22.4100 -22.4082 -22.3941 -22.3922 -22.3917 -22.3900
   -22.3700 -22.3688 -22.3677 -22.3667 -22.3644 -22.3632 -22.3615 -22.3606
   -22.3255 -22.3246 -22.3233 -22.3225 -22.3192 -22.3184 -22.3176 -22.3169
   -14.4879 -14.4469 -14.4102 -14.3897 -14.3807 -14.3624 -14.3346 -14.3101
    -6.6331  -6.6281  -6.6055  -6.5843  -6.4432  -6.3839  -6.2503  -6.0360
    -5.9385  -5.9014  -5.8848  -5.8633  -5.8630  -5.8571  -5.8375  -5.8191
    -5.7574  -5.7380  -5.7316  -5.7201  -5.7174  -5.6896  -5.6885  -5.6604
    -0.2373  -0.1908   0.0018   0.0539   0.0837   0.1769   0.2450   0.2488
     0.2489   0.2839   0.3134   0.3256   0.3259   0.3742   0.3944   0.3982
     0.4098   0.4307   0.5291   0.5601   0.5995   0.6005   0.6099   0.6229
     6.0083   6.0416   6.1276   6.2040   6.2514   6.3757   6.5758   6.5789
     6.5826   6.5918   6.6086   6.7344   6.7818   6.8346   6.8688   6.9902
     7.0801   7.2018   7.2071   7.2791   7.3552   7.3859   7.4260   7.4359
     7.4478   7.4764   7.5111   7.5907   7.5993   7.6558   7.7256   7.7492
     7.7516   7.7538   7.7796   7.8369   7.8475   7.8793   8.0192   8.0894
     8.2136   8.2935   8.3599   8.4744   8.6102   8.6418   8.7697   8.9592
     8.9777   8.9982   9.0132   9.0998   9.1045   9.1382   9.1438   9.1725
     9.2585   9.2669   9.3082   9.3623   9.3934   9.4211   9.4584   9.5097
     9.6100   9.6140   9.6780   9.7287   9.7860   9.7928  10.0763  10.0826
    12.4491  12.5019  12.8945  12.9218  12.9529  13.0467  13.4192  13.4459
    13.4696  13.5361  13.6099  13.6385  13.6929  13.8011  13.8385  13.8448
    13.8703  13.8825  13.9794  14.0297  14.1110  14.1738  14.1962  14.2638
    14.7469  14.7576  15.0104  15.2283  15.2972  15.4231  15.5885  15.8994
    15.9904  16.1284  16.1929  16.4743  16.6603  16.6833  16.7187  17.0836

          k = 0.1250 0.2500-0.4946 ( 41984 PWs)   bands (ev):

   -45.9794 -45.9794 -45.9786 -45.9786 -45.9784 -45.9784 -45.9776 -45.9776
   -22.4036 -22.4036 -22.4015 -22.4015 -22.4009 -22.4009 -22.3991 -22.3991
   -22.3694 -22.3694 -22.3672 -22.3672 -22.3638 -22.3638 -22.3610 -22.3610
   -22.3251 -22.3250 -22.3229 -22.3229 -22.3188 -22.3188 -22.3173 -22.3173
   -14.4676 -14.4675 -14.3956 -14.3955 -14.3762 -14.3761 -14.3224 -14.3224
    -6.5976  -6.5975  -6.5396  -6.5395  -6.4996  -6.4994  -6.1467  -6.1466
    -5.9107  -5.9106  -5.8900  -5.8899  -5.8553  -5.8552  -5.8288  -5.8287
    -5.7333  -5.7332  -5.7165  -5.7164  -5.7125  -5.7123  -5.6912  -5.6910
    -0.1271  -0.1271  -0.0722  -0.0722   0.2013   0.2014   0.2461   0.2461
     0.2767   0.2767   0.3032   0.3032   0.3293   0.3294   0.3544   0.3544
     0.4067   0.4068   0.5839   0.5839   0.5878   0.5878   0.6030   0.6030
     6.0345   6.0347   6.1720   6.1721   6.3236   6.3237   6.5790   6.5791
     6.7728   6.7729   6.8157   6.8158   6.9059   6.9060   6.9473   6.9474
     7.0441   7.0443   7.1125   7.1126   7.1963   7.1964   7.4256   7.4257
     7.4888   7.4889   7.4896   7.4897   7.6768   7.6769   7.6946   7.6947
     7.7673   7.7673   7.8123   7.8124   7.9096   7.9097   8.0298   8.0299
     8.2096   8.2097   8.3711   8.3711   8.6163   8.6164   8.8709   8.8709
     8.9656   8.9656   9.0473   9.0473   9.0938   9.0939   9.1745   9.1745
     9.2226   9.2227   9.4333   9.4333   9.5175   9.5175   9.5541   9.5541
     9.5954   9.5955   9.6017   9.6017   9.6430   9.6430  10.0785  10.0786
    12.4758  12.4759  13.1617  13.1617  13.1806  13.1806  13.2165  13.2166
    13.2940  13.2940  13.6228  13.6229  13.7735  13.7736  13.8199  13.8200
    13.9386  13.9386  13.9754  13.9754  14.0837  14.0837  14.2178  14.2178
    14.7549  14.7549  15.1506  15.1507  15.4880  15.4880  15.7964  15.7965
    16.3292  16.3294  16.3575  16.3577  16.6157  16.6159  16.8012  16.8014

          k = 0.1250 0.3750 0.0000 ( 41967 PWs)   bands (ev):

   -45.9796 -45.9792 -45.9787 -45.9786 -45.9783 -45.9782 -45.9777 -45.9773
   -22.4275 -22.4261 -22.4243 -22.4233 -22.3785 -22.3776 -22.3764 -22.3756
   -22.3704 -22.3690 -22.3674 -22.3663 -22.3564 -22.3535 -22.3534 -22.3512
   -22.3352 -22.3328 -22.3327 -22.3307 -22.3194 -22.3186 -22.3175 -22.3167
   -14.5008 -14.4539 -14.4004 -14.3985 -14.3697 -14.3675 -14.3288 -14.3017
    -6.7263  -6.6858  -6.6295  -6.6159  -6.4936  -6.3933  -6.0602  -5.9199
    -5.8972  -5.8949  -5.8761  -5.8526  -5.8485  -5.8263  -5.8250  -5.8130
    -5.7973  -5.7832  -5.7739  -5.7396  -5.7288  -5.7048  -5.6723  -5.6454
    -0.2829  -0.1949  -0.0985  -0.0085   0.0721   0.2393   0.2553   0.2914
     0.3106   0.3146   0.3311   0.3511   0.3748   0.3801   0.3845   0.4010
     0.4432   0.5032   0.5309   0.5440   0.5617   0.5742   0.5801   0.5864
     5.8972   5.9396   6.0604   6.1123   6.1197   6.2203   6.4180   6.4217
     6.4343   6.5506   6.6703   6.7140   6.7734   6.8408   6.8558   6.9555
     7.1292   7.2636   7.2822   7.3450   7.3556   7.4387   7.4558   7.4592
     7.4599   7.4782   7.5640   7.6205   7.6359   7.6478   7.6948   7.7210
     7.7658   7.7764   7.7962   7.8512   7.8786   7.9602   8.1663   8.1808
     8.4325   8.5167   8.5381   8.5694   8.6653   8.6780   8.7361   8.7567
     8.7980   8.9292   8.9358   8.9876   9.0501   9.1286   9.1316   9.2220
     9.2481   9.2747   9.3270   9.3410   9.4806   9.5031   9.5353   9.5400
     9.6629   9.7497   9.7864   9.8067   9.8742   9.9510  10.0278  10.0537
    12.4176  12.4730  12.7171  12.7655  12.8185  12.8287  13.3386  13.3600
    13.3830  13.4091  13.7948  13.8160  13.8250  13.8548  13.8792  13.8816
    13.9612  13.9953  14.0076  14.0180  14.2114  14.2406  14.2721  14.3714
    14.5418  14.5515  14.8672  14.9793  15.0044  15.2234  15.2375  15.8010
    15.8620  15.9130  16.0806  16.6155  16.6585  16.7847  16.8263  16.8303

          k = 0.1250 0.3750 0.1236 ( 41953 PWs)   bands (ev):

   -45.9796 -45.9792 -45.9788 -45.9786 -45.9783 -45.9782 -45.9778 -45.9774
   -22.4257 -22.4243 -22.4225 -22.4215 -22.3803 -22.3795 -22.3782 -22.3774
   -22.3703 -22.3689 -22.3675 -22.3664 -22.3563 -22.3536 -22.3534 -22.3513
   -22.3351 -22.3329 -22.3326 -22.3307 -22.3194 -22.3185 -22.3176 -22.3167
   -14.4971 -14.4508 -14.4043 -14.3959 -14.3730 -14.3650 -14.3315 -14.3042
    -6.7109  -6.6669  -6.6206  -6.6086  -6.4746  -6.3994  -6.1008  -5.9234
    -5.9108  -5.8970  -5.8865  -5.8775  -5.8496  -5.8264  -5.8106  -5.8084
    -5.7874  -5.7857  -5.7693  -5.7358  -5.7273  -5.7106  -5.6751  -5.6494
    -0.2656  -0.2098  -0.0378   0.0082   0.0592   0.2251   0.2384   0.3058
     0.3108   0.3143   0.3199   0.3252   0.3341   0.3685   0.3856   0.3941
     0.4702   0.4725   0.4914   0.5721   0.5835   0.5851   0.5868   0.5938
     5.9343   5.9763   6.1088   6.1184   6.1681   6.2147   6.4468   6.4508
     6.4607   6.5780   6.6794   6.6999   6.7764   6.8523   6.8591   6.9792
     7.1023   7.2471   7.2875   7.3161   7.3732   7.4293   7.4670   7.4689
     7.4842   7.4957   7.5301   7.5991   7.6505   7.6619   7.6935   7.7243
     7.7260   7.7708   7.7766   7.8715   7.8861   7.8914   8.0289   8.1814
     8.3635   8.4824   8.4888   8.5386   8.6666   8.7239   8.7733   8.8050
     8.8078   8.9713   8.9799   9.0058   9.0102   9.1048   9.1444   9.2380
     9.2435   9.2505   9.3142   9.3801   9.4346   9.4930   9.4991   9.5400
     9.6424   9.7146   9.7443   9.8022   9.8708   9.9475  10.0016  10.0286
    12.4760  12.5327  12.7259  12.7945  12.8139  12.8767  13.3427  13.3691
    13.4055  13.4156  13.8033  13.8033  13.8290  13.8318  13.8318  13.8321
    13.9470  13.9702  13.9778  14.0035  14.1933  14.2124  14.2435  14.3426
    14.6226  14.6299  14.9761  14.9789  15.1250  15.2340  15.2560  15.8581
    15.8994  15.9830  16.0837  16.6533  16.6694  16.7714  16.8179  16.8989

          k = 0.1250 0.3750 0.2473 ( 41954 PWs)   bands (ev):

   -45.9795 -45.9791 -45.9789 -45.9785 -45.9784 -45.9781 -45.9779 -45.9775
   -22.4204 -22.4190 -22.4174 -22.4163 -22.3857 -22.3848 -22.3835 -22.3826
   -22.3700 -22.3686 -22.3678 -22.3667 -22.3560 -22.3539 -22.3531 -22.3515
   -22.3348 -22.3331 -22.3324 -22.3310 -22.3192 -22.3183 -22.3178 -22.3170
   -14.4864 -14.4418 -14.4154 -14.3884 -14.3823 -14.3580 -14.3391 -14.3114
    -6.6672  -6.6120  -6.5982  -6.5902  -6.4216  -6.4197  -6.1923  -6.0055
    -5.9315  -5.9052  -5.8978  -5.8505  -5.8459  -5.8418  -5.8249  -5.7955
    -5.7920  -5.7620  -5.7620  -5.7261  -5.7252  -5.7232  -5.6835  -5.6606
    -0.2307  -0.1829   0.0387   0.0626   0.0820   0.1397   0.2351   0.2381
     0.2425   0.2816   0.3000   0.3269   0.3306   0.3887   0.3928   0.3997
     0.4074   0.4412   0.5270   0.5526   0.5961   0.5977   0.6087   0.6223
     6.0143   6.0558   6.1155   6.2001   6.2357   6.3260   6.5404   6.5487
     6.5595   6.6526   6.6599   6.7143   6.7881   6.8465   6.9230   7.0263
     7.0474   7.1936   7.2235   7.2979   7.3892   7.4061   7.4271   7.4517
     7.4742   7.5338   7.5648   7.5705   7.5963   7.6929   7.6978   7.7040
     7.7343   7.7498   7.7599   7.7899   7.8071   7.9242   7.9311   8.1532
     8.1972   8.2439   8.3898   8.4180   8.6553   8.7007   8.7181   8.9655
     8.9668   8.9750   9.0342   9.0507   9.0729   9.0933   9.1737   9.2061
     9.2596   9.2790   9.2873   9.3450   9.4540   9.4578   9.4702   9.5213
     9.5751   9.6376   9.6666   9.7834   9.8346   9.9204   9.9389   9.9714
    12.6227  12.6974  12.7629  12.8008  12.8863  13.0096  13.3533  13.3939
    13.4026  13.5063  13.6585  13.6867  13.6914  13.8264  13.8287  13.8545
    13.8696  13.8791  13.9436  14.0268  14.0982  14.1677  14.1800  14.2662
    14.7902  14.8119  14.9763  15.2204  15.2591  15.3893  15.4503  16.0190
    16.0262  16.0796  16.1897  16.6098  16.7091  16.7623  16.8525  17.2025

          k = 0.1250 0.3750 0.3709 ( 41947 PWs)   bands (ev):

   -45.9794 -45.9790 -45.9789 -45.9786 -45.9784 -45.9780 -45.9779 -45.9776
   -22.4125 -22.4112 -22.4096 -22.4086 -22.3937 -22.3927 -22.3913 -22.3904
   -22.3695 -22.3683 -22.3682 -22.3672 -22.3555 -22.3544 -22.3527 -22.3519
   -22.3344 -22.3335 -22.3321 -22.3313 -22.3188 -22.3181 -22.3180 -22.3173
   -14.4704 -14.4319 -14.4283 -14.3961 -14.3772 -14.3505 -14.3474 -14.3222
    -6.6031  -6.5741  -6.5706  -6.5270  -6.4662  -6.3348  -6.3045  -6.1155
    -5.9355  -5.9145  -5.9024  -5.8892  -5.8327  -5.8326  -5.8195  -5.8010
    -5.7778  -5.7570  -5.7544  -5.7411  -5.7168  -5.7127  -5.6958  -5.6772
    -0.1788  -0.0971   0.0232   0.0482   0.1315   0.1361   0.1522   0.2219
     0.2437   0.2686   0.2847   0.2904   0.3232   0.3430   0.3922   0.3941
     0.3985   0.4762   0.4810   0.5786   0.5893   0.6124   0.6222   0.6303
     6.0757   6.1115   6.1202   6.1805   6.3877   6.5577   6.5977   6.6933
     6.7100   6.7233   6.7356   6.8233   6.8315   6.8775   6.9183   7.0550
     7.0566   7.1088   7.1519   7.1659   7.2753   7.3698   7.3792   7.3967
     7.4345   7.4793   7.5168   7.5679   7.6481   7.6843   7.6983   7.7022
     7.7284   7.7335   7.7542   7.7765   7.8074   7.9776   7.9987   8.0041
     8.0084   8.0683   8.2366   8.2578   8.6165   8.6309   8.6940   8.8384
     8.9887   9.0717   9.1015   9.1342   9.1415   9.1979   9.2158   9.2487
     9.2678   9.3106   9.3168   9.3498   9.4530   9.4829   9.4832   9.4928
     9.5352   9.5372   9.6376   9.7192   9.7374   9.7789   9.9298   9.9351
    12.7201  12.7806  12.9271  12.9315  13.0423  13.2015  13.3622  13.3691
    13.4441  13.4722  13.4789  13.4946  13.6390  13.6412  13.7254  13.8565
    13.9010  13.9181  13.9529  13.9560  14.0625  14.0695  14.1344  14.1701
    14.9005  14.9682  15.0000  15.1887  15.6061  15.6684  15.8937  16.0322
    16.2618  16.2652  16.3519  16.5185  16.7122  16.8028  16.8815  16.9268

          k = 0.1250 0.3750-0.4946 ( 41980 PWs)   bands (ev):

   -45.9792 -45.9792 -45.9788 -45.9788 -45.9782 -45.9782 -45.9778 -45.9778
   -22.4031 -22.4031 -22.4020 -22.4019 -22.4005 -22.4005 -22.3995 -22.3995
   -22.3689 -22.3689 -22.3677 -22.3677 -22.3550 -22.3550 -22.3523 -22.3523
   -22.3340 -22.3340 -22.3317 -22.3317 -22.3185 -22.3185 -22.3176 -22.3176
   -14.4513 -14.4512 -14.4123 -14.4122 -14.3640 -14.3639 -14.3349 -14.3348
    -6.5629  -6.5628  -6.5310  -6.5309  -6.4207  -6.4205  -6.2296  -6.2294
    -5.9228  -5.9227  -5.9107  -5.9106  -5.8277  -5.8276  -5.8109  -5.8108
    -5.7615  -5.7614  -5.7517  -5.7516  -5.7079  -5.7078  -5.6959  -5.6958
    -0.0910  -0.0909   0.0137   0.0138   0.0863   0.0863   0.2280   0.2281
     0.2603   0.2604   0.2714   0.2714   0.3602   0.3602   0.3662   0.3663
     0.3942   0.3942   0.5486   0.5486   0.6152   0.6152   0.6225   0.6225
     6.1023   6.1024   6.1565   6.1566   6.5108   6.5109   6.7647   6.7648
     6.8065   6.8066   6.8186   6.8187   6.9243   6.9244   6.9296   6.9296
     7.0680   7.0681   7.1730   7.1731   7.2654   7.2655   7.2827   7.2827
     7.3579   7.3581   7.5970   7.5971   7.6214   7.6214   7.7113   7.7114
     7.7490   7.7491   7.8321   7.8321   7.8328   7.8329   7.9413   7.9414
     8.0969   8.0969   8.1175   8.1176   8.5918   8.5919   8.7332   8.7333
     9.0587   9.0588   9.1357   9.1357   9.1728   9.1728   9.2188   9.2188
     9.3381   9.3381   9.3897   9.3898   9.4518   9.4519   9.5409   9.5410
     9.5767   9.5768   9.5991   9.5991   9.6523   9.6523   9.9261   9.9263
    12.7548  12.7549  13.1869  13.1870  13.1893  13.1893  13.2497  13.2498
    13.3935  13.3936  13.4221  13.4222  13.5833  13.5834  13.7955  13.7955
    13.8879  13.8880  13.9748  13.9749  14.0465  14.0465  14.1070  14.1070
    14.9482  14.9483  15.1231  15.1232  15.8862  15.8863  16.0210  16.0211
    16.3521  16.3523  16.5599  16.5601  16.5911  16.5912  16.9393  16.9395

          k = 0.1250-0.5000 0.0000 ( 41916 PWs)   bands (ev):

   -45.9794 -45.9794 -45.9785 -45.9785 -45.9784 -45.9784 -45.9775 -45.9775
   -22.4268 -22.4268 -22.4238 -22.4238 -22.3780 -22.3780 -22.3760 -22.3760
   -22.3697 -22.3697 -22.3668 -22.3668 -22.3458 -22.3458 -22.3432 -22.3432
   -22.3431 -22.3431 -22.3409 -22.3409 -22.3190 -22.3190 -22.3171 -22.3171
   -14.4775 -14.4775 -14.3852 -14.3851 -14.3831 -14.3831 -14.3153 -14.3152
    -6.6722  -6.6722  -6.5912  -6.5912  -6.5085  -6.5085  -5.9532  -5.9532
    -5.9068  -5.9068  -5.8632  -5.8632  -5.8320  -5.8320  -5.8313  -5.8313
    -5.7802  -5.7802  -5.7751  -5.7751  -5.7062  -5.7062  -5.6880  -5.6880
    -0.1497  -0.1497  -0.0626  -0.0626   0.0904   0.0904   0.2732   0.2732
     0.2996   0.2996   0.3438   0.3438   0.3652   0.3652   0.4560   0.4560
     0.4707   0.4707   0.5110   0.5110   0.5476   0.5476   0.5577   0.5578
     5.9274   5.9274   6.0896   6.0896   6.1773   6.1773   6.4309   6.4309
     6.6614   6.6614   6.8144   6.8144   6.9656   6.9656   7.0264   7.0265
     7.0409   7.0409   7.1182   7.1182   7.1997   7.1997   7.4568   7.4568
     7.4686   7.4686   7.6692   7.6692   7.6816   7.6816   7.7180   7.7180
     7.7626   7.7626   7.7633   7.7633   7.8385   7.8385   8.2879   8.2880
     8.3600   8.3600   8.5440   8.5440   8.8126   8.8126   8.8201   8.8201
     8.8336   8.8336   8.8834   8.8834   8.9132   8.9132   9.1654   9.1655
     9.1889   9.1890   9.4928   9.4928   9.6077   9.6077   9.6241   9.6241
     9.6399   9.6400   9.6926   9.6926   9.7589   9.7589  10.0399  10.0399
    12.4461  12.4461  13.0342  13.0342  13.0595  13.0595  13.0985  13.0985
    13.1213  13.1213  13.8080  13.8080  13.8728  13.8728  13.8935  13.8935
    13.9278  13.9278  14.0817  14.0817  14.1172  14.1172  14.3217  14.3217
    14.5479  14.5479  14.9658  14.9658  15.1418  15.1418  15.5744  15.5745
    16.2128  16.2128  16.3383  16.3383  16.5051  16.5052  17.0256  17.0256

          k = 0.1250-0.5000 0.1236 ( 41928 PWs)   bands (ev):

   -45.9794 -45.9794 -45.9786 -45.9786 -45.9784 -45.9784 -45.9776 -45.9776
   -22.4250 -22.4250 -22.4220 -22.4220 -22.3799 -22.3799 -22.3778 -22.3778
   -22.3696 -22.3696 -22.3669 -22.3669 -22.3457 -22.3457 -22.3433 -22.3433
   -22.3430 -22.3430 -22.3410 -22.3410 -22.3189 -22.3189 -22.3171 -22.3171
   -14.4741 -14.4741 -14.3887 -14.3887 -14.3805 -14.3805 -14.3179 -14.3179
    -6.6597  -6.6597  -6.5723  -6.5722  -6.5063  -6.5063  -6.0022  -6.0022
    -5.9084  -5.9084  -5.8475  -5.8475  -5.8380  -5.8380  -5.8275  -5.8275
    -5.7783  -5.7783  -5.7770  -5.7770  -5.7057  -5.7056  -5.6892  -5.6892
    -0.1333  -0.1333  -0.0787  -0.0787   0.1410   0.1410   0.2654   0.2654
     0.2701   0.2701   0.3387   0.3387   0.3506   0.3506   0.4091   0.4091
     0.4534   0.4534   0.5345   0.5345   0.5714   0.5714   0.5756   0.5756
     5.9648   5.9648   6.1423   6.1423   6.1736   6.1736   6.4565   6.4565
     6.6906   6.6906   6.8169   6.8170   6.9536   6.9536   7.0060   7.0060
     7.0463   7.0463   7.1351   7.1351   7.1994   7.1994   7.4632   7.4633
     7.4919   7.4919   7.6302   7.6302   7.6910   7.6910   7.6955   7.6955
     7.7690   7.7690   7.7747   7.7747   7.8085   7.8085   8.1969   8.1970
     8.3282   8.3283   8.4963   8.4963   8.7636   8.7636   8.8675   8.8675
     8.8875   8.8875   8.9204   8.9204   8.9319   8.9319   9.1496   9.1496
     9.2029   9.2029   9.4780   9.4781   9.5811   9.5811   9.6043   9.6043
     9.6169   9.6169   9.6978   9.6978   9.7521   9.7521  10.0117  10.0117
    12.5060  12.5060  13.0403  13.0403  13.0756  13.0757  13.1172  13.1173
    13.1385  13.1385  13.8207  13.8207  13.8221  13.8221  13.8816  13.8816
    13.9010  13.9010  14.0636  14.0636  14.0857  14.0857  14.2929  14.2929
    14.6279  14.6279  15.0830  15.0830  15.1396  15.1396  15.6094  15.6095
    16.2576  16.2576  16.4092  16.4093  16.5184  16.5184  17.0674  17.0707

          k = 0.1250-0.5000 0.2473 ( 41916 PWs)   bands (ev):

   -45.9793 -45.9793 -45.9787 -45.9787 -45.9783 -45.9783 -45.9777 -45.9777
   -22.4197 -22.4197 -22.4168 -22.4168 -22.3852 -22.3852 -22.3830 -22.3830
   -22.3693 -22.3693 -22.3673 -22.3673 -22.3454 -22.3454 -22.3436 -22.3436
   -22.3428 -22.3428 -22.3412 -22.3412 -22.3187 -22.3187 -22.3174 -22.3174
   -14.4642 -14.4642 -14.3989 -14.3989 -14.3733 -14.3733 -14.3253 -14.3253
    -6.6257  -6.6257  -6.5173  -6.5173  -6.5039  -6.5039  -6.0976  -6.0976
    -5.9140  -5.9140  -5.8800  -5.8800  -5.8174  -5.8174  -5.8093  -5.8093
    -5.7845  -5.7845  -5.7756  -5.7756  -5.7049  -5.7049  -5.6925  -5.6925
    -0.1073  -0.1073  -0.0622  -0.0622   0.1784   0.1784   0.2453   0.2453
     0.2625   0.2625   0.3025   0.3025   0.3252   0.3253   0.3549   0.3549
     0.4243   0.4244   0.5769   0.5769   0.5802   0.5802   0.6049   0.6049
     6.0452   6.0452   6.1643   6.1643   6.2880   6.2880   6.5550   6.5550
     6.7754   6.7754   6.8231   6.8231   6.9287   6.9287   6.9449   6.9449
     7.0627   7.0628   7.1917   7.1917   7.1925   7.1925   7.4548   7.4548
     7.4868   7.4868   7.5535   7.5535   7.6683   7.6683   7.7144   7.7144
     7.7556   7.7556   7.7887   7.7887   7.8131   7.8131   8.0039   8.0039
     8.2625   8.2625   8.3136   8.3136   8.6852   8.6852   8.8041   8.8041
     9.0035   9.0035   9.0338   9.0338   9.0533   9.0533   9.1485   9.1485
     9.2304   9.2304   9.4282   9.4282   9.4847   9.4847   9.5672   9.5672
     9.6369   9.6369   9.6914   9.6914   9.7351   9.7351   9.9272   9.9272
    12.6700  12.6700  13.0562  13.0562  13.1053  13.1053  13.1320  13.1320
    13.2495  13.2496  13.6786  13.6786  13.7545  13.7545  13.8581  13.8581
    13.9230  13.9230  13.9551  13.9551  14.0564  14.0564  14.2166  14.2166
    14.8085  14.8085  15.1310  15.1310  15.3964  15.3965  15.7345  15.7345
    16.3870  16.3870  16.5293  16.5293  16.6167  16.6167  16.9048  16.9049

          k = 0.1250-0.5000 0.3709 ( 41952 PWs)   bands (ev):

   -45.9792 -45.9792 -45.9788 -45.9788 -45.9782 -45.9782 -45.9778 -45.9778
   -22.4118 -22.4118 -22.4091 -22.4091 -22.3932 -22.3932 -22.3908 -22.3908
   -22.3688 -22.3688 -22.3677 -22.3677 -22.3450 -22.3450 -22.3440 -22.3440
   -22.3424 -22.3424 -22.3416 -22.3416 -22.3184 -22.3184 -22.3177 -22.3177
   -14.4494 -14.4494 -14.4141 -14.4141 -14.3624 -14.3624 -14.3364 -14.3364
    -6.5800  -6.5800  -6.5113  -6.5113  -6.4321  -6.4321  -6.2101  -6.2101
    -5.9221  -5.9221  -5.9100  -5.9100  -5.8045  -5.8045  -5.7949  -5.7948
    -5.7873  -5.7873  -5.7791  -5.7791  -5.7042  -5.7042  -5.6973  -5.6973
    -0.0793  -0.0793   0.0168   0.0168   0.0743   0.0743   0.2258   0.2258
     0.2556   0.2556   0.2722   0.2722   0.3618   0.3618   0.3656   0.3656
     0.3994   0.3994   0.5449   0.5449   0.6114   0.6115   0.6252   0.6252
     6.1072   6.1072   6.1526   6.1526   6.4891   6.4891   6.7414   6.7414
     6.8300   6.8300   6.8417   6.8417   6.9071   6.9071   6.9240   6.9240
     7.0855   7.0855   7.1763   7.1763   7.2842   7.2842   7.3026   7.3026
     7.3588   7.3588   7.6096   7.6096   7.6291   7.6291   7.7248   7.7249
     7.7266   7.7266   7.8176   7.8176   7.8377   7.8377   7.8916   7.8916
     8.0843   8.0843   8.1503   8.1503   8.6278   8.6278   8.6900   8.6900
     9.0847   9.0847   9.1260   9.1260   9.1554   9.1554   9.2494   9.2494
     9.3177   9.3177   9.3387   9.3387   9.3639   9.3639   9.5976   9.5977
     9.6496   9.6496   9.6657   9.6657   9.7177   9.7177   9.7961   9.7961
    12.8938  12.8938  13.0853  13.0853  13.0883  13.0883  13.2383  13.2383
    13.4112  13.4112  13.4653  13.4653  13.5780  13.5780  13.7895  13.7895
    13.9168  13.9168  13.9590  13.9590  14.0218  14.0218  14.1169  14.1169
    14.9711  14.9711  15.1099  15.1099  15.8123  15.8123  15.9812  15.9812
    16.4578  16.4578  16.5870  16.5871  16.6420  16.6420  17.0559  17.0561

          k = 0.1250-0.5000-0.4946 ( 41972 PWs)   bands (ev):

   -45.9790 -45.9790 -45.9790 -45.9790 -45.9780 -45.9780 -45.9780 -45.9780
   -22.4025 -22.4025 -22.4025 -22.4025 -22.4000 -22.4000 -22.4000 -22.4000
   -22.3683 -22.3683 -22.3683 -22.3683 -22.3445 -22.3445 -22.3445 -22.3445
   -22.3420 -22.3420 -22.3420 -22.3420 -22.3181 -22.3181 -22.3180 -22.3180
   -14.4319 -14.4319 -14.4318 -14.4318 -14.3495 -14.3495 -14.3494 -14.3494
    -6.5375  -6.5375  -6.5374  -6.5374  -6.3260  -6.3260  -6.3259  -6.3258
    -5.9243  -5.9243  -5.9242  -5.9242  -5.7947  -5.7947  -5.7947  -5.7946
    -5.7846  -5.7846  -5.7845  -5.7845  -5.7019  -5.7019  -5.7017  -5.7017
    -0.0173  -0.0173  -0.0173  -0.0173   0.1185   0.1185   0.1185   0.1186
     0.2569   0.2569   0.2569   0.2569   0.3802   0.3802   0.3802   0.3802
     0.4677   0.4678   0.4678   0.4678   0.6283   0.6283   0.6283   0.6283
     6.1370   6.1370   6.1371   6.1371   6.6885   6.6885   6.6885   6.6885
     6.8316   6.8316   6.8316   6.8316   7.0595   7.0595   7.0596   7.0596
     7.0789   7.0789   7.0790   7.0790   7.1867   7.1867   7.1868   7.1868
     7.4664   7.4664   7.4664   7.4664   7.7028   7.7028   7.7028   7.7028
     7.7218   7.7219   7.7219   7.7219   7.9279   7.9279   7.9279   7.9279
     8.0136   8.0136   8.0137   8.0137   8.6217   8.6217   8.6217   8.6217
     9.1505   9.1505   9.1506   9.1506   9.2450   9.2450   9.2450   9.2451
     9.2660   9.2660   9.2661   9.2661   9.5417   9.5417   9.5417   9.5417
     9.6370   9.6370   9.6370   9.6370   9.7170   9.7170   9.7171   9.7171
    13.0470  13.0470  13.0471  13.0471  13.2237  13.2237  13.2238  13.2238
    13.3936  13.3936  13.3937  13.3937  13.5994  13.5995  13.5995  13.5995
    13.9778  13.9778  13.9778  13.9778  14.0214  14.0214  14.0214  14.0214
    15.0644  15.0644  15.0644  15.0644  16.2094  16.2094  16.2095  16.2095
    16.3128  16.3129  16.3129  16.3130  16.8382  16.8382  16.8383  16.8384

          k = 0.2500 0.2500 0.0000 ( 41984 PWs)   bands (ev):

   -45.9797 -45.9789 -45.9789 -45.9788 -45.9782 -45.9780 -45.9780 -45.9773
   -22.4277 -22.4252 -22.4252 -22.4231 -22.3786 -22.3770 -22.3770 -22.3755
   -22.3650 -22.3650 -22.3628 -22.3624 -22.3620 -22.3620 -22.3602 -22.3600
   -22.3261 -22.3257 -22.3241 -22.3241 -22.3238 -22.3236 -22.3222 -22.3222
   -14.5079 -14.4246 -14.4245 -14.4049 -14.3637 -14.3489 -14.3488 -14.2980
    -6.7321  -6.7321  -6.6463  -6.6058  -6.4456  -6.2288  -6.2288  -5.9219
    -5.9009  -5.9009  -5.8764  -5.8764  -5.8507  -5.8280  -5.8098  -5.8052
    -5.7969  -5.7685  -5.7612  -5.7590  -5.7590  -5.6580  -5.6580  -5.6510
    -0.3546  -0.2333  -0.1364   0.1190   0.1190   0.2206   0.2377   0.2377
     0.2739   0.2894   0.3216   0.3615   0.3710   0.3710   0.4364   0.4513
     0.4514   0.5017   0.5017   0.5378   0.5837   0.5981   0.6038   0.6038
     5.9105   6.0118   6.0118   6.1217   6.1364   6.3782   6.3782   6.4217
     6.4217   6.4950   6.5163   6.6248   6.6248   6.6414   6.6469   7.1220
     7.3677   7.3907   7.3907   7.4321   7.4592   7.4690   7.4690   7.4862
     7.5032   7.5270   7.5270   7.6052   7.6052   7.6151   7.6782   7.6782
     7.7462   7.7502   7.7966   7.8248   7.8467   8.0688   8.0688   8.2588
     8.2588   8.4334   8.5193   8.5193   8.5418   8.5931   8.8482   8.8483
     8.9413   8.9508   8.9761   9.0444   9.0555   9.1158   9.1826   9.2596
     9.2596   9.2879   9.2879   9.3216   9.3619   9.3619   9.4568   9.4568
     9.7952   9.7993   9.8928   9.9274   9.9397   9.9397  10.0055  10.0256
    12.4531  12.5935  12.5998  12.6073  12.6073  12.7113  13.5785  13.6043
    13.6043  13.6312  13.6312  13.6980  13.7154  13.7154  13.8419  13.8745
    13.9208  13.9208  14.0067  14.1485  14.1485  14.2360  14.3237  14.3334
    14.6881  14.7145  14.7145  15.0048  15.0169  15.0301  15.6272  15.6272
    15.6806  15.7755  16.2375  16.2375  16.6931  17.0421  17.0904  17.0932

          k = 0.2500 0.2500 0.1236 ( 41972 PWs)   bands (ev):

   -45.9797 -45.9789 -45.9789 -45.9788 -45.9781 -45.9781 -45.9781 -45.9773
   -22.4259 -22.4234 -22.4234 -22.4213 -22.3805 -22.3788 -22.3788 -22.3773
   -22.3649 -22.3649 -22.3627 -22.3623 -22.3621 -22.3621 -22.3603 -22.3601
   -22.3260 -22.3256 -22.3241 -22.3241 -22.3239 -22.3237 -22.3223 -22.3223
   -14.5041 -14.4217 -14.4217 -14.4089 -14.3613 -14.3518 -14.3518 -14.3005
    -6.7144  -6.7144  -6.6374  -6.5984  -6.4268  -6.2488  -6.2488  -5.9264
    -5.9006  -5.9006  -5.8852  -5.8747  -5.8747  -5.8487  -5.7996  -5.7990
    -5.7832  -5.7753  -5.7593  -5.7545  -5.7545  -5.6638  -5.6638  -5.6573
    -0.3336  -0.2477  -0.0762   0.1299   0.1299   0.1976   0.2294   0.2295
     0.2746   0.2889   0.3034   0.3110   0.3494   0.3494   0.4361   0.4361
     0.4696   0.4874   0.5196   0.5197   0.5927   0.6181   0.6181   0.6214
     5.9510   6.0540   6.0540   6.1367   6.1780   6.4013   6.4013   6.4120
     6.4120   6.5303   6.5382   6.6412   6.6464   6.6472   6.6472   7.1331
     7.3513   7.3513   7.3552   7.4439   7.4454   7.4751   7.4751   7.5058
     7.5088   7.5088   7.5150   7.6227   7.6227   7.6237   7.6807   7.6807
     7.7417   7.7439   7.7789   7.7821   7.8609   7.9655   7.9655   8.2673
     8.2674   8.4068   8.4473   8.5133   8.6061   8.6061   8.8705   8.8706
     8.8787   8.9583   8.9949   9.0845   9.0891   9.1426   9.2094   9.2276
     9.2276   9.2471   9.2471   9.3372   9.3920   9.3920   9.4162   9.4162
     9.7551   9.7745   9.8565   9.8947   9.9227   9.9227  10.0085  10.0232
    12.4970  12.6201  12.6335  12.6622  12.6622  12.7059  13.6068  13.6101
    13.6101  13.6382  13.6382  13.7100  13.7100  13.7172  13.7893  13.8238
    13.8731  13.8731  14.0154  14.1151  14.1151  14.2249  14.2912  14.3024
    14.7985  14.8096  14.8096  15.0063  15.0286  15.1379  15.6251  15.6251
    15.7407  15.8424  16.2619  16.2619  16.6377  17.0454  17.1277  17.1420

          k = 0.2500 0.2500 0.2473 ( 41946 PWs)   bands (ev):

   -45.9796 -45.9789 -45.9788 -45.9788 -45.9782 -45.9782 -45.9780 -45.9774
   -22.4206 -22.4182 -22.4182 -22.4162 -22.3858 -22.3841 -22.3841 -22.3825
   -22.3646 -22.3646 -22.3624 -22.3624 -22.3624 -22.3620 -22.3606 -22.3603
   -22.3258 -22.3253 -22.3242 -22.3239 -22.3239 -22.3239 -22.3225 -22.3225
   -14.4931 -14.4203 -14.4137 -14.4136 -14.3602 -14.3601 -14.3542 -14.3077
    -6.6634  -6.6634  -6.6142  -6.5809  -6.3725  -6.3065  -6.3065  -5.9726
    -5.9353  -5.8955  -5.8955  -5.8707  -5.8707  -5.8429  -5.8225  -5.8049
    -5.7837  -5.7543  -5.7521  -5.7450  -5.7450  -5.6797  -5.6797  -5.6748
    -0.2734  -0.2378   0.0459   0.1327   0.1587   0.1587   0.1923   0.2188
     0.2189   0.2767   0.2825   0.2876   0.3002   0.3002   0.3990   0.3991
     0.4177   0.5325   0.5546   0.5608   0.5608   0.6406   0.6407   0.6546
     6.0410   6.1382   6.1514   6.1514   6.3376   6.3859   6.3859   6.4829
     6.4829   6.6276   6.6310   6.6409   6.6452   6.7238   6.7238   7.1771
     7.2215   7.2215   7.3039   7.3173   7.4756   7.4756   7.4796   7.4860
     7.4860   7.5281   7.6106   7.6106   7.6309   7.6462   7.6766   7.6767
     7.6767   7.7153   7.7365   7.7462   7.8868   7.8868   7.9017   8.1918
     8.2877   8.2877   8.3261   8.3526   8.5659   8.5659   8.7963   8.9838
     9.0054   9.0332   9.0332   9.0713   9.1424   9.1424   9.1502   9.2312
     9.2312   9.2698   9.2867   9.3501   9.3501   9.3826   9.3999   9.3999
     9.6665   9.7168   9.7510   9.8097   9.8678   9.8678  10.0095  10.0174
    12.5666  12.6906  12.7281  12.7524  12.8138  12.8138  13.6252  13.6252
    13.6415  13.6634  13.6635  13.6794  13.6830  13.6830  13.6852  13.7503
    13.7503  13.7730  14.0265  14.0266  14.0400  14.1838  14.2052  14.2272
    15.0100  15.0254  15.0448  15.0448  15.0893  15.4655  15.6130  15.6130
    15.9116  16.0398  16.3477  16.3477  16.4742  16.9936  17.4228  17.4228

          k = 0.2500 0.2500 0.3709 ( 41952 PWs)   bands (ev):

   -45.9794 -45.9791 -45.9787 -45.9787 -45.9783 -45.9783 -45.9779 -45.9775
   -22.4127 -22.4104 -22.4104 -22.4085 -22.3938 -22.3919 -22.3919 -22.3903
   -22.3641 -22.3641 -22.3629 -22.3629 -22.3620 -22.3616 -22.3610 -22.3607
   -22.3254 -22.3250 -22.3245 -22.3242 -22.3235 -22.3235 -22.3228 -22.3228
   -14.4766 -14.4372 -14.4015 -14.4015 -14.3726 -14.3725 -14.3437 -14.3185
    -6.5862  -6.5855  -6.5855  -6.5659  -6.3923  -6.3923  -6.2891  -6.0766
    -5.9357  -5.8837  -5.8837  -5.8725  -5.8684  -5.8684  -5.8343  -5.8137
    -5.7595  -5.7480  -5.7429  -5.7342  -5.7342  -5.7008  -5.7008  -5.7006
    -0.1825  -0.1808   0.0371   0.0514   0.1865   0.1865   0.1921   0.2372
     0.2372   0.2487   0.2487   0.2795   0.2824   0.2855   0.3477   0.3477
     0.3544   0.4675   0.5944   0.6045   0.6045   0.6492   0.6492   0.6617
     6.1109   6.1405   6.2411   6.2411   6.3487   6.3487   6.5737   6.6341
     6.6341   6.6411   6.6435   6.7791   6.8185   6.8819   6.8819   7.0264
     7.0264   7.1071   7.2066   7.2660   7.3587   7.3587   7.4645   7.4951
     7.4951   7.5301   7.5301   7.5367   7.5405   7.6690   7.6747   7.7227
     7.7359   7.7557   7.7557   7.8076   7.8676   7.8676   7.9038   7.9673
     8.1905   8.1916   8.3110   8.3111   8.4373   8.4373   8.7504   8.8493
     9.0704   9.0904   9.0904   9.1247   9.1247   9.1659   9.2129   9.2394
     9.2394   9.3630   9.3630   9.3919   9.4043   9.4276   9.4276   9.4533
     9.5833   9.5895   9.6338   9.6874   9.7663   9.7663  10.0079  10.0113
    12.6059  12.6671  12.9419  12.9451  13.0310  13.0310  13.4254  13.4628
    13.5172  13.5172  13.6455  13.6455  13.6932  13.6932  13.7159  13.7159
    13.7999  13.8597  13.9111  13.9112  14.0747  14.0772  14.0901  14.1704
    15.0142  15.0218  15.3026  15.3026  15.4731  15.5751  15.5751  15.9141
    16.1703  16.2112  16.3560  16.5273  16.5273  16.7736  16.8204  17.1383

          k = 0.2500 0.2500-0.4946 ( 41938 PWs)   bands (ev):

   -45.9792 -45.9792 -45.9785 -45.9785 -45.9785 -45.9785 -45.9777 -45.9777
   -22.4033 -22.4033 -22.4012 -22.4012 -22.4012 -22.4012 -22.3994 -22.3994
   -22.3635 -22.3635 -22.3635 -22.3635 -22.3615 -22.3615 -22.3612 -22.3612
   -22.3250 -22.3250 -22.3246 -22.3246 -22.3232 -22.3232 -22.3232 -22.3232
   -14.4571 -14.4570 -14.3871 -14.3871 -14.3870 -14.3870 -14.3312 -14.3311
    -6.5669  -6.5667  -6.4907  -6.4906  -6.4905  -6.4905  -6.1864  -6.1863
    -5.9150  -5.9149  -5.8725  -5.8725  -5.8724  -5.8724  -5.8241  -5.8239
    -5.7430  -5.7429  -5.7305  -5.7304  -5.7203  -5.7203  -5.7202  -5.7201
    -0.0801  -0.0800  -0.0737  -0.0736   0.2101   0.2101   0.2101   0.2101
     0.2826   0.2827   0.2892   0.2893   0.2893   0.2893   0.3072   0.3072
     0.3401   0.3401   0.6365   0.6366   0.6366   0.6366   0.6404   0.6404
     6.1370   6.1371   6.3025   6.3025   6.3026   6.3026   6.6420   6.6420
     6.8217   6.8217   6.8218   6.8218   6.8454   6.8455   6.9208   6.9208
     7.1224   7.1224   7.1226   7.1226   7.2443   7.2444   7.3946   7.3947
     7.5058   7.5058   7.5059   7.5059   7.6053   7.6054   7.7017   7.7018
     7.7677   7.7677   7.8284   7.8284   7.8284   7.8284   8.0068   8.0069
     8.0616   8.0617   8.3489   8.3489   8.3489   8.3489   8.7622   8.7623
     9.0939   9.0939   9.0939   9.0939   9.1324   9.1325   9.2973   9.2973
     9.2974   9.2974   9.3979   9.3979   9.4968   9.4968   9.5409   9.5410
     9.5451   9.5451   9.6126   9.6127   9.6127   9.6127  10.0077  10.0079
    12.6381  12.6382  13.1784  13.1785  13.2054  13.2055  13.2777  13.2777
    13.2778  13.2778  13.6685  13.6685  13.6686  13.6686  13.8005  13.8005
    13.8005  13.8005  13.9358  13.9358  13.9693  13.9693  14.1223  14.1224
    15.0182  15.0182  15.4831  15.4831  15.4832  15.4832  15.8663  15.8664
    16.3837  16.3839  16.4854  16.4856  16.7647  16.7649  16.8112  16.8113

          k = 0.2500 0.3750 0.0000 ( 41943 PWs)   bands (ev):

   -45.9795 -45.9791 -45.9788 -45.9786 -45.9783 -45.9782 -45.9778 -45.9774
   -22.4271 -22.4258 -22.4247 -22.4236 -22.3782 -22.3774 -22.3767 -22.3758
   -22.3645 -22.3631 -22.3615 -22.3605 -22.3561 -22.3538 -22.3532 -22.3514
   -22.3349 -22.3330 -22.3325 -22.3309 -22.3255 -22.3245 -22.3234 -22.3225
   -14.4891 -14.4440 -14.4108 -14.3922 -14.3778 -14.3619 -14.3373 -14.3098
    -6.6888  -6.6635  -6.6173  -6.5594  -6.5067  -6.3362  -6.1408  -5.9220
    -5.9037  -5.8826  -5.8820  -5.8702  -5.8562  -5.8367  -5.8362  -5.8146
    -5.7986  -5.7813  -5.7582  -5.7516  -5.7327  -5.7253  -5.6909  -5.6725
    -0.2736  -0.1282  -0.0138   0.0189   0.1258   0.1349   0.2227   0.2361
     0.2788   0.3124   0.3185   0.3342   0.3498   0.3594   0.4195   0.4281
     0.4802   0.4946   0.4984   0.5306   0.5555   0.5643   0.5655   0.5828
     5.9674   6.0080   6.0643   6.1077   6.2407   6.3766   6.4910   6.4967
     6.5479   6.6702   6.6975   6.7257   6.8155   6.8445   6.8541   6.9004
     7.1795   7.1916   7.2518   7.3379   7.3777   7.4170   7.4286   7.4544
     7.4654   7.5198   7.5306   7.6217   7.6522   7.6550   7.6666   7.7290
     7.7304   7.7834   7.8079   7.8081   7.8639   7.9679   8.0049   8.1606
     8.2528   8.3884   8.4430   8.4476   8.4979   8.5566   8.7180   8.8521
     8.8798   8.9020   8.9832   9.0132   9.0258   9.1504   9.1792   9.2531
     9.2861   9.2968   9.3260   9.3846   9.4254   9.4658   9.5442   9.5647
     9.6815   9.7314   9.7671   9.7700   9.8001   9.9270   9.9429   9.9671
    12.5187  12.5842  12.7810  12.8140  12.8279  12.9529  13.3554  13.3621
    13.3852  13.4926  13.6245  13.6546  13.6715  13.8241  13.8610  13.8793
    13.8986  13.9064  13.9920  14.0456  14.1037  14.1898  14.2136  14.2876
    14.7245  14.7252  14.8786  15.0140  15.2712  15.3740  15.5789  16.0239
    16.0261  16.0761  16.0786  16.5253  16.7625  16.8740  16.8902  17.0216

          k = 0.2500 0.3750 0.1236 ( 41942 PWs)   bands (ev):

   -45.9795 -45.9791 -45.9787 -45.9786 -45.9783 -45.9782 -45.9779 -45.9775
   -22.4253 -22.4239 -22.4229 -22.4218 -22.3801 -22.3792 -22.3785 -22.3777
   -22.3644 -22.3630 -22.3617 -22.3606 -22.3560 -22.3537 -22.3533 -22.3515
   -22.3348 -22.3329 -22.3326 -22.3310 -22.3254 -22.3245 -22.3234 -22.3226
   -14.4855 -14.4409 -14.4080 -14.3959 -14.3753 -14.3650 -14.3401 -14.3124
    -6.6730  -6.6455  -6.6070  -6.5535  -6.4881  -6.3434  -6.1634  -5.9606
    -5.9082  -5.8822  -5.8790  -5.8788  -5.8538  -5.8350  -5.8188  -5.8131
    -5.8100  -5.7825  -5.7561  -5.7514  -5.7313  -5.7299  -5.6947  -5.6773
    -0.2550  -0.1449   0.0007   0.0747   0.1090   0.1423   0.2142   0.2246
     0.2773   0.2953   0.2963   0.3233   0.3251   0.3597   0.3882   0.3948
     0.4265   0.4444   0.5302   0.5544   0.5909   0.6034   0.6057   0.6102
     6.0120   6.0514   6.1118   6.1613   6.2372   6.3678   6.5085   6.5129
     6.5611   6.6553   6.7106   6.7425   6.8204   6.8396   6.8725   6.9170
     7.1555   7.1857   7.2180   7.3557   7.3753   7.4182   7.4244   7.4586
     7.4836   7.5292   7.5494   7.5895   7.6378   7.6626   7.6768   7.7260
     7.7291   7.7398   7.7930   7.8197   7.8821   7.9305   7.9725   8.0532
     8.2372   8.3744   8.3828   8.4283   8.4562   8.5977   8.6801   8.8280
     8.9312   8.9457   8.9913   9.0486   9.0765   9.1371   9.1755   9.2626
     9.2641   9.3269   9.3532   9.3653   9.3678   9.5038   9.5110   9.5519
     9.6489   9.7068   9.7192   9.7825   9.7926   9.9218   9.9228   9.9510
    12.5715  12.6388  12.8053  12.8421  12.8614  12.9474  13.3648  13.3937
    13.3945  13.4873  13.6353  13.6728  13.6790  13.8093  13.8164  13.8496
    13.8575  13.8880  13.9471  14.0060  14.0931  14.1568  14.1774  14.2553
    14.8210  14.8274  14.9878  15.1343  15.2728  15.3825  15.5770  16.0454
    16.0758  16.0769  16.1419  16.5346  16.8024  16.8174  16.9076  17.3639

          k = 0.2500 0.3750 0.2473 ( 41937 PWs)   bands (ev):

   -45.9794 -45.9790 -45.9787 -45.9786 -45.9783 -45.9782 -45.9780 -45.9776
   -22.4200 -22.4187 -22.4177 -22.4166 -22.3854 -22.3845 -22.3837 -22.3829
   -22.3640 -22.3628 -22.3620 -22.3609 -22.3557 -22.3537 -22.3534 -22.3518
   -22.3346 -22.3329 -22.3327 -22.3312 -22.3252 -22.3242 -22.3237 -22.3228
   -14.4752 -14.4321 -14.4066 -14.4002 -14.3741 -14.3680 -14.3482 -14.3199
    -6.6282  -6.5938  -6.5805  -6.5394  -6.4346  -6.3688  -6.2262  -6.0421
    -5.9190  -5.8942  -5.8823  -5.8695  -5.8483  -5.8481  -5.8304  -5.7973
    -5.7957  -5.7885  -5.7538  -5.7505  -5.7409  -5.7293  -5.7046  -5.6911
    -0.2034  -0.1468   0.0413   0.0868   0.1509   0.1627   0.1908   0.2299
     0.2350   0.2371   0.2659   0.2707   0.2871   0.2952   0.3377   0.3480
     0.3748   0.4713   0.5936   0.5955   0.6034   0.6454   0.6531   0.6554
     6.1134   6.1501   6.2302   6.2315   6.3104   6.3445   6.5664   6.5888
     6.6130   6.6227   6.7416   6.7970   6.8312   6.8434   6.9328   6.9744
     7.0647   7.1161   7.1920   7.2981   7.3788   7.3963   7.4373   7.5274
     7.5326   7.5374   7.5448   7.5534   7.5700   7.6580   7.6903   7.7132
     7.7199   7.7266   7.7612   7.8229   7.8243   7.8541   7.9532   7.9831
     8.1659   8.2113   8.2417   8.3629   8.3636   8.5404   8.6075   8.7342
     9.0557   9.0840   9.0951   9.1052   9.1190   9.1672   9.2151   9.2561
     9.2898   9.2970   9.3388   9.3711   9.4169   9.4614   9.5223   9.5228
     9.5800   9.6335   9.6545   9.7524   9.7657   9.8592   9.9086   9.9150
    12.7093  12.7897  12.8559  12.9164  12.9316  12.9929  13.3879  13.4266
    13.4704  13.4841  13.6653  13.6662  13.7030  13.7112  13.7214  13.7257
    13.7798  13.8364  13.8992  13.9128  14.0525  14.0688  14.0886  14.1693
    15.0562  15.0698  15.2719  15.2759  15.4356  15.4595  15.5674  16.0700
    16.1246  16.2190  16.3292  16.5695  16.6503  16.9141  16.9170  17.1900

          k = 0.2500 0.3750 0.3709 ( 41954 PWs)   bands (ev):

   -45.9792 -45.9789 -45.9788 -45.9785 -45.9785 -45.9781 -45.9781 -45.9777
   -22.4121 -22.4109 -22.4100 -22.4089 -22.3934 -22.3924 -22.3916 -22.3907
   -22.3636 -22.3624 -22.3623 -22.3613 -22.3552 -22.3541 -22.3531 -22.3522
   -22.3342 -22.3333 -22.3324 -22.3316 -22.3248 -22.3240 -22.3239 -22.3231
   -14.4596 -14.4226 -14.4190 -14.3884 -14.3876 -14.3603 -14.3571 -14.3310
    -6.5619  -6.5493  -6.5269  -6.5145  -6.4177  -6.3523  -6.3164  -6.1433
    -5.9269  -5.9009  -5.8894  -5.8867  -5.8560  -5.8433  -5.8217  -5.7985
    -5.7817  -5.7808  -5.7545  -5.7513  -5.7469  -5.7284  -5.7168  -5.7115
    -0.1341  -0.0968   0.0541   0.0786   0.1103   0.1114   0.1662   0.1900
     0.2371   0.2520   0.2522   0.2540   0.2682   0.2777   0.2983   0.3191
     0.3242   0.5466   0.5525   0.6488   0.6494   0.6500   0.6784   0.6833
     6.1916   6.2251   6.2322   6.3136   6.3630   6.5213   6.5491   6.6944
     6.7364   6.7454   6.7654   6.8558   6.8990   6.9183   6.9495   6.9534
     7.0522   7.0850   7.1215   7.1869   7.3435   7.4235   7.4365   7.4430
     7.4531   7.4614   7.4672   7.5741   7.5929   7.6917   7.6990   7.7167
     7.7252   7.7330   7.7458   7.7760   7.7835   7.9142   7.9257   7.9421
     8.0032   8.0235   8.1279   8.1940   8.3344   8.4118   8.5486   8.6068
     9.1001   9.1752   9.1832   9.1865   9.1887   9.2243   9.2331   9.3212
     9.3518   9.3572   9.3791   9.3829   9.4883   9.4994   9.5021   9.5092
     9.5099   9.5120   9.5984   9.6639   9.7087   9.7450   9.8893   9.8935
    12.8273  12.9067  12.9865  13.0054  13.0690  13.1830  13.4157  13.4270
    13.4571  13.4988  13.5075  13.5378  13.6151  13.6179  13.7071  13.7536
    13.7557  13.7822  13.8093  13.9265  13.9505  13.9533  14.0213  14.0629
    15.2332  15.2770  15.3044  15.5378  15.6198  15.6656  15.9053  16.0270
    16.3022  16.3816  16.4400  16.6316  16.6570  16.7548  16.9165  17.0203

          k = 0.2500 0.3750-0.4946 ( 41952 PWs)   bands (ev):

   -45.9791 -45.9791 -45.9787 -45.9787 -45.9783 -45.9783 -45.9779 -45.9779
   -22.4028 -22.4028 -22.4017 -22.4017 -22.4008 -22.4008 -22.3998 -22.3998
   -22.3630 -22.3630 -22.3619 -22.3618 -22.3547 -22.3547 -22.3526 -22.3526
   -22.3337 -22.3337 -22.3320 -22.3320 -22.3244 -22.3244 -22.3235 -22.3235
   -14.4412 -14.4411 -14.4034 -14.4033 -14.3744 -14.3743 -14.3441 -14.3440
    -6.5286  -6.5285  -6.4866  -6.4865  -6.4177  -6.4175  -6.2512  -6.2510
    -5.9189  -5.9188  -5.8955  -5.8955  -5.8454  -5.8453  -5.8104  -5.8103
    -5.7750  -5.7749  -5.7555  -5.7554  -5.7333  -5.7332  -5.7255  -5.7254
    -0.0501  -0.0501  -0.0016  -0.0016   0.1093   0.1094   0.1867   0.1868
     0.2175   0.2175   0.2442   0.2443   0.2662   0.2662   0.2865   0.2865
     0.4502   0.4502   0.6167   0.6167   0.6769   0.6770   0.6810   0.6810
     6.2187   6.2188   6.2788   6.2789   6.4673   6.4673   6.7479   6.7479
     6.7745   6.7746   6.8283   6.8283   6.9278   6.9279   6.9422   6.9422
     7.1406   7.1407   7.2423   7.2423   7.2458   7.2459   7.2715   7.2716
     7.4435   7.4436   7.5228   7.5229   7.6192   7.6193   7.7188   7.7189
     7.7613   7.7613   7.7895   7.7895   7.8642   7.8643   7.8678   7.8679
     8.0085   8.0085   8.0642   8.0642   8.3343   8.3344   8.5380   8.5381
     9.1453   9.1454   9.1993   9.1993   9.2279   9.2280   9.3513   9.3514
     9.3528   9.3528   9.4345   9.4346   9.4869   9.4870   9.5297   9.5298
     9.5482   9.5482   9.5787   9.5787   9.6140   9.6141   9.8843   9.8844
    12.8739  12.8740  13.2182  13.2182  13.2463  13.2464  13.2775  13.2775
    13.4017  13.4018  13.4496  13.4497  13.6126  13.6127  13.7456  13.7457
    13.7693  13.7693  13.8406  13.8407  13.9162  13.9162  13.9976  13.9976
    15.2702  15.2702  15.4636  15.4637  15.8930  15.8931  16.0339  16.0340
    16.3727  16.3729  16.5912  16.5913  16.7164  16.7166  16.8450  16.8451

          k = 0.2500-0.5000 0.0000 ( 41940 PWs)   bands (ev):

   -45.9793 -45.9793 -45.9786 -45.9786 -45.9784 -45.9784 -45.9776 -45.9776
   -22.4265 -22.4265 -22.4242 -22.4242 -22.3778 -22.3778 -22.3762 -22.3762
   -22.3638 -22.3638 -22.3610 -22.3610 -22.3455 -22.3455 -22.3434 -22.3434
   -22.3429 -22.3429 -22.3412 -22.3412 -22.3250 -22.3250 -22.3230 -22.3230
   -14.4667 -14.4666 -14.3944 -14.3944 -14.3771 -14.3771 -14.3236 -14.3236
    -6.6465  -6.6465  -6.5837  -6.5837  -6.4518  -6.4518  -6.0338  -6.0338
    -5.8908  -5.8908  -5.8595  -5.8595  -5.8341  -5.8340  -5.8336  -5.8336
    -5.7916  -5.7916  -5.7669  -5.7669  -5.7255  -5.7255  -5.7020  -5.7020
    -0.1535  -0.1535  -0.0027  -0.0027   0.1694   0.1694   0.1911   0.1912
     0.2704   0.2704   0.3007   0.3007   0.3840   0.3840   0.4037   0.4038
     0.4881   0.4881   0.5350   0.5350   0.5455   0.5455   0.5510   0.5510
     5.9963   5.9963   6.0911   6.0911   6.3193   6.3193   6.5385   6.5385
     6.6741   6.6742   6.9247   6.9247   6.9280   6.9280   6.9626   6.9626
     7.0952   7.0952   7.1197   7.1198   7.1833   7.1833   7.4431   7.4432
     7.5252   7.5253   7.5478   7.5478   7.6991   7.6991   7.7148   7.7148
     7.7492   7.7492   7.8366   7.8366   7.8747   7.8747   8.0655   8.0655
     8.2896   8.2897   8.4404   8.4404   8.5372   8.5372   8.6584   8.6584
     8.9621   8.9621   8.9693   8.9693   9.0794   9.0794   9.1840   9.1841
     9.2366   9.2367   9.5318   9.5318   9.5939   9.5939   9.5947   9.5947
     9.6069   9.6069   9.6416   9.6416   9.7717   9.7717   9.9510   9.9510
    12.5551  12.5551  13.0618  13.0618  13.0830  13.0830  13.1043  13.1043
    13.2266  13.2266  13.6387  13.6387  13.7586  13.7586  13.8867  13.8867
    13.9543  13.9543  13.9594  13.9594  14.0949  14.0949  14.2385  14.2385
    14.7299  14.7299  14.9752  14.9753  15.4684  15.4684  15.7282  15.7282
    16.3964  16.3965  16.5154  16.5154  16.5298  16.5298  16.8829  17.1328

          k = 0.2500-0.5000 0.1236 ( 41926 PWs)   bands (ev):

   -45.9793 -45.9793 -45.9785 -45.9785 -45.9784 -45.9784 -45.9777 -45.9777
   -22.4246 -22.4246 -22.4223 -22.4223 -22.3797 -22.3797 -22.3781 -22.3781
   -22.3637 -22.3637 -22.3611 -22.3611 -22.3454 -22.3454 -22.3433 -22.3433
   -22.3430 -22.3430 -22.3413 -22.3413 -22.3249 -22.3249 -22.3230 -22.3230
   -14.4633 -14.4633 -14.3917 -14.3917 -14.3806 -14.3805 -14.3263 -14.3263
    -6.6333  -6.6333  -6.5654  -6.5654  -6.4508  -6.4508  -6.0614  -6.0614
    -5.8925  -5.8925  -5.8517  -5.8517  -5.8469  -5.8469  -5.8303  -5.8302
    -5.7937  -5.7937  -5.7668  -5.7668  -5.7270  -5.7270  -5.7039  -5.7039
    -0.1373  -0.1373  -0.0209  -0.0209   0.1738   0.1738   0.2393   0.2393
     0.2483   0.2484   0.2971   0.2971   0.3509   0.3509   0.3723   0.3723
     0.4015   0.4015   0.5797   0.5797   0.5835   0.5835   0.5945   0.5945
     6.0411   6.0411   6.1417   6.1417   6.3123   6.3123   6.5496   6.5497
     6.6947   6.6947   6.9161   6.9162   6.9194   6.9194   6.9391   6.9392
     7.1031   7.1032   7.1366   7.1367   7.2008   7.2008   7.4674   7.4674
     7.5218   7.5218   7.5348   7.5348   7.6742   7.6742   7.7002   7.7002
     7.7587   7.7587   7.8315   7.8315   7.8449   7.8449   8.0738   8.0738
     8.1985   8.1985   8.4048   8.4048   8.5140   8.5140   8.6590   8.6590
     8.9968   8.9968   9.0209   9.0209   9.0815   9.0815   9.1732   9.1733
     9.2646   9.2646   9.5088   9.5089   9.5379   9.5379   9.5991   9.5991
     9.6138   9.6138   9.6424   9.6424   9.7631   9.7631   9.9295   9.9295
    12.6093  12.6093  13.0776  13.0777  13.1146  13.1146  13.1223  13.1223
    13.2212  13.2212  13.6537  13.6537  13.7669  13.7669  13.8365  13.8365
    13.9091  13.9091  13.9498  13.9498  14.0540  14.0540  14.2059  14.2059
    14.8279  14.8279  15.0925  15.0925  15.4682  15.4682  15.7447  15.7447
    16.4409  16.4410  16.5361  16.5361  16.5697  16.5697  16.8839  16.8869

          k = 0.2500-0.5000 0.2473 ( 41944 PWs)   bands (ev):

   -45.9792 -45.9792 -45.9785 -45.9785 -45.9784 -45.9784 -45.9778 -45.9778
   -22.4194 -22.4194 -22.4172 -22.4172 -22.3850 -22.3850 -22.3833 -22.3833
   -22.3634 -22.3634 -22.3614 -22.3614 -22.3451 -22.3451 -22.3433 -22.3433
   -22.3431 -22.3431 -22.3415 -22.3415 -22.3247 -22.3247 -22.3233 -22.3233
   -14.4538 -14.4538 -14.3904 -14.3904 -14.3842 -14.3841 -14.3341 -14.3341
    -6.5969  -6.5969  -6.5128  -6.5128  -6.4520  -6.4520  -6.1323  -6.1323
    -5.8988  -5.8988  -5.8757  -5.8757  -5.8358  -5.8358  -5.8217  -5.8217
    -5.7966  -5.7966  -5.7697  -5.7697  -5.7309  -5.7309  -5.7104  -5.7104
    -0.0934  -0.0934  -0.0341  -0.0341   0.1848   0.1848   0.1860   0.1861
     0.2854   0.2854   0.2908   0.2908   0.2981   0.2981   0.3211   0.3211
     0.3407   0.3407   0.6289   0.6289   0.6364   0.6364   0.6376   0.6376
     6.1428   6.1428   6.2779   6.2779   6.2950   6.2950   6.6062   6.6062
     6.7639   6.7639   6.8699   6.8699   6.8903   6.8903   6.9166   6.9166
     7.1251   7.1251   7.1867   7.1867   7.2364   7.2364   7.4254   7.4254
     7.5319   7.5320   7.5355   7.5355   7.6033   7.6033   7.7082   7.7082
     7.7870   7.7870   7.7895   7.7895   7.8190   7.8190   8.0233   8.0233
     8.0741   8.0741   8.2499   8.2499   8.4566   8.4566   8.5788   8.5788
     9.0983   9.0984   9.1063   9.1063   9.1370   9.1370   9.2025   9.2025
     9.3174   9.3175   9.4622   9.4622   9.4633   9.4633   9.5674   9.5674
     9.6092   9.6092   9.6558   9.6558   9.7414   9.7414   9.8645   9.8645
    12.7582  12.7582  13.1133  13.1133  13.1606  13.1606  13.2051  13.2051
    13.2313  13.2314  13.6963  13.6963  13.6978  13.6978  13.7839  13.7840
    13.7910  13.7910  13.9089  13.9090  13.9548  13.9549  14.1186  14.1186
    15.0649  15.0649  15.4069  15.4069  15.4650  15.4650  15.8131  15.8132
    16.5375  16.5375  16.5653  16.5654  16.7373  16.7373  16.9068  16.9083

          k = 0.2500-0.5000 0.3709 ( 41940 PWs)   bands (ev):

   -45.9790 -45.9790 -45.9787 -45.9787 -45.9783 -45.9783 -45.9779 -45.9779
   -22.4115 -22.4115 -22.4094 -22.4094 -22.3929 -22.3929 -22.3911 -22.3911
   -22.3630 -22.3630 -22.3619 -22.3619 -22.3447 -22.3447 -22.3437 -22.3437
   -22.3427 -22.3427 -22.3419 -22.3419 -22.3244 -22.3244 -22.3236 -22.3236
   -14.4394 -14.4394 -14.4051 -14.4051 -14.3728 -14.3728 -14.3457 -14.3457
    -6.5470  -6.5470  -6.4653  -6.4653  -6.4319  -6.4319  -6.2281  -6.2281
    -5.9088  -5.9088  -5.9025  -5.9025  -5.8205  -5.8205  -5.8129  -5.8129
    -5.7946  -5.7945  -5.7773  -5.7773  -5.7338  -5.7338  -5.7207  -5.7207
    -0.0437  -0.0437   0.0048   0.0048   0.0964   0.0964   0.1872   0.1873
     0.2032   0.2032   0.2502   0.2502   0.2774   0.2774   0.2838   0.2838
     0.4524   0.4524   0.6127   0.6127   0.6786   0.6786   0.6787   0.6787
     6.2222   6.2222   6.2753   6.2753   6.4539   6.4539   6.7370   6.7370
     6.7607   6.7607   6.8621   6.8621   6.8962   6.8962   6.9556   6.9556
     7.1470   7.1470   7.2651   7.2651   7.2681   7.2681   7.2720   7.2721
     7.4485   7.4486   7.5165   7.5165   7.6308   7.6308   7.7234   7.7234
     7.7435   7.7435   7.8189   7.8189   7.8491   7.8491   7.8651   7.8651
     8.0240   8.0240   8.0295   8.0296   8.3971   8.3971   8.4482   8.4482
     9.1601   9.1601   9.1916   9.1916   9.2212   9.2212   9.3532   9.3532
     9.3592   9.3592   9.3794   9.3794   9.4141   9.4141   9.5617   9.5617
     9.6105   9.6105   9.6377   9.6377   9.7175   9.7175   9.7661   9.7661
    12.9651  12.9651  13.1546  13.1546  13.1780  13.1781  13.2664  13.2664
    13.3903  13.3903  13.4926  13.4926  13.6084  13.6084  13.7624  13.7624
    13.7680  13.7680  13.8297  13.8297  13.8985  13.8985  14.0034  14.0034
    15.2927  15.2927  15.4509  15.4509  15.8265  15.8265  15.9956  15.9956
    16.4722  16.4722  16.6396  16.6396  16.7521  16.7522  16.9020  16.9022

          k = 0.2500-0.5000-0.4946 ( 41940 PWs)   bands (ev):

   -45.9789 -45.9789 -45.9789 -45.9789 -45.9781 -45.9781 -45.9781 -45.9781
   -22.4022 -22.4022 -22.4022 -22.4022 -22.4003 -22.4003 -22.4003 -22.4003
   -22.3624 -22.3624 -22.3624 -22.3624 -22.3442 -22.3442 -22.3442 -22.3442
   -22.3423 -22.3423 -22.3423 -22.3423 -22.3240 -22.3240 -22.3240 -22.3240
   -14.4224 -14.4224 -14.4223 -14.4223 -14.3593 -14.3593 -14.3593 -14.3592
    -6.4984  -6.4984  -6.4983  -6.4982  -6.3329  -6.3329  -6.3328  -6.3327
    -5.9137  -5.9137  -5.9136  -5.9136  -5.8116  -5.8116  -5.8115  -5.8115
    -5.7870  -5.7870  -5.7869  -5.7869  -5.7306  -5.7306  -5.7305  -5.7305
     0.0142   0.0142   0.0143   0.0143   0.0896   0.0896   0.0896   0.0896
     0.2229   0.2229   0.2229   0.2229   0.2708   0.2708   0.2708   0.2708
     0.5495   0.5495   0.5495   0.5495   0.6938   0.6938   0.6938   0.6938
     6.2559   6.2560   6.2560   6.2561   6.6204   6.6204   6.6205   6.6205
     6.8274   6.8274   6.8274   6.8274   7.0805   7.0805   7.0806   7.0806
     7.0967   7.0967   7.0967   7.0967   7.3076   7.3076   7.3076   7.3076
     7.3928   7.3928   7.3928   7.3928   7.7286   7.7286   7.7286   7.7286
     7.7366   7.7366   7.7366   7.7366   7.8795   7.8795   7.8795   7.8795
     7.9386   7.9386   7.9387   7.9387   8.3791   8.3792   8.3792   8.3792
     9.2183   9.2184   9.2184   9.2184   9.2856   9.2856   9.2856   9.2856
     9.3817   9.3817   9.3818   9.3818   9.5335   9.5335   9.5335   9.5335
     9.5913   9.5913   9.5913   9.5913   9.7104   9.7104   9.7106   9.7106
    13.1282  13.1282  13.1283  13.1283  13.2700  13.2700  13.2701  13.2701
    13.4232  13.4233  13.4233  13.4233  13.5757  13.5757  13.5757  13.5758
    13.8453  13.8453  13.8454  13.8454  13.8946  13.8946  13.8947  13.8947
    15.4082  15.4082  15.4082  15.4082  16.2296  16.2297  16.2297  16.2298
    16.3067  16.3068  16.3069  16.3069  16.9858  16.9858  16.9859  16.9860

          k = 0.3750 0.3750 0.0000 ( 41926 PWs)   bands (ev):

   -45.9793 -45.9789 -45.9789 -45.9785 -45.9784 -45.9780 -45.9780 -45.9776
   -22.4266 -22.4253 -22.4253 -22.4241 -22.3779 -22.3770 -22.3770 -22.3762
   -22.3556 -22.3556 -22.3547 -22.3540 -22.3528 -22.3528 -22.3520 -22.3517
   -22.3348 -22.3341 -22.3334 -22.3334 -22.3324 -22.3320 -22.3313 -22.3313
   -14.4714 -14.4290 -14.4290 -14.3932 -14.3797 -14.3500 -14.3500 -14.3218
    -6.6360  -6.6360  -6.6090  -6.5351  -6.4723  -6.2487  -6.2486  -6.0270
    -5.8774  -5.8618  -5.8618  -5.8601  -5.8601  -5.8440  -5.8410  -5.8164
    -5.8161  -5.7758  -5.7648  -5.7522  -5.7522  -5.7351  -5.7350  -5.6859
    -0.2183  -0.0307   0.0043   0.0043   0.1292   0.1624   0.2071   0.2072
     0.2334   0.2626   0.2864   0.2864   0.3785   0.4088   0.4376   0.4376
     0.4488   0.4488   0.4782   0.5386   0.5397   0.5467   0.5742   0.5742
     6.0228   6.0622   6.0622   6.1010   6.3881   6.5953   6.5953   6.6037
     6.6037   6.7018   6.8042   6.8812   6.8840   6.8840   6.8977   6.9480
     7.0760   7.0854   7.2727   7.2727   7.3244   7.3337   7.3779   7.3779
     7.5119   7.5539   7.5539   7.5780   7.6271   7.6271   7.7011   7.7011
     7.7337   7.7561   7.7781   7.8128   7.8534   8.0361   8.0810   8.0810
     8.0997   8.0997   8.3293   8.4108   8.4108   8.4136   8.4486   8.5987
     8.9876   8.9876   9.0660   9.0801   9.1393   9.2369   9.3165   9.3233
     9.3424   9.3424   9.3584   9.3584   9.3929   9.3929   9.5923   9.6249
     9.6356   9.6356   9.7195   9.7241   9.7953   9.7953   9.8546   9.8729
    12.6697  12.7898  12.7898  12.8734  12.9902  13.1534  13.2795  13.3757
    13.3757  13.4533  13.4533  13.4743  13.6230  13.6230  13.7242  13.8917
    13.9316  13.9521  13.9671  13.9671  14.0854  14.0854  14.1638  14.1869
    14.8337  14.8846  14.8846  15.0102  15.6105  15.6639  16.0252  16.0252
    16.3035  16.3035  16.3225  16.3897  16.8190  16.9620  16.9620  16.9768

          k = 0.3750 0.3750 0.1236 ( 41941 PWs)   bands (ev):

   -45.9793 -45.9789 -45.9789 -45.9785 -45.9785 -45.9781 -45.9781 -45.9776
   -22.4247 -22.4234 -22.4234 -22.4223 -22.3797 -22.3789 -22.3789 -22.3780
   -22.3555 -22.3555 -22.3546 -22.3539 -22.3529 -22.3529 -22.3521 -22.3518
   -22.3347 -22.3340 -22.3334 -22.3334 -22.3325 -22.3321 -22.3314 -22.3314
   -14.4680 -14.4261 -14.4260 -14.3905 -14.3833 -14.3531 -14.3531 -14.3246
    -6.6196  -6.6196  -6.5969  -6.5171  -6.4691  -6.2580  -6.2580  -6.0487
    -5.8831  -5.8677  -5.8677  -5.8590  -5.8590  -5.8398  -5.8382  -5.8281
    -5.8116  -5.7777  -5.7677  -5.7552  -5.7552  -5.7361  -5.7361  -5.6911
    -0.2014  -0.0502   0.0158   0.0159   0.1346   0.1840   0.1840   0.2142
     0.2158   0.2578   0.2738   0.2739   0.3402   0.3664   0.3804   0.3910
     0.3910   0.4751   0.4751   0.5804   0.5896   0.6032   0.6206   0.6206
     6.0721   6.1100   6.1100   6.1520   6.3785   6.5879   6.5879   6.6013
     6.6013   6.6941   6.8161   6.8811   6.8963   6.9040   6.9040   6.9519
     7.0507   7.1063   7.2456   7.2456   7.3386   7.3657   7.3971   7.3971
     7.5003   7.5004   7.5059   7.5875   7.6813   7.6813   7.6986   7.7057
     7.7057   7.7335   7.7863   7.8041   7.8309   8.0100   8.0100   8.0464
     8.0880   8.0880   8.2709   8.3591   8.4087   8.4087   8.4227   8.5692
     9.0396   9.0396   9.0679   9.1174   9.1749   9.2495   9.2983   9.2983
     9.3283   9.3283   9.3305   9.3457   9.4404   9.4404   9.5585   9.6208
     9.6208   9.6216   9.6994   9.7058   9.7845   9.7845   9.8484   9.8651
    12.7179  12.8365  12.8365  12.8992  12.9997  13.1470  13.3141  13.3904
    13.3904  13.4618  13.4618  13.4929  13.6156  13.6156  13.7333  13.8415
    13.8843  13.9207  13.9207  13.9421  14.0467  14.0467  14.1257  14.1504
    14.9481  14.9952  14.9952  15.1300  15.6138  15.6622  16.0259  16.0259
    16.3097  16.3097  16.3789  16.4283  16.8311  16.9177  17.0042  17.0043

          k = 0.3750 0.3750 0.2473 ( 41935 PWs)   bands (ev):

   -45.9792 -45.9788 -45.9788 -45.9786 -45.9784 -45.9782 -45.9782 -45.9777
   -22.4195 -22.4183 -22.4183 -22.4171 -22.3851 -22.3841 -22.3841 -22.3833
   -22.3552 -22.3552 -22.3543 -22.3536 -22.3532 -22.3532 -22.3524 -22.3520
   -22.3345 -22.3338 -22.3331 -22.3331 -22.3327 -22.3323 -22.3316 -22.3316
   -14.4582 -14.4176 -14.4176 -14.3934 -14.3829 -14.3618 -14.3618 -14.3324
    -6.5728  -6.5728  -6.5640  -6.4657  -6.4632  -6.2895  -6.2895  -6.1085
    -5.8972  -5.8776  -5.8776  -5.8583  -5.8577  -5.8577  -5.8301  -5.8296
    -5.7980  -5.7831  -5.7762  -5.7616  -5.7616  -5.7407  -5.7407  -5.7058
    -0.1534  -0.0663   0.0486   0.0487   0.1481   0.1481   0.1497   0.1658
     0.2374   0.2374   0.2440   0.2454   0.2814   0.3014   0.3032   0.3033
     0.3233   0.5517   0.5517   0.6402   0.6481   0.6552   0.6758   0.6758
     6.1898   6.2266   6.2267   6.2895   6.3563   6.5442   6.5442   6.6451
     6.6451   6.7085   6.8680   6.8813   6.8927   6.9517   6.9589   6.9589
     6.9699   7.1677   7.1677   7.1764   7.3545   7.4485   7.4485   7.4490
     7.4490   7.4783   7.4876   7.5715   7.5902   7.7134   7.7134   7.7232
     7.7232   7.7338   7.7767   7.7835   7.8112   7.8886   7.8886   8.0383
     8.0554   8.0554   8.1465   8.1709   8.3161   8.3161   8.3603   8.4641
     9.0974   9.1764   9.1764   9.2185   9.2597   9.2597   9.2687   9.2825
     9.2926   9.2926   9.3693   9.3969   9.4886   9.4886   9.5056   9.5847
     9.5847   9.6091   9.6358   9.6549   9.7480   9.7480   9.8306   9.8447
    12.8476  12.9658  12.9658  12.9792  13.0309  13.1284  13.4096  13.4340
    13.4340  13.4880  13.4880  13.5480  13.5930  13.5930  13.7032  13.7507
    13.7594  13.7930  13.7930  13.9120  13.9417  13.9417  14.0246  14.0509
    15.2531  15.2838  15.2838  15.4543  15.6221  15.6575  16.0223  16.0223
    16.3349  16.3349  16.5418  16.5474  16.7434  16.8613  16.9667  17.1258

          k = 0.3750 0.3750 0.3709 ( 41964 PWs)   bands (ev):

   -45.9791 -45.9787 -45.9787 -45.9787 -45.9783 -45.9783 -45.9782 -45.9779
   -22.4116 -22.4105 -22.4105 -22.4094 -22.3930 -22.3920 -22.3920 -22.3911
   -22.3547 -22.3547 -22.3539 -22.3537 -22.3537 -22.3533 -22.3529 -22.3524
   -22.3341 -22.3334 -22.3331 -22.3328 -22.3328 -22.3326 -22.3320 -22.3320
   -14.4435 -14.4084 -14.4050 -14.4049 -14.3747 -14.3747 -14.3714 -14.3441
    -6.5212  -6.5032  -6.5032  -6.4646  -6.3872  -6.3464  -6.3464  -6.1945
    -5.9106  -5.8918  -5.8795  -5.8795  -5.8614  -5.8614  -5.8179  -5.8167
    -5.7919  -5.7887  -5.7774  -5.7645  -5.7645  -5.7494  -5.7494  -5.7275
    -0.0811  -0.0460   0.0916   0.0974   0.0974   0.1180   0.1331   0.1332
     0.1720   0.1859   0.1859   0.2231   0.2277   0.2277   0.2414   0.2525
     0.4443   0.6212   0.6273   0.6274   0.6980   0.6980   0.6992   0.7028
     6.2862   6.3354   6.3394   6.3394   6.4694   6.4835   6.4835   6.7721
     6.7721   6.8091   6.8180   6.8823   6.8883   6.9915   6.9937   7.0534
     7.0535   7.0617   7.0617   7.2594   7.3739   7.3739   7.3825   7.3993
     7.4575   7.5144   7.5144   7.5347   7.6402   7.6633   7.6633   7.7298
     7.7369   7.7589   7.7589   7.7616   7.8171   7.8171   7.8548   7.9054
     7.9758   8.0187   8.0187   8.0211   8.1494   8.1495   8.2938   8.3196
     9.2149   9.2496   9.2496   9.2504   9.2504   9.2999   9.3193   9.3885
     9.3885   9.3895   9.4277   9.4469   9.4849   9.5097   9.5097   9.5250
     9.5490   9.5490   9.5753   9.5820   9.6761   9.6761   9.8096   9.8203
    12.9918  13.0987  13.1157  13.1211  13.1528  13.1528  13.4939  13.4939
    13.5092  13.5398  13.5398  13.5450  13.5451  13.5487  13.5534  13.6268
    13.6268  13.6370  13.7992  13.7994  13.7994  13.8493  13.8909  13.9253
    15.6323  15.6356  15.6356  15.6507  15.6620  15.9003  15.9948  15.9948
    16.4093  16.4093  16.4603  16.7231  16.7917  16.8237  16.8962  16.8972

          k = 0.3750 0.3750-0.4946 ( 41944 PWs)   bands (ev):

   -45.9789 -45.9789 -45.9785 -45.9785 -45.9785 -45.9785 -45.9781 -45.9781
   -22.4023 -22.4023 -22.4012 -22.4012 -22.4012 -22.4012 -22.4002 -22.4002
   -22.3542 -22.3542 -22.3542 -22.3542 -22.3534 -22.3534 -22.3528 -22.3528
   -22.3336 -22.3336 -22.3330 -22.3330 -22.3324 -22.3324 -22.3324 -22.3324
   -14.4261 -14.4260 -14.3900 -14.3899 -14.3899 -14.3898 -14.3579 -14.3578
    -6.4839  -6.4838  -6.4226  -6.4226  -6.4225  -6.4225  -6.2924  -6.2923
    -5.9114  -5.9113  -5.8713  -5.8713  -5.8712  -5.8712  -5.8036  -5.8035
    -5.8034  -5.8033  -5.7593  -5.7593  -5.7592  -5.7592  -5.7528  -5.7527
     0.0048   0.0049   0.0168   0.0169   0.1420   0.1421   0.1421   0.1421
     0.1632   0.1632   0.1632   0.1632   0.1978   0.1978   0.2311   0.2311
     0.5507   0.5508   0.6804   0.6804   0.6804   0.6804   0.7188   0.7188
     6.3200   6.3201   6.4170   6.4170   6.4170   6.4170   6.6463   6.6463
     6.8846   6.8847   6.9342   6.9342   6.9342   6.9342   6.9622   6.9623
     7.1881   7.1881   7.2126   7.2126   7.2127   7.2127   7.3830   7.3830
     7.4195   7.4196   7.5821   7.5821   7.5821   7.5821   7.7455   7.7456
     7.7478   7.7478   7.7957   7.7957   7.7958   7.7958   7.8256   7.8256
     7.9227   7.9228   8.0318   8.0318   8.0318   8.0319   8.2613   8.2614
     9.2553   9.2553   9.2553   9.2554   9.3325   9.3326   9.3748   9.3748
     9.4754   9.4754   9.5012   9.5012   9.5015   9.5016   9.5049   9.5049
     9.5050   9.5050   9.5700   9.5700   9.5700   9.5701   9.8046   9.8047
    13.0583  13.0583  13.3006  13.3007  13.3256  13.3257  13.3656  13.3656
    13.3657  13.3657  13.5449  13.5449  13.5450  13.5450  13.6562  13.6562
    13.6563  13.6563  13.7094  13.7095  13.7548  13.7548  13.8497  13.8497
    15.6421  15.6422  15.8923  15.8923  15.8923  15.8923  16.0865  16.0866
    16.3745  16.3747  16.6014  16.6014  16.6015  16.6015  16.9289  16.9290

          k = 0.3750-0.5000 0.0000 ( 41904 PWs)   bands (ev):

   -45.9791 -45.9791 -45.9787 -45.9787 -45.9782 -45.9782 -45.9778 -45.9778
   -22.4259 -22.4259 -22.4247 -22.4247 -22.3774 -22.3774 -22.3766 -22.3766
   -22.3550 -22.3550 -22.3523 -22.3523 -22.3450 -22.3450 -22.3439 -22.3439
   -22.3425 -22.3425 -22.3416 -22.3416 -22.3339 -22.3339 -22.3317 -22.3317
   -14.4503 -14.4503 -14.4112 -14.4112 -14.3649 -14.3649 -14.3360 -14.3360
    -6.6149  -6.6149  -6.5805  -6.5805  -6.3644  -6.3644  -6.1411  -6.1411
    -5.8634  -5.8634  -5.8526  -5.8526  -5.8385  -5.8385  -5.8336  -5.8336
    -5.8113  -5.8113  -5.7749  -5.7749  -5.7473  -5.7472  -5.7089  -5.7089
    -0.1210  -0.1210   0.0530   0.0530   0.0866   0.0866   0.2507   0.2507
     0.2658   0.2658   0.3062   0.3062   0.3089   0.3089   0.4132   0.4132
     0.4806   0.4806   0.5048   0.5048   0.5480   0.5480   0.5662   0.5662
     6.0508   6.0508   6.0890   6.0890   6.5131   6.5131   6.6890   6.6891
     6.6954   6.6954   6.8568   6.8568   6.9401   6.9401   7.0641   7.0641
     7.1250   7.1250   7.1595   7.1595   7.2471   7.2471   7.3441   7.3441
     7.3791   7.3791   7.6094   7.6094   7.7004   7.7004   7.7243   7.7243
     7.7474   7.7474   7.7996   7.7996   7.9287   7.9287   7.9460   7.9460
     8.1930   8.1931   8.2483   8.2483   8.3664   8.3664   8.4498   8.4499
     9.0535   9.0535   9.0732   9.0732   9.2241   9.2241   9.2690   9.2690
     9.3415   9.3415   9.4652   9.4652   9.4771   9.4771   9.5755   9.5755
     9.5833   9.5833   9.6938   9.6938   9.7754   9.7754   9.8028   9.8028
    12.7521  12.7521  13.0507  13.0507  13.0976  13.0976  13.2115  13.2115
    13.3883  13.3883  13.4031  13.4031  13.5712  13.5712  13.7834  13.7835
    13.9337  13.9337  13.9913  13.9913  14.0597  14.0597  14.1323  14.1323
    14.8751  14.8751  14.9745  14.9745  15.8790  15.8790  16.0035  16.0036
    16.4742  16.4742  16.6314  16.6315  16.6480  16.6489  16.8456  16.8456

          k = 0.3750-0.5000 0.1236 ( 41940 PWs)   bands (ev):

   -45.9791 -45.9791 -45.9787 -45.9787 -45.9783 -45.9783 -45.9779 -45.9779
   -22.4241 -22.4241 -22.4229 -22.4229 -22.3793 -22.3793 -22.3785 -22.3784
   -22.3549 -22.3549 -22.3524 -22.3524 -22.3449 -22.3449 -22.3438 -22.3438
   -22.3426 -22.3426 -22.3417 -22.3417 -22.3339 -22.3339 -22.3318 -22.3318
   -14.4471 -14.4471 -14.4084 -14.4084 -14.3682 -14.3682 -14.3389 -14.3389
    -6.6006  -6.6006  -6.5633  -6.5633  -6.3658  -6.3658  -6.1546  -6.1546
    -5.8652  -5.8652  -5.8548  -5.8548  -5.8484  -5.8484  -5.8310  -5.8310
    -5.8119  -5.8119  -5.7770  -5.7770  -5.7499  -5.7499  -5.7127  -5.7127
    -0.1067  -0.1067   0.0613   0.0613   0.0642   0.0642   0.2355   0.2355
     0.2579   0.2579   0.2743   0.2743   0.3553   0.3553   0.3628   0.3628
     0.3902   0.3902   0.5447   0.5447   0.6121   0.6121   0.6159   0.6159
     6.0999   6.0999   6.1383   6.1383   6.4982   6.4982   6.6806   6.6806
     6.7042   6.7042   6.8302   6.8302   6.9540   6.9540   7.0537   7.0537
     7.1441   7.1441   7.1871   7.1871   7.2360   7.2360   7.3670   7.3670
     7.3685   7.3685   7.6220   7.6220   7.6254   7.6254   7.7254   7.7254
     7.7532   7.7532   7.8527   7.8527   7.9092   7.9092   7.9174   7.9174
     8.1337   8.1337   8.2256   8.2256   8.3297   8.3297   8.4281   8.4281
     9.1049   9.1049   9.1109   9.1109   9.2073   9.2073   9.2612   9.2612
     9.3742   9.3742   9.4353   9.4353   9.4652   9.4652   9.5843   9.5843
     9.5847   9.5847   9.6771   9.6771   9.7643   9.7643   9.7920   9.7920
    12.7985  12.7985  13.0896  13.0897  13.1179  13.1179  13.2206  13.2206
    13.3813  13.3813  13.4210  13.4210  13.5803  13.5803  13.7745  13.7745
    13.8855  13.8855  13.9473  13.9473  14.0172  14.0172  14.0945  14.0945
    14.9882  14.9882  15.0923  15.0923  15.8817  15.8818  16.0052  16.0053
    16.4794  16.4797  16.6472  16.6472  16.6802  16.6802  16.8739  16.8739

          k = 0.3750-0.5000 0.2473 ( 41954 PWs)   bands (ev):

   -45.9790 -45.9790 -45.9786 -45.9786 -45.9784 -45.9784 -45.9780 -45.9780
   -22.4189 -22.4189 -22.4177 -22.4177 -22.3846 -22.3846 -22.3837 -22.3837
   -22.3546 -22.3546 -22.3527 -22.3527 -22.3447 -22.3447 -22.3436 -22.3435
   -22.3429 -22.3429 -22.3419 -22.3419 -22.3336 -22.3336 -22.3320 -22.3320
   -14.4380 -14.4380 -14.4003 -14.4003 -14.3777 -14.3776 -14.3472 -14.3472
    -6.5604  -6.5604  -6.5142  -6.5142  -6.3742  -6.3742  -6.1969  -6.1968
    -5.8730  -5.8730  -5.8713  -5.8713  -5.8564  -5.8564  -5.8261  -5.8261
    -5.8098  -5.8098  -5.7802  -5.7802  -5.7581  -5.7581  -5.7238  -5.7238
    -0.0664  -0.0664   0.0365   0.0365   0.0852   0.0852   0.1920   0.1920
     0.2232   0.2232   0.2355   0.2355   0.2717   0.2717   0.2839   0.2839
     0.4517   0.4517   0.6181   0.6181   0.6703   0.6703   0.6772   0.6772
     6.2185   6.2185   6.2651   6.2651   6.4597   6.4597   6.6954   6.6954
     6.7528   6.7528   6.7553   6.7553   6.9808   6.9808   7.0264   7.0265
     7.1867   7.1867   7.2223   7.2223   7.2628   7.2628   7.3265   7.3265
     7.4455   7.4455   7.5139   7.5139   7.6368   7.6368   7.7305   7.7305
     7.7722   7.7722   7.8544   7.8544   7.8591   7.8591   7.8903   7.8903
     8.0117   8.0117   8.1670   8.1670   8.1834   8.1834   8.3207   8.3207
     9.1820   9.1820   9.2185   9.2185   9.2447   9.2447   9.2696   9.2696
     9.3986   9.3986   9.4298   9.4298   9.4432   9.4432   9.5820   9.5820
     9.5915   9.5915   9.6332   9.6333   9.7354   9.7354   9.7584   9.7584
    12.9265  12.9265  13.1795  13.1795  13.1976  13.1976  13.2488  13.2488
    13.3606  13.3606  13.4748  13.4748  13.6066  13.6066  13.7474  13.7474
    13.7532  13.7532  13.8250  13.8250  13.9021  13.9021  13.9915  13.9915
    15.2856  15.2856  15.4090  15.4090  15.8871  15.8871  16.0149  16.0149
    16.4869  16.4869  16.6453  16.6453  16.8212  16.8213  16.9654  16.9654

          k = 0.3750-0.5000 0.3709 ( 41976 PWs)   bands (ev):

   -45.9789 -45.9789 -45.9785 -45.9785 -45.9784 -45.9784 -45.9781 -45.9781
   -22.4111 -22.4111 -22.4099 -22.4099 -22.3925 -22.3925 -22.3915 -22.3915
   -22.3542 -22.3542 -22.3532 -22.3532 -22.3443 -22.3443 -22.3433 -22.3433
   -22.3432 -22.3432 -22.3423 -22.3423 -22.3333 -22.3333 -22.3324 -22.3324
   -14.4243 -14.4243 -14.3917 -14.3916 -14.3883 -14.3883 -14.3595 -14.3595
    -6.5036  -6.5036  -6.4403  -6.4403  -6.3988  -6.3988  -6.2664  -6.2664
    -5.8913  -5.8913  -5.8864  -5.8864  -5.8511  -5.8511  -5.8282  -5.8282
    -5.8006  -5.8006  -5.7754  -5.7754  -5.7711  -5.7711  -5.7406  -5.7406
    -0.0070  -0.0070   0.0392   0.0393   0.1206   0.1206   0.1267   0.1267
     0.1683   0.1683   0.1904   0.1904   0.2024   0.2024   0.2208   0.2208
     0.5532   0.5532   0.6767   0.6767   0.6822   0.6822   0.7164   0.7164
     6.3215   6.3216   6.4109   6.4109   6.4141   6.4141   6.6503   6.6503
     6.8034   6.8034   6.8853   6.8853   6.9910   6.9910   7.0189   7.0189
     7.1977   7.1977   7.2376   7.2377   7.2454   7.2454   7.3664   7.3664
     7.4018   7.4018   7.5713   7.5713   7.5969   7.5969   7.7410   7.7410
     7.7875   7.7875   7.8090   7.8090   7.8090   7.8090   7.8746   7.8746
     7.8972   7.8972   7.9624   7.9624   8.0975   8.0975   8.1490   8.1490
     9.2585   9.2585   9.2999   9.3000   9.3092   9.3093   9.3751   9.3751
     9.4120   9.4120   9.4251   9.4251   9.4745   9.4745   9.5647   9.5647
     9.5718   9.5718   9.5787   9.5787   9.7009   9.7009   9.7087   9.7087
    13.1072  13.1072  13.2654  13.2654  13.3174  13.3174  13.3263  13.3263
    13.3544  13.3544  13.5627  13.5627  13.5668  13.5668  13.6482  13.6482
    13.6515  13.6515  13.6900  13.6900  13.7550  13.7550  13.8514  13.8514
    15.6494  15.6494  15.8361  15.8361  15.8865  15.8865  16.0653  16.0654
    16.4627  16.4627  16.6395  16.6396  16.6467  16.6467  16.8643  16.8644

          k = 0.3750-0.5000-0.4946 ( 41956 PWs)   bands (ev):

   -45.9787 -45.9787 -45.9787 -45.9787 -45.9783 -45.9783 -45.9783 -45.9783
   -22.4018 -22.4018 -22.4018 -22.4018 -22.4007 -22.4007 -22.4007 -22.4007
   -22.3537 -22.3537 -22.3536 -22.3536 -22.3438 -22.3438 -22.3438 -22.3438
   -22.3427 -22.3427 -22.3427 -22.3427 -22.3328 -22.3328 -22.3328 -22.3328
   -14.4081 -14.4081 -14.4080 -14.4080 -14.3740 -14.3740 -14.3739 -14.3739
    -6.4446  -6.4446  -6.4445  -6.4445  -6.3528  -6.3528  -6.3527  -6.3527
    -5.8960  -5.8960  -5.8960  -5.8960  -5.8394  -5.8394  -5.8393  -5.8393
    -5.7865  -5.7865  -5.7864  -5.7863  -5.7597  -5.7597  -5.7596  -5.7596
     0.0576   0.0576   0.0577   0.0577   0.0869   0.0869   0.0870   0.0870
     0.1623   0.1623   0.1623   0.1623   0.1881   0.1881   0.1881   0.1882
     0.6342   0.6342   0.6342   0.6342   0.7181   0.7181   0.7181   0.7181
     6.3731   6.3731   6.3732   6.3732   6.5356   6.5356   6.5356   6.5356
     6.9349   6.9349   6.9350   6.9350   7.0858   7.0858   7.0859   7.0859
     7.1088   7.1088   7.1088   7.1088   7.3034   7.3034   7.3034   7.3034
     7.4860   7.4860   7.4860   7.4861   7.7253   7.7253   7.7253   7.7253
     7.7468   7.7469   7.7469   7.7469   7.8272   7.8272   7.8272   7.8272
     7.8642   7.8642   7.8642   7.8642   8.0620   8.0620   8.0620   8.0620
     9.3264   9.3264   9.3264   9.3265   9.3495   9.3495   9.3495   9.3495
     9.4841   9.4841   9.4842   9.4842   9.4999   9.4999   9.4999   9.4999
     9.5433   9.5433   9.5433   9.5433   9.6827   9.6827   9.6829   9.6829
    13.2664  13.2664  13.2664  13.2665  13.3714  13.3715  13.3715  13.3715
    13.4670  13.4670  13.4671  13.4671  13.5348  13.5348  13.5349  13.5349
    13.6652  13.6652  13.6653  13.6653  13.7187  13.7187  13.7187  13.7187
    15.8513  15.8513  15.8513  15.8513  16.2538  16.2539  16.2540  16.2540
    16.2954  16.2954  16.2955  16.2955  16.6793  16.6793  16.6793  16.6793

          k =-0.5000-0.5000 0.0000 ( 41836 PWs)   bands (ev):

   -45.9789 -45.9789 -45.9789 -45.9789 -45.9780 -45.9780 -45.9780 -45.9780
   -22.4253 -22.4253 -22.4253 -22.4253 -22.3770 -22.3770 -22.3770 -22.3770
   -22.3449 -22.3449 -22.3449 -22.3449 -22.3440 -22.3440 -22.3440 -22.3440
   -22.3423 -22.3423 -22.3423 -22.3423 -22.3418 -22.3418 -22.3418 -22.3418
   -14.4309 -14.4308 -14.4308 -14.4308 -14.3505 -14.3505 -14.3505 -14.3505
    -6.5903  -6.5903  -6.5903  -6.5903  -6.2564  -6.2564  -6.2564  -6.2564
    -5.8450  -5.8450  -5.8450  -5.8450  -5.8290  -5.8290  -5.8290  -5.8290
    -5.8214  -5.8214  -5.8214  -5.8214  -5.7259  -5.7259  -5.7259  -5.7259
    -0.0494  -0.0494  -0.0494  -0.0494   0.1946   0.1947   0.1947   0.1947
     0.2483   0.2483   0.2484   0.2484   0.4198   0.4198   0.4198   0.4198
     0.4478   0.4478   0.4478   0.4478   0.5662   0.5662   0.5662   0.5662
     6.0783   6.0783   6.0783   6.0783   6.7053   6.7053   6.7053   6.7053
     6.7188   6.7188   6.7188   6.7188   7.1351   7.1351   7.1351   7.1351
     7.1407   7.1407   7.1407   7.1407   7.2058   7.2058   7.2058   7.2058
     7.5057   7.5057   7.5057   7.5057   7.6748   7.6748   7.6748   7.6748
     7.7414   7.7414   7.7414   7.7414   8.0497   8.0497   8.0497   8.0497
     8.0607   8.0607   8.0607   8.0607   8.3548   8.3548   8.3548   8.3548
     9.0992   9.0992   9.0992   9.0992   9.3314   9.3314   9.3314   9.3314
     9.3599   9.3599   9.3599   9.3599   9.5353   9.5353   9.5353   9.5353
     9.6236   9.6236   9.6236   9.6236   9.7521   9.7521   9.7521   9.7521
    12.9593  12.9593  12.9593  12.9593  13.1871  13.1871  13.1871  13.1871
    13.3754  13.3754  13.3754  13.3754  13.5832  13.5833  13.5833  13.5833
    14.0055  14.0055  14.0055  14.0055  14.0419  14.0419  14.0419  14.0419
    14.9484  14.9484  14.9484  14.9484  16.2514  16.2515  16.2515  16.2515
    16.3385  16.3385  16.3385  16.3385  16.9001  16.9002  16.9002  16.9002

          k =-0.5000-0.5000 0.1236 ( 41948 PWs)   bands (ev):

   -45.9789 -45.9789 -45.9789 -45.9789 -45.9781 -45.9781 -45.9781 -45.9781
   -22.4235 -22.4235 -22.4235 -22.4235 -22.3789 -22.3789 -22.3789 -22.3789
   -22.3448 -22.3448 -22.3448 -22.3448 -22.3440 -22.3440 -22.3440 -22.3440
   -22.3424 -22.3424 -22.3424 -22.3424 -22.3419 -22.3419 -22.3419 -22.3419
   -14.4279 -14.4278 -14.4278 -14.4278 -14.3537 -14.3536 -14.3536 -14.3536
    -6.5745  -6.5745  -6.5745  -6.5745  -6.2622  -6.2622  -6.2622  -6.2622
    -5.8520  -5.8520  -5.8520  -5.8520  -5.8261  -5.8261  -5.8261  -5.8261
    -5.8253  -5.8252  -5.8252  -5.8252  -5.7300  -5.7299  -5.7299  -5.7299
    -0.0380  -0.0380  -0.0380  -0.0380   0.1671   0.1671   0.1672   0.1672
     0.2371   0.2371   0.2371   0.2371   0.3766   0.3766   0.3767   0.3767
     0.4638   0.4638   0.4638   0.4638   0.6240   0.6240   0.6240   0.6240
     6.1276   6.1276   6.1276   6.1276   6.6811   6.6811   6.6811   6.6811
     6.7144   6.7144   6.7144   6.7144   7.1365   7.1365   7.1365   7.1365
     7.1867   7.1867   7.1867   7.1867   7.2024   7.2024   7.2024   7.2025
     7.4520   7.4520   7.4520   7.4521   7.7129   7.7129   7.7129   7.7129
     7.7443   7.7444   7.7444   7.7444   8.0246   8.0246   8.0246   8.0246
     8.0286   8.0286   8.0286   8.0286   8.3166   8.3166   8.3166   8.3166
     9.1450   9.1450   9.1450   9.1450   9.3064   9.3064   9.3064   9.3064
     9.3692   9.3692   9.3692   9.3692   9.5353   9.5353   9.5353   9.5353
     9.6256   9.6256   9.6256   9.6256   9.7382   9.7382   9.7382   9.7382
    13.0007  13.0007  13.0007  13.0007  13.2068  13.2068  13.2068  13.2068
    13.3848  13.3848  13.3848  13.3848  13.5750  13.5750  13.5750  13.5750
    13.9607  13.9607  13.9607  13.9607  13.9997  13.9998  13.9998  13.9998
    15.0661  15.0661  15.0661  15.0661  16.2569  16.2569  16.2569  16.2569
    16.3365  16.3366  16.3366  16.3366  16.9451  16.9451  16.9452  16.9452

          k =-0.5000-0.5000 0.2473 ( 41952 PWs)   bands (ev):

   -45.9788 -45.9788 -45.9788 -45.9788 -45.9782 -45.9782 -45.9782 -45.9782
   -22.4183 -22.4183 -22.4183 -22.4183 -22.3841 -22.3841 -22.3841 -22.3841
   -22.3445 -22.3445 -22.3445 -22.3445 -22.3437 -22.3437 -22.3437 -22.3437
   -22.3427 -22.3427 -22.3427 -22.3427 -22.3422 -22.3422 -22.3422 -22.3422
   -14.4193 -14.4193 -14.4192 -14.4192 -14.3625 -14.3625 -14.3624 -14.3624
    -6.5299  -6.5298  -6.5298  -6.5298  -6.2834  -6.2834  -6.2834  -6.2834
    -5.8665  -5.8665  -5.8665  -5.8664  -5.8390  -5.8390  -5.8390  -5.8389
    -5.8144  -5.8144  -5.8144  -5.8144  -5.7415  -5.7415  -5.7415  -5.7415
    -0.0056  -0.0056  -0.0055  -0.0055   0.1264   0.1264   0.1264   0.1264
     0.2050   0.2050   0.2050   0.2050   0.2729   0.2729   0.2729   0.2729
     0.5512   0.5512   0.5512   0.5512   0.6887   0.6887   0.6887   0.6888
     6.2500   6.2500   6.2500   6.2500   6.6165   6.6165   6.6165   6.6165
     6.7391   6.7391   6.7391   6.7391   7.1412   7.1412   7.1412   7.1412
     7.1928   7.1928   7.1928   7.1928   7.3035   7.3035   7.3035   7.3036
     7.3667   7.3667   7.3667   7.3667   7.7481   7.7481   7.7481   7.7481
     7.7549   7.7549   7.7549   7.7549   7.9553   7.9554   7.9554   7.9554
     7.9590   7.9590   7.9590   7.9590   8.1732   8.1732   8.1732   8.1732
     9.2525   9.2525   9.2525   9.2525   9.2908   9.2908   9.2908   9.2908
     9.3949   9.3949   9.3949   9.3949   9.5269   9.5269   9.5269   9.5269
     9.6272   9.6272   9.6272   9.6272   9.7008   9.7008   9.7008   9.7008
    13.1153  13.1153  13.1153  13.1153  13.2671  13.2671  13.2671  13.2671
    13.4120  13.4120  13.4120  13.4120  13.5507  13.5507  13.5507  13.5507
    13.8401  13.8401  13.8401  13.8401  13.8820  13.8820  13.8820  13.8820
    15.3827  15.3827  15.3827  15.3827  16.2709  16.2709  16.2709  16.2709
    16.3305  16.3306  16.3306  16.3306  17.0795  17.0796  17.0797  17.0797

          k =-0.5000-0.5000 0.3709 ( 41904 PWs)   bands (ev):

   -45.9786 -45.9786 -45.9786 -45.9786 -45.9783 -45.9783 -45.9783 -45.9783
   -22.4105 -22.4105 -22.4105 -22.4105 -22.3920 -22.3920 -22.3920 -22.3920
   -22.3441 -22.3441 -22.3441 -22.3441 -22.3434 -22.3434 -22.3434 -22.3433
   -22.3431 -22.3431 -22.3431 -22.3431 -22.3425 -22.3425 -22.3425 -22.3425
   -14.4064 -14.4064 -14.4063 -14.4063 -14.3757 -14.3756 -14.3756 -14.3756
    -6.4644  -6.4644  -6.4644  -6.4644  -6.3269  -6.3269  -6.3269  -6.3269
    -5.8752  -5.8752  -5.8752  -5.8752  -5.8560  -5.8560  -5.8560  -5.8560
    -5.7980  -5.7980  -5.7980  -5.7980  -5.7585  -5.7585  -5.7585  -5.7585
     0.0429   0.0429   0.0430   0.0430   0.1098   0.1098   0.1098   0.1098
     0.1569   0.1569   0.1569   0.1569   0.1855   0.1855   0.1855   0.1855
     0.6365   0.6365   0.6365   0.6365   0.7151   0.7151   0.7151   0.7151
     6.3717   6.3717   6.3717   6.3717   6.5348   6.5348   6.5348   6.5348
     6.8639   6.8639   6.8639   6.8639   7.1501   7.1502   7.1502   7.1502
     7.1787   7.1787   7.1787   7.1787   7.2562   7.2562   7.2562   7.2562
     7.4653   7.4653   7.4653   7.4653   7.7633   7.7633   7.7633   7.7634
     7.7774   7.7775   7.7775   7.7775   7.8766   7.8766   7.8766   7.8766
     7.8782   7.8782   7.8782   7.8782   7.9292   7.9292   7.9292   7.9292
     9.3429   9.3429   9.3429   9.3429   9.3648   9.3649   9.3649   9.3649
     9.4265   9.4265   9.4265   9.4265   9.4933   9.4933   9.4933   9.4933
     9.6211   9.6211   9.6211   9.6211   9.6531   9.6531   9.6531   9.6531
    13.2788  13.2788  13.2788  13.2788  13.3695  13.3695  13.3695  13.3695
    13.4565  13.4565  13.4565  13.4565  13.5102  13.5102  13.5102  13.5102
    13.6776  13.6776  13.6776  13.6776  13.7128  13.7128  13.7128  13.7128
    15.8141  15.8142  15.8142  15.8142  16.2887  16.2887  16.2887  16.2887
    16.3203  16.3203  16.3203  16.3203  16.6728  16.6728  16.6728  16.6729

          k =-0.5000-0.5000-0.4946 ( 41912 PWs)   bands (ev):

   -45.9785 -45.9785 -45.9785 -45.9785 -45.9785 -45.9785 -45.9785 -45.9785
   -22.4013 -22.4013 -22.4013 -22.4013 -22.4013 -22.4013 -22.4013 -22.4013
   -22.3436 -22.3436 -22.3436 -22.3436 -22.3436 -22.3436 -22.3436 -22.3436
   -22.3429 -22.3429 -22.3429 -22.3429 -22.3429 -22.3429 -22.3429 -22.3429
   -14.3911 -14.3911 -14.3911 -14.3911 -14.3911 -14.3910 -14.3910 -14.3910
    -6.3915  -6.3915  -6.3915  -6.3915  -6.3914  -6.3913  -6.3913  -6.3913
    -5.8707  -5.8707  -5.8707  -5.8707  -5.8706  -5.8706  -5.8706  -5.8706
    -5.7785  -5.7785  -5.7785  -5.7785  -5.7784  -5.7783  -5.7783  -5.7783
     0.0999   0.0999   0.1000   0.1000   0.1000   0.1000   0.1000   0.1000
     0.1291   0.1291   0.1291   0.1291   0.1291   0.1291   0.1291   0.1292
     0.6959   0.6959   0.6959   0.6959   0.6959   0.6959   0.6959   0.6959
     6.4561   6.4561   6.4561   6.4561   6.4562   6.4562   6.4562   6.4562
     7.0748   7.0748   7.0748   7.0748   7.0749   7.0749   7.0749   7.0749
     7.1633   7.1633   7.1633   7.1633   7.1633   7.1634   7.1634   7.1634
     7.6690   7.6690   7.6690   7.6690   7.6690   7.6690   7.6690   7.6691
     7.8072   7.8072   7.8072   7.8073   7.8073   7.8073   7.8073   7.8073
     7.8174   7.8174   7.8174   7.8174   7.8175   7.8175   7.8175   7.8175
     9.4264   9.4264   9.4264   9.4264   9.4264   9.4264   9.4264   9.4264
     9.4302   9.4302   9.4302   9.4302   9.4303   9.4303   9.4303   9.4303
     9.6203   9.6203   9.6203   9.6203   9.6204   9.6204   9.6205   9.6205
    13.4369  13.4369  13.4369  13.4369  13.4369  13.4369  13.4369  13.4369
    13.5110  13.5110  13.5110  13.5110  13.5111  13.5111  13.5111  13.5111
    13.5417  13.5417  13.5417  13.5417  13.5418  13.5418  13.5418  13.5418
    16.2693  16.2694  16.2694  16.2694  16.2695  16.2695  16.2695  16.2695
    16.3059  16.3059  16.3059  16.3059  16.3059  16.3060  16.3060  16.3060

     highest occupied, lowest unoccupied level (ev):    10.2654   12.0411

!    total energy              =   -5887.16574356 Ry
     total all-electron energy =   -147371.619316 Ry
     estimated scf accuracy    <          4.9E-11 Ry

     The total energy is the sum of the following terms:
     one-electron contribution =    -548.23180760 Ry
     hartree contribution      =     480.68401307 Ry
     xc contribution           =    -485.47021649 Ry
     ewald contribution        =   -1653.96634398 Ry
     one-center paw contrib.   =   -3680.18138857 Ry

     convergence has been achieved in  30 iterations

     Forces acting on atoms (cartesian axes, Ry/au):

     atom    1 type  1   force =     0.00000000    0.00000000   -0.00147865
     atom    2 type  1   force =     0.00000000    0.00000000   -0.00144945
     atom    3 type  1   force =     0.00000000    0.00000000   -0.00146804
     atom    4 type  1   force =     0.00000000    0.00000000   -0.00145514
     atom    5 type  1   force =     0.00000000    0.00000000   -0.00146804
     atom    6 type  1   force =     0.00000000    0.00000000   -0.00145514
     atom    7 type  1   force =     0.00000000    0.00000000   -0.00148252
     atom    8 type  1   force =     0.00000000    0.00000000   -0.00144731
     atom    9 type  2   force =     0.00000008    0.00000008   -0.00142105
     atom   10 type  2   force =    -0.00000045   -0.00000045   -0.00141254
     atom   11 type  2   force =     0.00000008   -0.00000008   -0.00142105
     atom   12 type  2   force =    -0.00000045    0.00000045   -0.00141254
     atom   13 type  2   force =    -0.00000008    0.00000008   -0.00142105
     atom   14 type  2   force =     0.00000045   -0.00000045   -0.00141254
     atom   15 type  2   force =    -0.00000008   -0.00000008   -0.00142105
     atom   16 type  2   force =     0.00000045    0.00000045   -0.00141254
     atom   17 type  3   force =    -0.00000140   -0.00000140    0.00265486
     atom   18 type  3   force =    -0.00000229   -0.00000229    0.00266278
     atom   19 type  3   force =    -0.00000140    0.00000140    0.00265486
     atom   20 type  3   force =    -0.00000229    0.00000229    0.00266278
     atom   21 type  3   force =     0.00000140   -0.00000140    0.00265486
     atom   22 type  3   force =     0.00000229   -0.00000229    0.00266278
     atom   23 type  3   force =     0.00000140    0.00000140    0.00265486
     atom   24 type  3   force =     0.00000229    0.00000229    0.00266278
     atom   25 type  3   force =    -0.00000199    0.00000000    0.00010506
     atom   26 type  3   force =    -0.00000532    0.00000000    0.00010920
     atom   27 type  3   force =     0.00000086   -0.00000000    0.00010947
     atom   28 type  3   force =     0.00000277   -0.00000000    0.00011829
     atom   29 type  3   force =     0.00000199    0.00000000    0.00010506
     atom   30 type  3   force =     0.00000532    0.00000000    0.00010920
     atom   31 type  3   force =    -0.00000086    0.00000000    0.00010947
     atom   32 type  3   force =    -0.00000277    0.00000000    0.00011829
     atom   33 type  3   force =     0.00000000   -0.00000199    0.00010506
     atom   34 type  3   force =     0.00000000   -0.00000532    0.00010920
     atom   35 type  3   force =     0.00000000    0.00000199    0.00010506
     atom   36 type  3   force =     0.00000000    0.00000532    0.00010920
     atom   37 type  3   force =     0.00000000    0.00000086    0.00010947
     atom   38 type  3   force =     0.00000000    0.00000277    0.00011829
     atom   39 type  3   force =     0.00000000   -0.00000086    0.00010947
     atom   40 type  3   force =     0.00000000   -0.00000277    0.00011829

     Total force =     0.009483     Total SCF correction =     0.000006


     Computing stress (Cartesian axis) and pressure

          total   stress  (Ry/bohr**3)                   (kbar)     P=      -19.84
  -0.00016537   0.00000000   0.00000000          -24.33        0.00        0.00
   0.00000000  -0.00016537   0.00000000            0.00      -24.33        0.00
   0.00000000   0.00000000  -0.00007384            0.00        0.00      -10.86


     Writing all to output data dir ./tmp/80_ecut_8_kmesh_PBE.save/ :
     XML data file, charge density, pseudopotentials, collected wavefunctions

     init_run     :      3.43s CPU      3.56s WALL (       1 calls)
     electrons    :    321.70s CPU    331.94s WALL (       1 calls)
     forces       :      1.61s CPU      1.65s WALL (       1 calls)
     stress       :      4.83s CPU      4.94s WALL (       1 calls)

     Called by init_run:
     wfcinit      :      2.34s CPU      2.40s WALL (       1 calls)
     potinit      :      0.41s CPU      0.44s WALL (       1 calls)
     hinit0       :      0.14s CPU      0.16s WALL (       1 calls)

     Called by electrons:
     c_bands      :    293.00s CPU    302.38s WALL (      30 calls)
     sum_band     :     23.88s CPU     24.40s WALL (      30 calls)
     v_of_rho     :      1.41s CPU      1.55s WALL (      31 calls)
     newd         :      1.51s CPU      1.55s WALL (      31 calls)
     PAW_pot      :      1.54s CPU      1.57s WALL (      31 calls)
     mix_rho      :      0.15s CPU      0.16s WALL (      30 calls)

     Called by c_bands:
     init_us_2    :      6.30s CPU      6.37s WALL (     630 calls)
     cegterg      :    253.44s CPU    262.50s WALL (     310 calls)

     Called by *egterg:
     cdiaghg      :     37.29s CPU     39.10s WALL (    2138 calls)
     h_psi        :    117.35s CPU    120.90s WALL (    2158 calls)
     s_psi        :     18.54s CPU     18.71s WALL (    2158 calls)
     g_psi        :      0.57s CPU      0.58s WALL (    1838 calls)

     Called by h_psi:
     h_psi:calbec :     23.77s CPU     24.35s WALL (    2158 calls)
     vloc_psi     :     73.95s CPU     74.88s WALL (    2158 calls)
                                        0.00s GPU  (    2158 calls)
     add_vuspsi   :     18.77s CPU     18.93s WALL (    2158 calls)

     General routines
     calbec       :     34.76s CPU     35.63s WALL (    2628 calls)
     fft          :      0.93s CPU      1.14s WALL (     426 calls)
     ffts         :      0.35s CPU      0.38s WALL (      61 calls)
     fftw         :     80.05s CPU     81.02s WALL (  414386 calls)
     interpolate  :      0.41s CPU      0.45s WALL (      31 calls)

     Parallel routines

     PWSCF        :    333.25s CPU    345.90s WALL


   This run was terminated on:   4:18:36  21May2026            

=------------------------------------------------------------------------------=
   JOB DONE.
=------------------------------------------------------------------------------=
