
     Program PWSCF v.7.5 starts on 21May2026 at  4: 2: 6 

     This program is part of the open-source Quantum ESPRESSO suite
     for quantum simulation of materials; please cite
         "P. Giannozzi et al., J. Phys.:Condens. Matter 21 395502 (2009);
         "P. Giannozzi et al., J. Phys.:Condens. Matter 29 465901 (2017);
         "P. Giannozzi et al., J. Chem. Phys. 152 154105 (2020);
          URL http://www.quantum-espresso.org", 
     in publications or presentations arising from this work. More details at
     http://www.quantum-espresso.org/quote

     Parallel version (MPI & OpenMP), running on     192 processor cores
     Number of MPI processes:               192
     Threads/MPI process:                     1

     MPI processes distributed on     1 nodes
     235357 MiB available memory on the printing compute node when the environment starts

     Waiting for input...
     Reading input from standard input

     Current dimensions of program PWSCF are:
     Max number of different atomic species (ntypx) = 10
     Max number of k-points (npk) =  40000
     Max angular momentum in pseudopotentials (lmaxx) =  4
     file Ba.pbe-spn-kjpaw_psl.1.0.0.UPF: wavefunction(s)  5S 6S renormalized
     file Ti.pbe-spn-kjpaw_psl.1.0.0.UPF: wavefunction(s)  3S 3P 3D renormalized
     file O.pbe-n-kjpaw_psl.1.0.0.UPF: wavefunction(s)  2S 2P renormalized

     IMPORTANT: XC functional enforced from input :
     Exchange-correlation= PBESOL
                           (   1   4  10   8   0   0   0)
     Any further DFT definition will be discarded
     Please, verify this is what you really want

     Found identity + ( -0.5000 -0.5000  0.0000) symmetry
     This is a supercell, fractional translations are disabled

     K-points division:     npool     =       8
     R & G space division:  proc/nbgrp/npool/nimage =      24
     Subspace diagonalization in iterative solution of the eigenvalue problem:
     one sub-group per band group will be used
     ELPA distributed-memory algorithm (size of sub-group:  2*  2 procs)


     Parallelization info
     --------------------
     sticks:   dense  smooth     PW     G-vecs:    dense   smooth      PW
     Min         362     181     50                25696     9081    1304
     Max         363     182     51                25701     9084    1307
     Sum        8693    4349   1201               616735   217983   31311

     Using Slab Decomposition



     bravais-lattice index     =            6
     lattice parameter (alat)  =      15.0876  a.u.
     unit-cell volume          =    3472.3239 (a.u.)^3
     number of atoms/cell      =           40
     number of atomic types    =            3
     number of electrons       =       320.00
     number of Kohn-Sham states=          200
     kinetic-energy cutoff     =      60.0000  Ry
     charge density cutoff     =     480.0000  Ry
     scf convergence threshold =      1.0E-10
     mixing beta               =       0.3000
     number of iterations used =           16  plain     mixing
     Exchange-correlation= PBESOL
                           (   1   4  10   8   0   0   0)

     celldm(1)=  15.087600  celldm(2)=   0.000000  celldm(3)=   1.011020
     celldm(4)=   0.000000  celldm(5)=   0.000000  celldm(6)=   0.000000

     crystal axes: (cart. coord. in units of alat)
               a(1) = (   1.000000   0.000000   0.000000 )  
               a(2) = (   0.000000   1.000000   0.000000 )  
               a(3) = (   0.000000   0.000000   1.011020 )  

     reciprocal axes: (cart. coord. in units 2 pi/alat)
               b(1) = (  1.000000  0.000000  0.000000 )  
               b(2) = (  0.000000  1.000000  0.000000 )  
               b(3) = (  0.000000  0.000000  0.989100 )  


     PseudoPot. # 1 for Ba read from file:
     /home/kylay/scratch/BTO/pseuds/Ba.pbe-spn-kjpaw_psl.1.0.0.UPF
     MD5 check sum: 7cfe25f1fe7574a4710541d5a11d6531
     Pseudo is Projector augmented-wave + core cor, Zval = 10.0
     Generated using &quot;atomic&quot; code by A. Dal Corso  v.6.2.2
     Shape of augmentation charge: PSQ
     Using radial grid of 1251 points,  7 beta functions with: 
                l(1) =   0
                l(2) =   0
                l(3) =   0
                l(4) =   1
                l(5) =   1
                l(6) =   2
                l(7) =   2
     Q(r) pseudized with 0 coefficients 


     PseudoPot. # 2 for Ti read from file:
     /home/kylay/scratch/BTO/pseuds/Ti.pbe-spn-kjpaw_psl.1.0.0.UPF
     MD5 check sum: 01f69b0d8ba4438b2e03ac6ea4af1c0b
     Pseudo is Projector augmented-wave + core cor, Zval = 12.0
     Generated using &quot;atomic&quot; code by A. Dal Corso  v.6.2.2
     Shape of augmentation charge: PSQ
     Using radial grid of 1177 points,  6 beta functions with: 
                l(1) =   0
                l(2) =   0
                l(3) =   1
                l(4) =   1
                l(5) =   2
                l(6) =   2
     Q(r) pseudized with 0 coefficients 


     PseudoPot. # 3 for O  read from file:
     /home/kylay/scratch/BTO/pseuds/O.pbe-n-kjpaw_psl.1.0.0.UPF
     MD5 check sum: e99d9cef9b487d1ca56f5b95ecd0fd7a
     Pseudo is Projector augmented-wave + core cor, Zval =  6.0
     Generated using &quot;atomic&quot; code by A. Dal Corso  v.6.3
     Shape of augmentation charge: PSQ
     Using radial grid of 1095 points,  4 beta functions with: 
                l(1) =   0
                l(2) =   0
                l(3) =   1
                l(4) =   1
     Q(r) pseudized with 0 coefficients 


     atomic species   valence    mass     pseudopotential
     Ba               10.00   137.32700     Ba( 1.00)
     Ti               12.00    47.86700     Ti( 1.00)
     O                 6.00    15.99900     O ( 1.00)

      8 Sym. Ops. (no inversion) found



   Cartesian axes

     site n.     atom                  positions (alat units)
         1        Ba     tau(   1) = (   0.0000000   0.0000000  -0.0010787  )
         2        Ba     tau(   2) = (   0.0000000   0.0000000   0.5044220  )
         3        Ba     tau(   3) = (   0.0000000   0.5000000  -0.0010832  )
         4        Ba     tau(   4) = (   0.0000000   0.5000000   0.5044235  )
         5        Ba     tau(   5) = (   0.5000000   0.0000000  -0.0010832  )
         6        Ba     tau(   6) = (   0.5000000   0.0000000   0.5044235  )
         7        Ba     tau(   7) = (   0.5000000   0.5000000  -0.0010766  )
         8        Ba     tau(   8) = (   0.5000000   0.5000000   0.5044202  )
         9        Ti     tau(   9) = (   0.2500002   0.2500002   0.2436990  )
        10        Ti     tau(  10) = (   0.2500007   0.2500007   0.7492042  )
        11        Ti     tau(  11) = (   0.2500002   0.7499998   0.2436990  )
        12        Ti     tau(  12) = (   0.2500007   0.7499993   0.7492042  )
        13        Ti     tau(  13) = (   0.7499998   0.2500002   0.2436990  )
        14        Ti     tau(  14) = (   0.7499993   0.2500007   0.7492042  )
        15        Ti     tau(  15) = (   0.7499998   0.7499998   0.2436990  )
        16        Ti     tau(  16) = (   0.7499993   0.7499993   0.7492042  )
        17        O      tau(  17) = (   0.2500011   0.2500011   0.0113903  )
        18        O      tau(  18) = (   0.2500007   0.2500007   0.5168954  )
        19        O      tau(  19) = (   0.2500011   0.7499989   0.0113903  )
        20        O      tau(  20) = (   0.2500007   0.7499993   0.5168954  )
        21        O      tau(  21) = (   0.7499989   0.2500011   0.0113903  )
        22        O      tau(  22) = (   0.7499993   0.2500007   0.5168954  )
        23        O      tau(  23) = (   0.7499989   0.7499989   0.0113903  )
        24        O      tau(  24) = (   0.7499993   0.7499993   0.5168954  )
        25        O      tau(  25) = (   0.2500005   0.0000000   0.2592128  )
        26        O      tau(  26) = (   0.2500020   0.0000000   0.7647195  )
        27        O      tau(  27) = (   0.2499999   0.5000000   0.2592107  )
        28        O      tau(  28) = (   0.2499998   0.5000000   0.7647148  )
        29        O      tau(  29) = (   0.7499995   0.0000000   0.2592128  )
        30        O      tau(  30) = (   0.7499980   0.0000000   0.7647195  )
        31        O      tau(  31) = (   0.7500001   0.5000000   0.2592107  )
        32        O      tau(  32) = (   0.7500002   0.5000000   0.7647148  )
        33        O      tau(  33) = (   0.0000000   0.2500005   0.2592128  )
        34        O      tau(  34) = (   0.0000000   0.2500020   0.7647195  )
        35        O      tau(  35) = (   0.0000000   0.7499995   0.2592128  )
        36        O      tau(  36) = (   0.0000000   0.7499980   0.7647195  )
        37        O      tau(  37) = (   0.5000000   0.2499999   0.2592107  )
        38        O      tau(  38) = (   0.5000000   0.2499998   0.7647148  )
        39        O      tau(  39) = (   0.5000000   0.7500001   0.2592107  )
        40        O      tau(  40) = (   0.5000000   0.7500002   0.7647148  )

     number of k points=    75
                       cart. coord. in units 2pi/alat
        k(    1) = (   0.0000000   0.0000000   0.0000000), wk =   0.0039062
        k(    2) = (   0.0000000   0.0000000   0.1236375), wk =   0.0078125
        k(    3) = (   0.0000000   0.0000000   0.2472750), wk =   0.0078125
        k(    4) = (   0.0000000   0.0000000   0.3709125), wk =   0.0078125
        k(    5) = (   0.0000000   0.0000000  -0.4945501), wk =   0.0039062
        k(    6) = (   0.0000000   0.1250000   0.0000000), wk =   0.0156250
        k(    7) = (   0.0000000   0.1250000   0.1236375), wk =   0.0312500
        k(    8) = (   0.0000000   0.1250000   0.2472750), wk =   0.0312500
        k(    9) = (   0.0000000   0.1250000   0.3709125), wk =   0.0312500
        k(   10) = (   0.0000000   0.1250000  -0.4945501), wk =   0.0156250
        k(   11) = (   0.0000000   0.2500000   0.0000000), wk =   0.0156250
        k(   12) = (   0.0000000   0.2500000   0.1236375), wk =   0.0312500
        k(   13) = (   0.0000000   0.2500000   0.2472750), wk =   0.0312500
        k(   14) = (   0.0000000   0.2500000   0.3709125), wk =   0.0312500
        k(   15) = (   0.0000000   0.2500000  -0.4945501), wk =   0.0156250
        k(   16) = (   0.0000000   0.3750000   0.0000000), wk =   0.0156250
        k(   17) = (   0.0000000   0.3750000   0.1236375), wk =   0.0312500
        k(   18) = (   0.0000000   0.3750000   0.2472750), wk =   0.0312500
        k(   19) = (   0.0000000   0.3750000   0.3709125), wk =   0.0312500
        k(   20) = (   0.0000000   0.3750000  -0.4945501), wk =   0.0156250
        k(   21) = (   0.0000000  -0.5000000   0.0000000), wk =   0.0078125
        k(   22) = (   0.0000000  -0.5000000   0.1236375), wk =   0.0156250
        k(   23) = (   0.0000000  -0.5000000   0.2472750), wk =   0.0156250
        k(   24) = (   0.0000000  -0.5000000   0.3709125), wk =   0.0156250
        k(   25) = (   0.0000000  -0.5000000  -0.4945501), wk =   0.0078125
        k(   26) = (   0.1250000   0.1250000   0.0000000), wk =   0.0156250
        k(   27) = (   0.1250000   0.1250000   0.1236375), wk =   0.0312500
        k(   28) = (   0.1250000   0.1250000   0.2472750), wk =   0.0312500
        k(   29) = (   0.1250000   0.1250000   0.3709125), wk =   0.0312500
        k(   30) = (   0.1250000   0.1250000  -0.4945501), wk =   0.0156250
        k(   31) = (   0.1250000   0.2500000   0.0000000), wk =   0.0312500
        k(   32) = (   0.1250000   0.2500000   0.1236375), wk =   0.0625000
        k(   33) = (   0.1250000   0.2500000   0.2472750), wk =   0.0625000
        k(   34) = (   0.1250000   0.2500000   0.3709125), wk =   0.0625000
        k(   35) = (   0.1250000   0.2500000  -0.4945501), wk =   0.0312500
        k(   36) = (   0.1250000   0.3750000   0.0000000), wk =   0.0312500
        k(   37) = (   0.1250000   0.3750000   0.1236375), wk =   0.0625000
        k(   38) = (   0.1250000   0.3750000   0.2472750), wk =   0.0625000
        k(   39) = (   0.1250000   0.3750000   0.3709125), wk =   0.0625000
        k(   40) = (   0.1250000   0.3750000  -0.4945501), wk =   0.0312500
        k(   41) = (   0.1250000  -0.5000000   0.0000000), wk =   0.0156250
        k(   42) = (   0.1250000  -0.5000000   0.1236375), wk =   0.0312500
        k(   43) = (   0.1250000  -0.5000000   0.2472750), wk =   0.0312500
        k(   44) = (   0.1250000  -0.5000000   0.3709125), wk =   0.0312500
        k(   45) = (   0.1250000  -0.5000000  -0.4945501), wk =   0.0156250
        k(   46) = (   0.2500000   0.2500000   0.0000000), wk =   0.0156250
        k(   47) = (   0.2500000   0.2500000   0.1236375), wk =   0.0312500
        k(   48) = (   0.2500000   0.2500000   0.2472750), wk =   0.0312500
        k(   49) = (   0.2500000   0.2500000   0.3709125), wk =   0.0312500
        k(   50) = (   0.2500000   0.2500000  -0.4945501), wk =   0.0156250
        k(   51) = (   0.2500000   0.3750000   0.0000000), wk =   0.0312500
        k(   52) = (   0.2500000   0.3750000   0.1236375), wk =   0.0625000
        k(   53) = (   0.2500000   0.3750000   0.2472750), wk =   0.0625000
        k(   54) = (   0.2500000   0.3750000   0.3709125), wk =   0.0625000
        k(   55) = (   0.2500000   0.3750000  -0.4945501), wk =   0.0312500
        k(   56) = (   0.2500000  -0.5000000   0.0000000), wk =   0.0156250
        k(   57) = (   0.2500000  -0.5000000   0.1236375), wk =   0.0312500
        k(   58) = (   0.2500000  -0.5000000   0.2472750), wk =   0.0312500
        k(   59) = (   0.2500000  -0.5000000   0.3709125), wk =   0.0312500
        k(   60) = (   0.2500000  -0.5000000  -0.4945501), wk =   0.0156250
        k(   61) = (   0.3750000   0.3750000   0.0000000), wk =   0.0156250
        k(   62) = (   0.3750000   0.3750000   0.1236375), wk =   0.0312500
        k(   63) = (   0.3750000   0.3750000   0.2472750), wk =   0.0312500
        k(   64) = (   0.3750000   0.3750000   0.3709125), wk =   0.0312500
        k(   65) = (   0.3750000   0.3750000  -0.4945501), wk =   0.0156250
        k(   66) = (   0.3750000  -0.5000000   0.0000000), wk =   0.0156250
        k(   67) = (   0.3750000  -0.5000000   0.1236375), wk =   0.0312500
        k(   68) = (   0.3750000  -0.5000000   0.2472750), wk =   0.0312500
        k(   69) = (   0.3750000  -0.5000000   0.3709125), wk =   0.0312500
        k(   70) = (   0.3750000  -0.5000000  -0.4945501), wk =   0.0156250
        k(   71) = (  -0.5000000  -0.5000000   0.0000000), wk =   0.0039062
        k(   72) = (  -0.5000000  -0.5000000   0.1236375), wk =   0.0078125
        k(   73) = (  -0.5000000  -0.5000000   0.2472750), wk =   0.0078125
        k(   74) = (  -0.5000000  -0.5000000   0.3709125), wk =   0.0078125
        k(   75) = (  -0.5000000  -0.5000000  -0.4945501), wk =   0.0039062

     Dense  grid:   616735 G-vectors     FFT dimensions: ( 108, 108, 108)

     Smooth grid:   217983 G-vectors     FFT dimensions: (  75,  75,  75)

     Estimated max dynamical RAM per process >     100.09 MB

     Estimated total dynamical RAM >      16.71 GB

     Check: negative core charge=   -0.000002
     Cannot read rho : file not found

     Initial potential from superposition of free atoms

     starting charge     319.8521, renormalised to     320.0000
     Message from routine qexsd_readschema :
     xml data file ./tmp/60_ecut_8_kmesh_PBE.save/data-file-schema.xml not found
     Cannot read wfcs: file not found
     Starting wfcs are  216 randomized atomic wfcs
     Checking if some PAW data can be deallocated... 

     total cpu time spent up to now is        4.3 secs

     per-process dynamical memory:   174.6 Mb

     Self-consistent Calculation

     iteration #  1     ecut=    60.00 Ry     beta= 0.30
     Davidson diagonalization with overlap
     c_bands:  2 eigenvalues not converged
     c_bands:  1 eigenvalues not converged
     c_bands:  1 eigenvalues not converged
     c_bands:  2 eigenvalues not converged
     c_bands:  3 eigenvalues not converged
     c_bands:  2 eigenvalues not converged
     c_bands:  2 eigenvalues not converged
     ethr =  1.00E-05,  avg # of iterations = 39.6

     total cpu time spent up to now is       40.4 secs

     total energy              =   -5884.35786744 Ry
     estimated scf accuracy    <      13.69247748 Ry

     iteration #  2     ecut=    60.00 Ry     beta= 0.30
     Davidson diagonalization with overlap
     ethr =  4.28E-03,  avg # of iterations =  1.9

     total cpu time spent up to now is       45.6 secs

     total energy              =   -5886.02216750 Ry
     estimated scf accuracy    <       0.60888990 Ry

     iteration #  3     ecut=    60.00 Ry     beta= 0.30
     Davidson diagonalization with overlap
     ethr =  1.90E-04,  avg # of iterations = 14.4

     total cpu time spent up to now is       59.7 secs

     total energy              =   -5886.97927519 Ry
     estimated scf accuracy    <       1.15156521 Ry

     iteration #  4     ecut=    60.00 Ry     beta= 0.30
     Davidson diagonalization with overlap
     ethr =  1.90E-04,  avg # of iterations =  2.0

     total cpu time spent up to now is       65.0 secs

     total energy              =   -5887.08257398 Ry
     estimated scf accuracy    <       0.18956663 Ry

     iteration #  5     ecut=    60.00 Ry     beta= 0.30
     Davidson diagonalization with overlap
     ethr =  5.92E-05,  avg # of iterations = 11.2

     total cpu time spent up to now is       75.5 secs

     total energy              =   -5886.96669124 Ry
     estimated scf accuracy    <       0.92335759 Ry

     iteration #  6     ecut=    60.00 Ry     beta= 0.30
     Davidson diagonalization with overlap
     ethr =  5.92E-05,  avg # of iterations =  5.5

     total cpu time spent up to now is       83.9 secs

     total energy              =   -5887.10074198 Ry
     estimated scf accuracy    <       0.19163689 Ry

     iteration #  7     ecut=    60.00 Ry     beta= 0.30
     Davidson diagonalization with overlap
     ethr =  5.92E-05,  avg # of iterations =  2.0

     total cpu time spent up to now is       89.3 secs

     total energy              =   -5887.10968546 Ry
     estimated scf accuracy    <       0.03756158 Ry

     iteration #  8     ecut=    60.00 Ry     beta= 0.30
     Davidson diagonalization with overlap
     ethr =  1.17E-05,  avg # of iterations = 10.9

     total cpu time spent up to now is      100.1 secs

     total energy              =   -5887.11785700 Ry
     estimated scf accuracy    <       0.05577824 Ry

     iteration #  9     ecut=    60.00 Ry     beta= 0.30
     Davidson diagonalization with overlap
     ethr =  1.17E-05,  avg # of iterations =  6.3

     total cpu time spent up to now is      108.7 secs

     total energy              =   -5887.13282096 Ry
     estimated scf accuracy    <       0.01106649 Ry

     iteration # 10     ecut=    60.00 Ry     beta= 0.30
     Davidson diagonalization with overlap
     ethr =  3.46E-06,  avg # of iterations =  3.3

     total cpu time spent up to now is      114.7 secs

     total energy              =   -5887.13397000 Ry
     estimated scf accuracy    <       0.00142046 Ry

     iteration # 11     ecut=    60.00 Ry     beta= 0.30
     Davidson diagonalization with overlap
     ethr =  4.44E-07,  avg # of iterations =  9.3

     total cpu time spent up to now is      124.9 secs

     total energy              =   -5887.13489166 Ry
     estimated scf accuracy    <       0.00052377 Ry

     iteration # 12     ecut=    60.00 Ry     beta= 0.30
     Davidson diagonalization with overlap
     ethr =  1.64E-07,  avg # of iterations =  2.4

     total cpu time spent up to now is      130.6 secs

     total energy              =   -5887.13463516 Ry
     estimated scf accuracy    <       0.00051821 Ry

     iteration # 13     ecut=    60.00 Ry     beta= 0.30
     Davidson diagonalization with overlap
     c_bands:  1 eigenvalues not converged
     ethr =  1.62E-07,  avg # of iterations =  8.0

     total cpu time spent up to now is      140.5 secs

     total energy              =   -5887.13481548 Ry
     estimated scf accuracy    <       0.00091121 Ry

     iteration # 14     ecut=    60.00 Ry     beta= 0.30
     Davidson diagonalization with overlap
     ethr =  1.62E-07,  avg # of iterations =  1.4

     total cpu time spent up to now is      145.5 secs

     total energy              =   -5887.13482276 Ry
     estimated scf accuracy    <       0.00023412 Ry

     iteration # 15     ecut=    60.00 Ry     beta= 0.30
     Davidson diagonalization with overlap
     ethr =  7.32E-08,  avg # of iterations =  4.8

     total cpu time spent up to now is      151.7 secs

     total energy              =   -5887.13482729 Ry
     estimated scf accuracy    <       0.00007264 Ry

     iteration # 16     ecut=    60.00 Ry     beta= 0.30
     Davidson diagonalization with overlap
     ethr =  2.27E-08,  avg # of iterations =  4.9

     total cpu time spent up to now is      158.1 secs

     total energy              =   -5887.13483085 Ry
     estimated scf accuracy    <       0.00001530 Ry

     iteration # 17     ecut=    60.00 Ry     beta= 0.30
     Davidson diagonalization with overlap
     ethr =  4.78E-09,  avg # of iterations =  5.5

     total cpu time spent up to now is      166.3 secs

     total energy              =   -5887.13483777 Ry
     estimated scf accuracy    <       0.00000054 Ry

     iteration # 18     ecut=    60.00 Ry     beta= 0.30
     Davidson diagonalization with overlap
     ethr =  1.69E-10,  avg # of iterations =  6.5

     total cpu time spent up to now is      175.5 secs

     total energy              =   -5887.13483818 Ry
     estimated scf accuracy    <       0.00000083 Ry

     iteration # 19     ecut=    60.00 Ry     beta= 0.30
     Davidson diagonalization with overlap
     ethr =  1.69E-10,  avg # of iterations =  1.5

     total cpu time spent up to now is      180.6 secs

     total energy              =   -5887.13483780 Ry
     estimated scf accuracy    <       0.00000112 Ry

     iteration # 20     ecut=    60.00 Ry     beta= 0.30
     Davidson diagonalization with overlap
     ethr =  1.69E-10,  avg # of iterations =  2.3

     total cpu time spent up to now is      186.8 secs

     total energy              =   -5887.13483789 Ry
     estimated scf accuracy    <       0.00000019 Ry

     iteration # 21     ecut=    60.00 Ry     beta= 0.30
     Davidson diagonalization with overlap
     ethr =  5.86E-11,  avg # of iterations =  5.7

     total cpu time spent up to now is      194.3 secs

     total energy              =   -5887.13483794 Ry
     estimated scf accuracy    <       0.00000007 Ry

     iteration # 22     ecut=    60.00 Ry     beta= 0.30
     Davidson diagonalization with overlap
     ethr =  2.03E-11,  avg # of iterations =  2.2

     total cpu time spent up to now is      199.9 secs

     total energy              =   -5887.13483798 Ry
     estimated scf accuracy    <       0.00000006 Ry

     iteration # 23     ecut=    60.00 Ry     beta= 0.30
     Davidson diagonalization with overlap
     ethr =  1.73E-11,  avg # of iterations =  5.1

     total cpu time spent up to now is      208.2 secs

     total energy              =   -5887.13483787 Ry
     estimated scf accuracy    <       0.00000038 Ry

     iteration # 24     ecut=    60.00 Ry     beta= 0.30
     Davidson diagonalization with overlap
     ethr =  1.73E-11,  avg # of iterations =  5.0

     total cpu time spent up to now is      216.9 secs

     total energy              =   -5887.13483794 Ry
     estimated scf accuracy    <          6.7E-09 Ry

     iteration # 25     ecut=    60.00 Ry     beta= 0.30
     Davidson diagonalization with overlap
     ethr =  2.08E-12,  avg # of iterations =  2.7

     total cpu time spent up to now is      222.5 secs

     total energy              =   -5887.13483794 Ry
     estimated scf accuracy    <          2.9E-09 Ry

     iteration # 26     ecut=    60.00 Ry     beta= 0.30
     Davidson diagonalization with overlap
     ethr =  8.95E-13,  avg # of iterations =  3.0

     total cpu time spent up to now is      228.7 secs

     total energy              =   -5887.13483794 Ry
     estimated scf accuracy    <          2.2E-09 Ry

     iteration # 27     ecut=    60.00 Ry     beta= 0.30
     Davidson diagonalization with overlap
     ethr =  6.75E-13,  avg # of iterations =  6.7

     total cpu time spent up to now is      235.8 secs

     total energy              =   -5887.13483794 Ry
     estimated scf accuracy    <          7.0E-10 Ry

     iteration # 28     ecut=    60.00 Ry     beta= 0.30
     Davidson diagonalization with overlap
     ethr =  2.20E-13,  avg # of iterations =  5.1

     total cpu time spent up to now is      242.3 secs

     total energy              =   -5887.13483794 Ry
     estimated scf accuracy    <          2.5E-10 Ry

     iteration # 29     ecut=    60.00 Ry     beta= 0.30
     Davidson diagonalization with overlap
     ethr =  1.00E-13,  avg # of iterations =  2.7

     total cpu time spent up to now is      248.0 secs

     total energy              =   -5887.13483794 Ry
     estimated scf accuracy    <          2.6E-10 Ry

     iteration # 30     ecut=    60.00 Ry     beta= 0.30
     Davidson diagonalization with overlap
     ethr =  1.00E-13,  avg # of iterations =  3.4

     total cpu time spent up to now is      254.5 secs

     End of self-consistent calculation

          k = 0.0000 0.0000 0.0000 ( 27305 PWs)   bands (ev):

   -45.9848 -45.9839 -45.9838 -45.9838 -45.9829 -45.9829 -45.9827 -45.9818
   -22.4341 -22.4303 -22.4303 -22.4276 -22.3845 -22.3823 -22.3823 -22.3802
   -22.3791 -22.3791 -22.3757 -22.3757 -22.3754 -22.3754 -22.3730 -22.3730
   -22.3235 -22.3235 -22.3215 -22.3215 -22.3213 -22.3213 -22.3194 -22.3194
   -14.5420 -14.4272 -14.4176 -14.4176 -14.3466 -14.3466 -14.3384 -14.2762
    -6.8476  -6.8476  -6.7981  -6.5962  -6.3064  -6.1986  -6.1986  -5.9541
    -5.9541  -5.9520  -5.8905  -5.8905  -5.8602  -5.8265  -5.7992  -5.7992
    -5.7960  -5.7960  -5.7751  -5.7083  -5.6204  -5.6204  -5.5579  -5.5579
    -0.4722  -0.4722  -0.4097   0.2095   0.2095   0.2259   0.2259   0.2730
     0.2824   0.2824   0.2838   0.2838   0.4424   0.4424   0.4466   0.4466
     0.4649   0.4649   0.6613   0.6665   0.6665   0.6893   0.6893   0.7334
     5.7141   5.8859   5.9131   5.9131   6.0828   6.0828   6.1347   6.1605
     6.2318   6.2318   6.3967   6.3967   6.3978   6.4167   6.4330   7.3363
     7.3363   7.3923   7.3923   7.4396   7.4396   7.4399   7.4399   7.4471
     7.4471   7.5451   7.5451   7.7695   7.7695   7.7960   7.8905   7.9104
     7.9104   7.9221   7.9221   8.2196   8.2196   8.2652   8.2753   8.2818
     8.2819   8.3809   8.3809   8.4565   8.5260   8.5260   8.5437   8.5437
     8.8895   8.8895   9.0676   9.1903   9.1904   9.2308   9.2308   9.3243
     9.3243   9.3354   9.3354   9.3506   9.3506   9.5644   9.5644   9.8570
     9.9155   9.9155  10.0342  10.0342  10.1053  10.1053  10.1947  10.2662
    12.0430  12.1961  12.3679  12.3679  12.4897  12.4897  13.8069  13.8069
    13.8372  13.8372  13.8639  13.8639  13.8705  13.8705  13.8863  13.8863
    13.8883  13.8883  14.2259  14.2259  14.2552  14.3565  14.3569  14.4387
    14.4387  14.4840  14.4840  14.4908  14.5035  14.9707  15.0679  15.1832
    15.1832  15.2149  16.1744  16.1744  16.3766  16.6785  16.8761  16.8762

          k = 0.0000 0.0000 0.1236 ( 27265 PWs)   bands (ev):

   -45.9848 -45.9840 -45.9838 -45.9838 -45.9829 -45.9829 -45.9827 -45.9818
   -22.4322 -22.4285 -22.4285 -22.4258 -22.3864 -22.3842 -22.3842 -22.3820
   -22.3790 -22.3790 -22.3758 -22.3758 -22.3753 -22.3753 -22.3730 -22.3730
   -22.3234 -22.3234 -22.3216 -22.3216 -22.3212 -22.3212 -22.3195 -22.3195
   -14.5377 -14.4317 -14.4150 -14.4149 -14.3494 -14.3493 -14.3361 -14.2786
    -6.8285  -6.8285  -6.7852  -6.5950  -6.2875  -6.2404  -6.2404  -5.9535
    -5.9354  -5.9354  -5.8882  -5.8882  -5.8590  -5.8278  -5.7968  -5.7899
    -5.7899  -5.7897  -5.7897  -5.7248  -5.6275  -5.6275  -5.5669  -5.5669
    -0.4476  -0.4476  -0.3760   0.1818   0.1818   0.2418   0.2418   0.2870
     0.2870   0.2896   0.2896   0.2908   0.4360   0.4360   0.4385   0.4385
     0.4721   0.4721   0.6104   0.6584   0.6584   0.6699   0.6699   0.7160
     5.7415   5.8865   5.9467   5.9467   6.1237   6.1237   6.2077   6.2218
     6.2241   6.2241   6.4173   6.4277   6.4277   6.4324   6.4405   7.3393
     7.3393   7.3909   7.3909   7.4317   7.4317   7.4634   7.4634   7.4695
     7.4695   7.5751   7.5751   7.7125   7.7125   7.7396   7.7654   7.7654
     7.8198   7.9106   7.9106   8.2327   8.2327   8.2911   8.3180   8.3180
     8.3199   8.3451   8.3467   8.3467   8.5447   8.5447   8.7401   8.7401
     8.8448   8.8448   9.0307   9.1555   9.1555   9.2505   9.2505   9.2716
     9.2716   9.2959   9.2959   9.3105   9.3105   9.5763   9.5763   9.7666
     9.9016   9.9016  10.0124  10.0124  10.0584  10.0584  10.1973  10.2635
    12.0486  12.1900  12.4342  12.4342  12.5495  12.5496  13.8082  13.8082
    13.8182  13.8182  13.8363  13.8363  13.8364  13.8364  13.8654  13.8654
    13.9083  13.9083  14.1995  14.1996  14.2637  14.3563  14.3564  14.4562
    14.4562  14.4815  14.5170  14.5170  14.6081  15.0934  15.1446  15.1787
    15.1787  15.2896  16.2198  16.2198  16.3237  16.6798  16.9743  17.0270

          k = 0.0000 0.0000 0.2473 ( 27286 PWs)   bands (ev):

   -45.9847 -45.9841 -45.9836 -45.9836 -45.9830 -45.9830 -45.9826 -45.9819
   -22.4269 -22.4234 -22.4234 -22.4207 -22.3919 -22.3894 -22.3894 -22.3872
   -22.3786 -22.3786 -22.3762 -22.3762 -22.3750 -22.3750 -22.3733 -22.3733
   -22.3232 -22.3232 -22.3218 -22.3218 -22.3210 -22.3210 -22.3197 -22.3197
   -14.5255 -14.4444 -14.4074 -14.4074 -14.3572 -14.3571 -14.3294 -14.2854
    -6.7727  -6.7727  -6.7493  -6.5966  -6.3372  -6.3372  -6.2332  -5.9521
    -5.9043  -5.9043  -5.8827  -5.8827  -5.8580  -5.8553  -5.8315  -5.7718
    -5.7718  -5.7700  -5.7635  -5.7635  -5.6477  -5.6477  -5.5928  -5.5928
    -0.3773  -0.3773  -0.2779   0.1037   0.1037   0.2877   0.2877   0.3008
     0.3008   0.3061   0.3061   0.3414   0.4164   0.4165   0.4182   0.4182
     0.4714   0.4929   0.4929   0.6154   0.6154   0.6354   0.6354   0.6666
     5.8005   5.8876   6.0218   6.0218   6.2035   6.2035   6.2446   6.2446
     6.3982   6.4098   6.4191   6.4307   6.5367   6.5367   6.5845   7.3472
     7.3472   7.3651   7.3651   7.3819   7.3819   7.3864   7.3864   7.5284
     7.5284   7.5299   7.5299   7.5769   7.6208   7.6607   7.6607   7.7509
     7.7509   7.8752   7.8752   8.0474   8.2504   8.2504   8.2730   8.2730
     8.3661   8.4354   8.4355   8.4505   8.6000   8.6000   8.7295   8.7295
     8.9292   9.0623   9.0623   9.0655   9.0655   9.1347   9.1347   9.1960
     9.1960   9.2191   9.2191   9.3124   9.3124   9.5329   9.6109   9.6109
     9.8614   9.8614   9.9308   9.9308   9.9430   9.9430  10.2050  10.2555
    12.0646  12.1728  12.6166  12.6166  12.7148  12.7149  13.6681  13.6681
    13.6935  13.6935  13.8119  13.8119  13.8332  13.8332  13.8751  13.8751
    13.9661  13.9661  14.1300  14.1300  14.2883  14.3554  14.3560  14.3810
    14.3810  14.4550  14.7032  14.7032  14.8807  15.1613  15.1613  15.3613
    15.4205  15.5070  16.1685  16.3653  16.3653  16.6625  16.7933  17.2041

          k = 0.0000 0.0000 0.3709 ( 27278 PWs)   bands (ev):

   -45.9846 -45.9842 -45.9835 -45.9835 -45.9831 -45.9831 -45.9824 -45.9821
   -22.4189 -22.4156 -22.4156 -22.4130 -22.4000 -22.3972 -22.3972 -22.3949
   -22.3780 -22.3780 -22.3767 -22.3767 -22.3746 -22.3746 -22.3737 -22.3737
   -22.3228 -22.3228 -22.3221 -22.3221 -22.3207 -22.3207 -22.3200 -22.3200
   -14.5072 -14.4633 -14.3960 -14.3960 -14.3688 -14.3688 -14.3194 -14.2956
    -6.6993  -6.6859  -6.6859  -6.6125  -6.4555  -6.4555  -6.1504  -5.9476
    -5.9342  -5.8832  -5.8832  -5.8768  -5.8768  -5.8499  -5.8369  -5.8315
    -5.7444  -5.7444  -5.7241  -5.7240  -5.6773  -5.6773  -5.6317  -5.6317
    -0.2706  -0.2706  -0.1243  -0.0106  -0.0106   0.2783   0.3233   0.3233
     0.3311   0.3311   0.3587   0.3587   0.3857   0.3857   0.3917   0.3917
     0.4167   0.5245   0.5245   0.5360   0.5360   0.5925   0.6016   0.6016
     5.8504   5.8862   6.0908   6.0908   6.1747   6.1747   6.4217   6.4280
     6.4401   6.4401   6.6674   6.6979   6.7416   6.7416   6.8509   7.0157
     7.0157   7.2409   7.2409   7.3268   7.3288   7.3580   7.3580   7.3791
     7.3791   7.6031   7.6031   7.6248   7.6248   7.6447   7.7212   7.7212
     7.7910   7.7910   7.8133   7.8133   8.1096   8.1096   8.3439   8.3439
     8.4833   8.5846   8.5846   8.6125   8.6125   8.6578   8.6891   8.6891
     8.7864   8.9367   8.9368   9.0240   9.0240   9.0371   9.0371   9.1197
     9.1197   9.2314   9.3730   9.3730   9.4213   9.4213   9.6648   9.6648
     9.7562   9.7562   9.8010   9.8010   9.8172   9.8173  10.2165  10.2438
    12.0887  12.1474  12.8749  12.8749  12.9515  12.9515  13.4402  13.4402
    13.4779  13.4779  13.8171  13.8171  13.8286  13.8286  13.9041  13.9041
    14.0417  14.0417  14.0545  14.0545  14.2768  14.2768  14.3257  14.3550
    14.3555  14.4158  14.8985  14.8985  15.1205  15.1205  15.2365  15.6837
    15.8478  15.8539  15.9209  16.4542  16.5542  16.6221  16.6222  16.7544

          k = 0.0000 0.0000-0.4946 ( 27198 PWs)   bands (ev):

   -45.9844 -45.9844 -45.9833 -45.9833 -45.9833 -45.9833 -45.9822 -45.9822
   -22.4095 -22.4094 -22.4064 -22.4064 -22.4064 -22.4064 -22.4040 -22.4039
   -22.3774 -22.3774 -22.3774 -22.3774 -22.3742 -22.3742 -22.3742 -22.3742
   -22.3225 -22.3225 -22.3224 -22.3224 -22.3203 -22.3203 -22.3203 -22.3203
   -14.4854 -14.4853 -14.3825 -14.3825 -14.3824 -14.3824 -14.3076 -14.3075
    -6.6490  -6.6488  -6.5764  -6.5764  -6.5763  -6.5763  -6.0505  -6.0503
    -5.8918  -5.8917  -5.8752  -5.8752  -5.8752  -5.8752  -5.8435  -5.8433
    -5.7114  -5.7114  -5.7112  -5.7112  -5.6778  -5.6778  -5.6777  -5.6777
    -0.1422  -0.1422  -0.1421  -0.1421   0.0689   0.0691   0.3527   0.3528
     0.3529   0.3529   0.3611   0.3611   0.3612   0.3612   0.4456   0.4456
     0.4456   0.4456   0.5048   0.5049   0.5626   0.5626   0.5626   0.5626
     5.8767   5.8768   6.1388   6.1388   6.1389   6.1389   6.4248   6.4249
     6.7012   6.7012   6.7014   6.7014   6.9933   6.9934   7.0043   7.0043
     7.0044   7.0044   7.0200   7.0201   7.2220   7.2222   7.3692   7.3692
     7.3693   7.3693   7.6716   7.6716   7.6716   7.6716   7.7262   7.7262
     7.7263   7.7263   7.9481   7.9481   7.9482   7.9482   8.4489   8.4489
     8.4490   8.4490   8.6296   8.6297   8.8056   8.8056   8.8056   8.8056
     8.8194   8.8194   8.8195   8.8195   8.9263   8.9263   9.0408   9.0408
     9.0409   9.0409   9.5752   9.5752   9.5752   9.5752   9.6274   9.6274
     9.6274   9.6274   9.7314   9.7314   9.7315   9.7315  10.2300  10.2302
    12.1178  12.1179  13.1636  13.1636  13.1637  13.1637  13.2188  13.2188
    13.2189  13.2189  13.8230  13.8230  13.8231  13.8231  13.9606  13.9606
    13.9606  13.9606  14.1627  14.1627  14.1628  14.1628  14.3552  14.3552
    14.3704  14.3704  15.0391  15.0391  15.0392  15.0392  15.5999  15.6000
    16.0653  16.0656  16.2725  16.2727  16.2795  16.2796  16.9645  16.9646

          k = 0.0000 0.1250 0.0000 ( 27301 PWs)   bands (ev):

   -45.9848 -45.9839 -45.9838 -45.9837 -45.9829 -45.9828 -45.9827 -45.9818
   -22.4339 -22.4305 -22.4302 -22.4277 -22.3845 -22.3824 -22.3822 -22.3803
   -22.3790 -22.3770 -22.3756 -22.3755 -22.3736 -22.3734 -22.3731 -22.3709
   -22.3256 -22.3236 -22.3234 -22.3233 -22.3215 -22.3214 -22.3213 -22.3195
   -14.5374 -14.4242 -14.4225 -14.4147 -14.3497 -14.3439 -14.3415 -14.2789
    -6.8339  -6.8293  -6.7788  -6.5982  -6.3308  -6.2284  -6.1782  -5.9492
    -5.9476  -5.9453  -5.8920  -5.8856  -5.8588  -5.8229  -5.7969  -5.7934
    -5.7928  -5.7867  -5.7826  -5.7175  -5.6439  -5.6276  -5.5766  -5.5667
    -0.4472  -0.4398  -0.3815   0.1974   0.2168   0.2257   0.2323   0.2536
     0.2792   0.2904   0.2976   0.2997   0.4320   0.4396   0.4417   0.4504
     0.4576   0.4652   0.6125   0.6530   0.6574   0.6691   0.6742   0.7144
     5.7436   5.9129   5.9208   5.9450   6.1106   6.1541   6.1582   6.1766
     6.2226   6.2924   6.3969   6.4030   6.4451   6.4477   6.4685   7.3596
     7.3648   7.3863   7.4177   7.4193   7.4419   7.4454   7.4484   7.4629
     7.4769   7.5428   7.5639   7.7109   7.7646   7.7956   7.8421   7.8479
     7.8544   7.8870   7.9117   7.9417   8.0058   8.1845   8.3098   8.3159
     8.3869   8.4153   8.4785   8.5110   8.5571   8.5636   8.6465   8.7597
     8.8222   8.8521   9.0359   9.0483   9.1937   9.2078   9.2112   9.2819
     9.3305   9.3457   9.3550   9.3735   9.3928   9.4897   9.5075   9.7448
     9.8710   9.9308  10.0115  10.0369  10.0630  10.1018  10.1705  10.2203
    12.1308  12.2747  12.3734  12.3996  12.4841  12.5192  13.7502  13.7821
    13.7988  13.8108  13.8227  13.8557  13.8585  13.8652  13.8710  13.8856
    13.8871  13.8953  14.1946  14.2246  14.2357  14.4264  14.4430  14.4491
    14.4521  14.4567  14.4761  14.5198  14.5568  14.9808  15.1468  15.1774
    15.2931  15.3117  16.1354  16.2306  16.4236  16.7178  16.9372  17.1543

          k = 0.0000 0.1250 0.1236 ( 27298 PWs)   bands (ev):

   -45.9848 -45.9839 -45.9838 -45.9837 -45.9829 -45.9828 -45.9827 -45.9819
   -22.4321 -22.4287 -22.4284 -22.4259 -22.3864 -22.3842 -22.3841 -22.3821
   -22.3788 -22.3769 -22.3757 -22.3754 -22.3738 -22.3733 -22.3732 -22.3710
   -22.3255 -22.3237 -22.3233 -22.3233 -22.3215 -22.3215 -22.3213 -22.3196
   -14.5332 -14.4286 -14.4198 -14.4120 -14.3525 -14.3467 -14.3392 -14.2813
    -6.8151  -6.8101  -6.7664  -6.5961  -6.3118  -6.2623  -6.2209  -5.9512
    -5.9340  -5.9283  -5.8900  -5.8833  -5.8574  -5.8243  -5.8072  -5.7909
    -5.7846  -5.7840  -5.7810  -5.7338  -5.6479  -5.6341  -5.5853  -5.5751
    -0.4263  -0.4230  -0.3386   0.1874   0.1983   0.2136   0.2414   0.2561
     0.2777   0.2962   0.3078   0.3231   0.4138   0.4249   0.4304   0.4440
     0.4648   0.4899   0.6070   0.6100   0.6493   0.6494   0.6582   0.7000
     5.7724   5.9215   5.9465   5.9802   6.1527   6.1943   6.2148   6.2153
     6.2446   6.2841   6.4277   6.4376   6.4483   6.4731   6.4738   7.3616
     7.3677   7.3804   7.4179   7.4369   7.4469   7.4471   7.4656   7.4658
     7.4976   7.5728   7.5914   7.6710   7.6711   7.7521   7.7621   7.7780
     7.7854   7.8671   7.8869   7.9011   7.9995   8.1972   8.3409   8.3517
     8.3520   8.3687   8.4334   8.5756   8.6565   8.6637   8.7497   8.7588
     8.7963   8.8077   8.9922   9.0400   9.1771   9.2165   9.2235   9.2266
     9.2961   9.3176   9.3257   9.3369   9.3370   9.5039   9.5196   9.6811
     9.8562   9.8938   9.9918  10.0140  10.0168  10.0538  10.1725  10.2213
    12.1359  12.2689  12.4396  12.4607  12.5442  12.5779  13.7517  13.7798
    13.8012  13.8034  13.8129  13.8188  13.8366  13.8448  13.8454  13.8569
    13.8675  13.9066  14.1662  14.2092  14.2331  14.4229  14.4373  14.4418
    14.4488  14.4537  14.5207  14.6029  14.6506  15.1032  15.1728  15.2216
    15.3081  15.3671  16.1807  16.2706  16.3706  16.7329  17.0163  17.0692

          k = 0.0000 0.1250 0.2473 ( 27275 PWs)   bands (ev):

   -45.9847 -45.9840 -45.9837 -45.9836 -45.9830 -45.9829 -45.9826 -45.9820
   -22.4268 -22.4235 -22.4233 -22.4208 -22.3918 -22.3895 -22.3893 -22.3872
   -22.3785 -22.3765 -22.3761 -22.3752 -22.3741 -22.3734 -22.3730 -22.3713
   -22.3253 -22.3239 -22.3231 -22.3231 -22.3217 -22.3217 -22.3211 -22.3197
   -14.5212 -14.4412 -14.4120 -14.4045 -14.3606 -14.3545 -14.3325 -14.2882
    -6.7607  -6.7544  -6.7320  -6.5949  -6.3468  -6.3184  -6.2573  -5.9515
    -5.9111  -5.8969  -5.8851  -5.8774  -5.8737  -5.8536  -5.8284  -5.7782
    -5.7736  -5.7646  -5.7613  -5.7591  -5.6619  -5.6521  -5.6102  -5.5992
    -0.3717  -0.3537  -0.2299   0.1052   0.1212   0.2604   0.2643   0.2648
     0.2882   0.3128   0.3404   0.3746   0.3750   0.4049   0.4051   0.4259
     0.4814   0.4854   0.5199   0.5939   0.6023   0.6128   0.6266   0.6589
     5.8344   5.9226   6.0212   6.0605   6.1957   6.2619   6.2770   6.3018
     6.3894   6.4330   6.4500   6.4596   6.5370   6.5732   6.5890   7.3434
     7.3437   7.3544   7.3669   7.3755   7.4136   7.4244   7.4563   7.4923
     7.5149   7.5277   7.5319   7.5515   7.5924   7.6587   7.6686   7.7525
     7.7538   7.8254   7.8679   7.9780   8.0129   8.0791   8.2368   8.2540
     8.4321   8.4637   8.4860   8.6130   8.6305   8.6928   8.7180   8.7202
     8.8817   8.9890   9.0179   9.0591   9.0859   9.1005   9.2097   9.2155
     9.2342   9.2427   9.2719   9.2859   9.2866   9.4848   9.5449   9.5551
     9.8139   9.8292   9.8912   9.9273   9.9288   9.9420  10.1784  10.2181
    12.1507  12.2526  12.6212  12.6308  12.7100  12.7404  13.6539  13.6690
    13.6897  13.7036  13.7556  13.7804  13.8133  13.8188  13.8521  13.8792
    13.9071  13.9628  14.0913  14.1395  14.2575  14.3443  14.3707  14.4234
    14.4437  14.4482  14.7052  14.8026  14.9187  15.1555  15.2925  15.4306
    15.4329  15.5830  16.2146  16.3260  16.4014  16.7227  16.8367  17.2767

          k = 0.0000 0.1250 0.3709 ( 27251 PWs)   bands (ev):

   -45.9845 -45.9842 -45.9835 -45.9834 -45.9832 -45.9831 -45.9824 -45.9821
   -22.4188 -22.4157 -22.4155 -22.4131 -22.3999 -22.3973 -22.3971 -22.3950
   -22.3779 -22.3766 -22.3759 -22.3748 -22.3747 -22.3738 -22.3726 -22.3717
   -22.3249 -22.3242 -22.3228 -22.3227 -22.3220 -22.3220 -22.3207 -22.3200
   -14.5031 -14.4598 -14.4003 -14.3931 -14.3725 -14.3661 -14.3224 -14.2984
    -6.6848  -6.6763  -6.6675  -6.6064  -6.4560  -6.4369  -6.1741  -5.9675
    -5.9363  -5.8912  -5.8806  -5.8761  -5.8710  -5.8477  -5.8407  -5.8319
    -5.7475  -5.7396  -5.7283  -5.7220  -5.6863  -5.6788  -5.6468  -5.6355
    -0.2746  -0.2484  -0.0748  -0.0141   0.0082   0.2801   0.2960   0.3049
     0.3115   0.3327   0.3373   0.3381   0.3700   0.3757   0.3968   0.3993
     0.4438   0.5132   0.5167   0.5460   0.5470   0.5890   0.5931   0.5965
     5.8861   5.9215   6.0886   6.1367   6.1685   6.2303   6.4525   6.4583
     6.4742   6.4783   6.6553   6.7025   6.7433   6.7687   6.8477   7.0126
     7.0397   7.2388   7.2692   7.2939   7.3061   7.3745   7.3860   7.3963
     7.4065   7.5195   7.5755   7.6190   7.6259   7.7246   7.7315   7.7437
     7.7589   7.7798   7.7895   7.8093   7.9863   8.1110   8.1111   8.3068
     8.4401   8.5477   8.5663   8.5744   8.6194   8.7188   8.7620   8.7882
     8.8186   8.8846   8.9480   8.9627   9.0353   9.0849   9.1125   9.1501
     9.1727   9.2231   9.3620   9.3912   9.4021   9.4061   9.6072   9.6104
     9.7193   9.7510   9.7536   9.7587   9.8126   9.8129  10.1874  10.2096
    12.1733  12.2285  12.8765  12.8785  12.9473  12.9726  13.4279  13.4417
    13.4747  13.4905  13.7614  13.7743  13.8271  13.8449  13.8461  13.9105
    13.9959  14.0012  14.0491  14.0506  14.2355  14.2677  14.2944  14.3841
    14.4454  14.4473  14.8977  15.0143  15.1153  15.2521  15.2761  15.7472
    15.8678  15.9220  15.9657  16.5017  16.5827  16.6000  16.6401  16.8268

          k = 0.0000 0.1250-0.4946 ( 27254 PWs)   bands (ev):

   -45.9844 -45.9844 -45.9833 -45.9833 -45.9832 -45.9832 -45.9823 -45.9823
   -22.4094 -22.4093 -22.4065 -22.4065 -22.4063 -22.4063 -22.4041 -22.4041
   -22.3773 -22.3772 -22.3753 -22.3753 -22.3743 -22.3743 -22.3722 -22.3721
   -22.3246 -22.3246 -22.3224 -22.3224 -22.3224 -22.3224 -22.3204 -22.3204
   -14.4816 -14.4815 -14.3865 -14.3864 -14.3797 -14.3796 -14.3105 -14.3104
    -6.6383  -6.6382  -6.5709  -6.5707  -6.5580  -6.5578  -6.0729  -6.0727
    -5.8969  -5.8968  -5.8812  -5.8811  -5.8688  -5.8687  -5.8408  -5.8407
    -5.7167  -5.7166  -5.7096  -5.7095  -5.6886  -5.6885  -5.6786  -5.6785
    -0.1486  -0.1485  -0.1218  -0.1217   0.1103   0.1104   0.3046   0.3047
     0.3318   0.3319   0.3426   0.3426   0.3684   0.3684   0.4211   0.4212
     0.4695   0.4695   0.5213   0.5214   0.5544   0.5545   0.5703   0.5704
     5.9124   5.9125   6.1346   6.1347   6.1905   6.1906   6.4554   6.4555
     6.7185   6.7186   6.7329   6.7330   6.9764   6.9765   7.0051   7.0051
     7.0070   7.0071   7.0278   7.0280   7.2055   7.2057   7.3835   7.3836
     7.3969   7.3970   7.6708   7.6709   7.6800   7.6801   7.6992   7.6992
     7.7253   7.7254   7.8982   7.8983   7.9477   7.9478   8.2686   8.2686
     8.4116   8.4117   8.6611   8.6611   8.7390   8.7391   8.7854   8.7854
     8.8337   8.8338   8.9215   8.9216   8.9848   8.9848   9.0710   9.0710
     9.0895   9.0895   9.5415   9.5415   9.5687   9.5687   9.6188   9.6189
     9.6361   9.6361   9.6791   9.6791   9.6820   9.6821  10.1984  10.1985
    12.2006  12.2006  13.1561  13.1562  13.1660  13.1661  13.2152  13.2153
    13.2354  13.2355  13.7678  13.7679  13.8362  13.8362  13.9080  13.9080
    13.9687  13.9688  14.1154  14.1155  14.1551  14.1551  14.3388  14.3388
    14.4464  14.4464  15.0356  15.0356  15.1665  15.1665  15.6423  15.6424
    16.1201  16.1203  16.2976  16.2978  16.3524  16.3525  16.9240  16.9241

          k = 0.0000 0.2500 0.0000 ( 27273 PWs)   bands (ev):

   -45.9847 -45.9839 -45.9837 -45.9836 -45.9830 -45.9829 -45.9827 -45.9820
   -22.4336 -22.4309 -22.4299 -22.4280 -22.3842 -22.3827 -22.3820 -22.3805
   -22.3786 -22.3759 -22.3753 -22.3734 -22.3710 -22.3678 -22.3675 -22.3652
   -22.3316 -22.3295 -22.3292 -22.3273 -22.3231 -22.3216 -22.3212 -22.3197
   -14.5242 -14.4363 -14.4156 -14.4062 -14.3586 -14.3503 -14.3364 -14.2867
    -6.7955  -6.7765  -6.7229  -6.6087  -6.3975  -6.3074  -6.1196  -5.9402
    -5.9289  -5.9194  -5.8964  -5.8720  -5.8501  -5.8132  -5.8040  -5.8017
    -5.7839  -5.7745  -5.7604  -5.7437  -5.7098  -5.6482  -5.6279  -5.5920
    -0.3754  -0.3498  -0.2963   0.1172   0.1725   0.2383   0.2510   0.2729
     0.2971   0.3091   0.3420   0.3446   0.4034   0.4120   0.4198   0.4370
     0.4658   0.4734   0.4837   0.6123   0.6293   0.6311   0.6317   0.6610
     5.8083   5.9121   6.0000   6.0101   6.1373   6.1986   6.2066   6.3010
     6.3660   6.3974   6.4043   6.4665   6.5568   6.5961   6.6052   7.2774
     7.3620   7.4159   7.4369   7.4409   7.4485   7.4493   7.4769   7.4949
     7.5274   7.5470   7.5477   7.5559   7.5616   7.6126   7.6575   7.7481
     7.7863   7.8546   7.8779   7.9917   8.0283   8.0857   8.1280   8.4076
     8.4135   8.4284   8.5122   8.5355   8.6308   8.6470   8.6660   8.7540
     8.8139   8.9740   9.0211   9.0879   9.1403   9.1535   9.1693   9.2690
     9.2719   9.3214   9.3592   9.3751   9.4049   9.4125   9.4439   9.5343
     9.7606   9.8677   9.9398   9.9484  10.0445  10.0780  10.0945  10.1089
    12.3378  12.4130  12.4685  12.4853  12.5249  12.6299  13.5869  13.6182
    13.6240  13.6440  13.8265  13.8423  13.8693  13.8724  13.8836  13.8838
    13.9198  13.9341  14.1127  14.1439  14.2638  14.3661  14.3719  14.4476
    14.4516  14.4592  14.6547  14.6986  14.8260  14.9987  15.1561  15.3744
    15.5163  15.6461  16.0164  16.4073  16.5697  16.7708  16.9134  17.1425

          k = 0.0000 0.2500 0.1236 ( 27257 PWs)   bands (ev):

   -45.9846 -45.9839 -45.9838 -45.9836 -45.9830 -45.9828 -45.9827 -45.9820
   -22.4317 -22.4291 -22.4281 -22.4262 -22.3861 -22.3845 -22.3838 -22.3823
   -22.3784 -22.3758 -22.3754 -22.3735 -22.3709 -22.3679 -22.3674 -22.3653
   -22.3315 -22.3296 -22.3292 -22.3274 -22.3230 -22.3215 -22.3212 -22.3198
   -14.5202 -14.4334 -14.4199 -14.4036 -14.3616 -14.3479 -14.3391 -14.2891
    -6.7780  -6.7573  -6.7121  -6.6039  -6.3784  -6.3259  -6.1650  -5.9433
    -5.9210  -5.9074  -5.8951  -5.8694  -5.8490  -5.8396  -5.8155  -5.7962
    -5.7765  -5.7672  -5.7586  -5.7562  -5.7021  -5.6525  -5.6358  -5.5986
    -0.3584  -0.3522  -0.2364   0.1343   0.1689   0.2047   0.2464   0.2504
     0.2844   0.3151   0.3581   0.3703   0.3741   0.3945   0.4076   0.4440
     0.4668   0.4784   0.5146   0.5916   0.5973   0.6239   0.6241   0.6545
     5.8402   5.9457   6.0003   6.0518   6.1922   6.1964   6.2475   6.3547
     6.3891   6.4281   6.4362   6.4563   6.5577   6.6081   6.6184   7.2948
     7.3542   7.4134   7.4205   7.4412   7.4558   7.4564   7.4722   7.4936
     7.4948   7.5098   7.5756   7.5759   7.5879   7.6207   7.6335   7.7504
     7.7763   7.8089   7.8602   7.8694   7.8964   8.0977   8.1481   8.3707
     8.4301   8.4501   8.4551   8.5825   8.6652   8.6878   8.7103   8.7635
     8.7851   9.0070   9.0151   9.0992   9.1205   9.1341   9.1686   9.2398
     9.2904   9.3246   9.3514   9.3651   9.3723   9.3755   9.4169   9.4854
     9.7433   9.8297   9.9043   9.9265  10.0191  10.0305  10.0946  10.1152
    12.3536  12.4666  12.4802  12.5290  12.5717  12.6849  13.5887  13.6215
    13.6231  13.6706  13.7901  13.8204  13.8307  13.8342  13.8739  13.8855
    13.9016  13.9166  14.0790  14.1523  14.2370  14.3338  14.3622  14.4203
    14.5150  14.5280  14.6545  14.7942  14.8773  15.1207  15.1515  15.4439
    15.5888  15.6451  16.0611  16.4335  16.5161  16.8160  16.9486  17.1891

          k = 0.0000 0.2500 0.2473 ( 27257 PWs)   bands (ev):

   -45.9846 -45.9839 -45.9838 -45.9835 -45.9831 -45.9828 -45.9827 -45.9821
   -22.4264 -22.4239 -22.4230 -22.4211 -22.3915 -22.3898 -22.3891 -22.3875
   -22.3781 -22.3758 -22.3756 -22.3737 -22.3705 -22.3683 -22.3672 -22.3655
   -22.3313 -22.3298 -22.3290 -22.3276 -22.3228 -22.3215 -22.3213 -22.3200
   -14.5086 -14.4319 -14.4251 -14.3962 -14.3702 -14.3468 -14.3411 -14.2961
    -6.7278  -6.7015  -6.6828  -6.5946  -6.3800  -6.3235  -6.2646  -5.9476
    -5.9207  -5.9191  -5.8924  -5.8752  -5.8625  -5.8452  -5.8248  -5.7959
    -5.7808  -5.7602  -5.7467  -5.7442  -5.6994  -5.6648  -5.6575  -5.6176
    -0.3311  -0.2858  -0.1155   0.1134   0.1648   0.1718   0.1836   0.2548
     0.2768   0.3048   0.3322   0.3707   0.3761   0.3989   0.4292   0.4482
     0.4641   0.5061   0.5086   0.5336   0.5500   0.6017   0.6017   0.6341
     5.9087   6.0006   6.0193   6.1527   6.1755   6.3657   6.3694   6.4282
     6.4606   6.5046   6.5270   6.5384   6.5603   6.6415   6.6990   7.2327
     7.3303   7.3448   7.3627   7.3925   7.4073   7.4472   7.4508   7.4824
     7.4839   7.4894   7.5376   7.5916   7.6124   7.6599   7.6824   7.6887
     7.7137   7.7549   7.7551   7.8324   7.8428   8.1355   8.1591   8.2045
     8.2679   8.4103   8.5323   8.5444   8.5958   8.6341   8.7187   8.9711
     8.9821   8.9851   9.0109   9.0311   9.1375   9.1540   9.2165   9.2184
     9.2185   9.2816   9.2976   9.3271   9.3345   9.3439   9.4106   9.4254
     9.6947   9.7607   9.7842   9.8817   9.9145   9.9402  10.0953  10.1142
    12.3739  12.4660  12.6382  12.6961  12.7075  12.8367  13.5936  13.6083
    13.6421  13.6422  13.6718  13.6992  13.7450  13.7480  13.8422  13.8911
    13.9073  13.9532  13.9896  14.1667  14.1761  14.2460  14.3298  14.3518
    14.5945  14.6533  14.7081  15.0314  15.0796  15.1346  15.4485  15.6346
    15.6391  15.8018  16.2056  16.3585  16.5234  16.8465  16.9592  17.0495

          k = 0.0000 0.2500 0.3709 ( 27250 PWs)   bands (ev):

   -45.9844 -45.9841 -45.9836 -45.9833 -45.9833 -45.9830 -45.9826 -45.9822
   -22.4184 -22.4161 -22.4152 -22.4134 -22.3996 -22.3976 -22.3969 -22.3952
   -22.3775 -22.3763 -22.3751 -22.3742 -22.3700 -22.3688 -22.3668 -22.3659
   -22.3310 -22.3301 -22.3286 -22.3279 -22.3225 -22.3218 -22.3210 -22.3203
   -14.4913 -14.4497 -14.4126 -14.3850 -14.3829 -14.3582 -14.3308 -14.3065
    -6.6510  -6.6443  -6.6145  -6.5932  -6.4623  -6.3838  -6.2389  -6.0241
    -5.9404  -5.9089  -5.8918  -5.8626  -5.8558  -5.8546  -5.8388  -5.8202
    -5.7581  -5.7406  -5.7261  -5.7163  -5.7111  -5.6870  -5.6832  -5.6465
    -0.2562  -0.1847  -0.0122   0.0381   0.0626   0.1723   0.2442   0.2596
     0.2707   0.2855   0.3364   0.3392   0.3581   0.3693   0.4209   0.4490
     0.4530   0.4907   0.4947   0.5408   0.5627   0.5669   0.5691   0.5988
     5.9638   5.9991   6.0831   6.1526   6.2572   6.3872   6.5639   6.5642
     6.5660   6.5846   6.6215   6.7216   6.7485   6.8439   6.8674   6.9876
     7.1007   7.2029   7.2327   7.2384   7.3635   7.4006   7.4114   7.4217
     7.4363   7.4621   7.4826   7.6163   7.6285   7.6570   7.7295   7.7567
     7.7581   7.7910   7.7943   7.8280   7.8309   7.8687   8.1195   8.2042
     8.2142   8.2861   8.4490   8.4918   8.6405   8.6536   8.8043   8.8372
     8.9720   9.0275   9.0376   9.0425   9.1034   9.1382   9.1607   9.2012
     9.2190   9.2471   9.3121   9.3367   9.3675   9.4705   9.4712   9.5181
     9.6200   9.6243   9.6912   9.7471   9.7944   9.8009  10.0976  10.1084
    12.3958  12.4449  12.8899  12.9159  12.9352  13.0541  13.4229  13.4464
    13.4612  13.5435  13.6010  13.6223  13.6869  13.8551  13.8580  13.8744
    13.8930  13.9287  14.0332  14.0764  14.1231  14.2123  14.2403  14.3013
    14.6297  14.6502  14.8930  15.0966  15.2964  15.4151  15.5933  15.8926
    15.9287  16.1067  16.1387  16.4620  16.6356  16.6935  16.7054  17.0417

          k = 0.0000 0.2500-0.4946 ( 27256 PWs)   bands (ev):

   -45.9842 -45.9842 -45.9835 -45.9835 -45.9832 -45.9832 -45.9824 -45.9824
   -22.4090 -22.4090 -22.4069 -22.4069 -22.4061 -22.4061 -22.4043 -22.4043
   -22.3769 -22.3769 -22.3747 -22.3746 -22.3694 -22.3694 -22.3664 -22.3663
   -22.3306 -22.3305 -22.3283 -22.3283 -22.3222 -22.3221 -22.3206 -22.3206
   -14.4706 -14.4706 -14.3979 -14.3978 -14.3717 -14.3716 -14.3187 -14.3187
    -6.6104  -6.6103  -6.5580  -6.5579  -6.5049  -6.5048  -6.1350  -6.1349
    -5.9108  -5.9107  -5.8974  -5.8973  -5.8505  -5.8504  -5.8305  -5.8304
    -5.7330  -5.7328  -5.7166  -5.7164  -5.7048  -5.7047  -5.6812  -5.6810
    -0.1438  -0.1437  -0.0627  -0.0627   0.1984   0.1985   0.2063   0.2064
     0.2989   0.2990   0.3082   0.3082   0.3525   0.3526   0.3891   0.3892
     0.5106   0.5107   0.5314   0.5315   0.5496   0.5496   0.5628   0.5628
     5.9902   5.9903   6.1239   6.1240   6.3331   6.3332   6.5673   6.5674
     6.7625   6.7626   6.8148   6.8149   6.9266   6.9267   6.9674   6.9675
     7.0157   7.0159   7.1124   7.1125   7.1684   7.1686   7.3984   7.3985
     7.4731   7.4732   7.5163   7.5164   7.6975   7.6976   7.7208   7.7209
     7.7671   7.7671   7.8093   7.8093   7.9517   7.9518   8.0154   8.0155
     8.3100   8.3101   8.3805   8.3805   8.7260   8.7261   8.8125   8.8126
     8.9147   8.9148   9.0718   9.0719   9.1222   9.1222   9.1334   9.1334
     9.1586   9.1587   9.4514   9.4514   9.5452   9.5452   9.5541   9.5541
     9.5970   9.5970   9.6104   9.6104   9.6550   9.6551  10.1020  10.1022
    12.4203  12.4203  13.1673  13.1674  13.1736  13.1736  13.2041  13.2042
    13.3013  13.3014  13.6101  13.6101  13.7660  13.7661  13.8757  13.8757
    13.9865  13.9866  13.9917  13.9918  14.1329  14.1330  14.2558  14.2559
    14.6437  14.6437  15.0225  15.0225  15.4904  15.4905  15.7801  15.7802
    16.2751  16.2753  16.3450  16.3452  16.5677  16.5678  16.8005  16.8006

          k = 0.0000 0.3750 0.0000 ( 27233 PWs)   bands (ev):

   -45.9845 -45.9841 -45.9836 -45.9835 -45.9832 -45.9830 -45.9825 -45.9821
   -22.4329 -22.4315 -22.4295 -22.4284 -22.3839 -22.3830 -22.3817 -22.3808
   -22.3780 -22.3765 -22.3748 -22.3738 -22.3620 -22.3590 -22.3588 -22.3565
   -22.3407 -22.3383 -22.3381 -22.3360 -22.3228 -22.3219 -22.3208 -22.3200
   -14.5043 -14.4568 -14.4027 -14.3935 -14.3718 -14.3632 -14.3251 -14.2982
    -6.7409  -6.6954  -6.6365  -6.6363  -6.4915  -6.4142  -6.0305  -5.9263
    -5.9035  -5.9003  -5.8796  -5.8525  -5.8385  -5.8232  -5.8133  -5.8031
    -5.8024  -5.7813  -5.7807  -5.7466  -5.7212  -5.6986  -5.6783  -5.6301
    -0.2663  -0.2249  -0.1502  -0.0001   0.0531   0.2632   0.2729   0.2812
     0.3244   0.3376   0.3460   0.3634   0.3669   0.3908   0.4068   0.4107
     0.4112   0.5084   0.5156   0.5297   0.5662   0.5834   0.5940   0.5946
     5.8644   5.9080   6.0580   6.0743   6.1148   6.1659   6.3941   6.3987
     6.4028   6.5029   6.6605   6.7307   6.7633   6.8384   6.8625   6.9722
     7.1042   7.2567   7.2968   7.3631   7.3747   7.4348   7.4356   7.4412
     7.4587   7.4771   7.6030   7.6197   7.6254   7.6730   7.6871   7.7175
     7.7648   7.7882   7.7992   7.8141   7.9415   7.9461   8.1536   8.4500
     8.4818   8.5529   8.5900   8.5958   8.6031   8.6316   8.6679   8.7689
     8.7876   8.8499   8.9297   9.0033   9.1161   9.1656   9.1796   9.1904
     9.2681   9.2723   9.3490   9.3668   9.4783   9.5008   9.5032   9.5639
     9.6241   9.7486   9.7932   9.8104   9.9137   9.9583  10.0560  10.0848
    12.3934  12.4456  12.6908  12.7568  12.7735  12.8358  13.3354  13.3557
    13.3827  13.3905  13.8567  13.8604  13.8746  13.8787  13.8808  13.8836
    14.0100  14.0130  14.0143  14.0406  14.2489  14.2562  14.3058  14.4053
    14.4586  14.4634  14.8632  14.8634  15.0003  15.1081  15.1866  15.7239
    15.8137  15.8562  16.0785  16.5601  16.7040  16.7318  16.7706  16.8148

          k = 0.0000 0.3750 0.1236 ( 27231 PWs)   bands (ev):

   -45.9845 -45.9841 -45.9836 -45.9834 -45.9832 -45.9830 -45.9825 -45.9821
   -22.4311 -22.4297 -22.4277 -22.4266 -22.3858 -22.3849 -22.3835 -22.3827
   -22.3778 -22.3764 -22.3750 -22.3739 -22.3619 -22.3592 -22.3587 -22.3566
   -22.3406 -22.3384 -22.3380 -22.3361 -22.3227 -22.3219 -22.3209 -22.3201
   -14.5006 -14.4536 -14.4067 -14.3910 -14.3751 -14.3608 -14.3278 -14.3007
    -6.7257  -6.6762  -6.6288  -6.6278  -6.4724  -6.4200  -6.0814  -5.9295
    -5.9034  -5.8987  -5.8908  -5.8739  -5.8493  -5.8237  -5.8138  -5.8086
    -5.7855  -5.7751  -5.7697  -5.7417  -5.7194  -5.7048  -5.6796  -5.6341
    -0.2466  -0.2447  -0.0853   0.0183   0.0408   0.2339   0.2741   0.2963
     0.3066   0.3208   0.3214   0.3438   0.3531   0.3750   0.4135   0.4273
     0.4380   0.5015   0.5077   0.5388   0.5715   0.5817   0.5865   0.5867
     5.8984   5.9419   6.0732   6.1071   6.1611   6.1715   6.4293   6.4306
     6.4339   6.5360   6.6664   6.7169   6.7655   6.8569   6.8601   6.9993
     7.0867   7.2562   7.2694   7.3479   7.3842   7.4251   7.4406   7.4453
     7.4821   7.4938   7.5715   7.6014   7.6417   7.6850   7.6864   7.7276
     7.7449   7.7606   7.8087   7.8193   7.8724   7.9528   8.0137   8.3848
     8.4106   8.5005   8.5888   8.6011   8.6071   8.6122   8.7266   8.8049
     8.8637   8.9119   8.9469   8.9818   9.1198   9.1580   9.1802   9.2177
     9.2332   9.2404   9.3378   9.3911   9.4676   9.4679   9.4698   9.5486
     9.6030   9.7178   9.7521   9.8070   9.9049   9.9554  10.0277  10.0567
    12.4536  12.5068  12.6980  12.7693  12.7866  12.8840  13.3378  13.3647
    13.3798  13.4234  13.8098  13.8232  13.8307  13.8643  13.8902  13.8939
    13.9672  13.9694  14.0089  14.0485  14.2120  14.2472  14.2788  14.3779
    14.5322  14.5336  14.8621  14.9724  15.1038  15.1211  15.2288  15.7842
    15.8575  15.9283  16.0830  16.5984  16.7155  16.7605  16.7731  16.8465

          k = 0.0000 0.3750 0.2473 ( 27235 PWs)   bands (ev):

   -45.9844 -45.9840 -45.9837 -45.9833 -45.9833 -45.9829 -45.9826 -45.9822
   -22.4258 -22.4245 -22.4225 -22.4215 -22.3911 -22.3902 -22.3887 -22.3879
   -22.3775 -22.3761 -22.3753 -22.3742 -22.3616 -22.3595 -22.3584 -22.3568
   -22.3404 -22.3387 -22.3378 -22.3363 -22.3225 -22.3217 -22.3211 -22.3203
   -14.4898 -14.4446 -14.4179 -14.3845 -14.3837 -14.3538 -14.3353 -14.3078
    -6.6825  -6.6203  -6.6091  -6.6068  -6.4414  -6.4169  -6.1839  -5.9958
    -5.9368  -5.9105  -5.9043  -5.8477  -5.8412  -5.8409  -5.8232  -5.7956
    -5.7931  -5.7660  -5.7481  -5.7280  -5.7207  -5.7142  -5.6837  -5.6457
    -0.2436  -0.1824   0.0274   0.0362   0.0714   0.1356   0.2348   0.2500
     0.2637   0.2834   0.3283   0.3398   0.3615   0.3693   0.4329   0.4458
     0.4654   0.4822   0.4864   0.5345   0.5623   0.5652   0.5772   0.5909
     5.9707   6.0148   6.0703   6.1486   6.2380   6.3326   6.5362   6.5410
     6.5455   6.6292   6.6776   6.6886   6.7714   6.8572   6.9226   7.0244
     7.0733   7.1903   7.2546   7.2600   7.3904   7.4211   7.4290   7.4512
     7.4537   7.5282   7.5454   7.5964   7.6056   7.6876   7.7021   7.7129
     7.7486   7.7547   7.7720   7.7795   7.7914   7.8968   7.9894   8.1947
     8.2550   8.3018   8.4435   8.4742   8.6394   8.6701   8.8417   8.8558
     8.9880   8.9889   9.0046   9.1246   9.1320   9.1425   9.1464   9.1617
     9.2227   9.2413   9.2600   9.3796   9.4502   9.4523   9.4735   9.5096
     9.5452   9.6403   9.6763   9.7911   9.8629   9.9404   9.9483   9.9915
    12.6014  12.6756  12.7365  12.7573  12.8791  13.0173  13.3449  13.3703
    13.3971  13.5147  13.6685  13.6764  13.6890  13.8386  13.8607  13.8848
    13.9125  13.9383  13.9934  14.0713  14.1110  14.2074  14.2214  14.3049
    14.6707  14.7072  14.8573  15.0889  15.2554  15.3836  15.4467  15.9522
    16.0009  16.0813  16.1421  16.6007  16.7096  16.7566  16.8249  17.0676

          k = 0.0000 0.3750 0.3709 ( 27255 PWs)   bands (ev):

   -45.9842 -45.9839 -45.9838 -45.9835 -45.9832 -45.9828 -45.9827 -45.9824
   -22.4179 -22.4166 -22.4148 -22.4138 -22.3991 -22.3981 -22.3965 -22.3956
   -22.3770 -22.3758 -22.3757 -22.3747 -22.3611 -22.3600 -22.3581 -22.3572
   -22.3400 -22.3390 -22.3374 -22.3367 -22.3222 -22.3214 -22.3213 -22.3206
   -14.4735 -14.4346 -14.4309 -14.3984 -14.3727 -14.3465 -14.3434 -14.3185
    -6.6190  -6.5874  -6.5851  -6.5334  -6.4846  -6.3312  -6.3032  -6.1084
    -5.9395  -5.9205  -5.9091  -5.8910  -5.8305  -5.8246  -5.8191  -5.8021
    -5.7773  -5.7590  -5.7466  -5.7386  -5.7081  -5.7066  -5.6901  -5.6635
    -0.1947  -0.0873   0.0127   0.0377   0.1465   0.1478   0.1530   0.1783
     0.2625   0.2738   0.3009   0.3030   0.3555   0.3884   0.4453   0.4491
     0.4537   0.4623   0.5085   0.5327   0.5339   0.5556   0.5700   0.5864
     6.0273   6.0652   6.0746   6.1315   6.3990   6.5711   6.6164   6.7022
     6.7276   6.7368   6.7567   6.7651   6.7794   6.8951   6.9222   7.0622
     7.0688   7.0910   7.1766   7.1837   7.2231   7.3555   7.3575   7.3723
     7.4404   7.5310   7.5561   7.5833   7.5877   7.6287   7.6956   7.7307
     7.7384   7.7483   7.7588   7.7932   7.8189   7.9827   7.9908   7.9971
     8.0600   8.1472   8.2546   8.3224   8.6850   8.6889   8.7451   8.9119
     8.9366   9.0673   9.1083   9.1239   9.1294   9.1536   9.2161   9.2213
     9.2653   9.2895   9.3022   9.3249   9.4351   9.4634   9.4649   9.4883
     9.5489   9.5555   9.6533   9.7374   9.7487   9.7896   9.9413   9.9505
    12.6868  12.7392  12.9156  12.9170  13.0350  13.2097  13.3439  13.3567
    13.4542  13.4650  13.4656  13.4871  13.6486  13.6506  13.7164  13.9119
    13.9570  13.9678  13.9698  14.0083  14.1061  14.1151  14.1790  14.2121
    14.7716  14.8458  14.8783  15.0562  15.6025  15.6711  15.8891  16.0338
    16.2024  16.2579  16.3462  16.4811  16.6970  16.8345  16.8530  16.8812

          k = 0.0000 0.3750-0.4946 ( 27254 PWs)   bands (ev):

   -45.9841 -45.9841 -45.9836 -45.9836 -45.9830 -45.9830 -45.9826 -45.9826
   -22.4085 -22.4085 -22.4074 -22.4074 -22.4057 -22.4057 -22.4047 -22.4047
   -22.3764 -22.3764 -22.3752 -22.3752 -22.3605 -22.3605 -22.3577 -22.3576
   -22.3395 -22.3395 -22.3371 -22.3370 -22.3218 -22.3218 -22.3210 -22.3210
   -14.4542 -14.4541 -14.4148 -14.4147 -14.3597 -14.3596 -14.3310 -14.3309
    -6.5769  -6.5767  -6.5480  -6.5479  -6.4240  -6.4239  -6.2245  -6.2244
    -5.9255  -5.9254  -5.9172  -5.9171  -5.8230  -5.8229  -5.8115  -5.8114
    -5.7588  -5.7587  -5.7515  -5.7514  -5.6982  -5.6981  -5.6855  -5.6853
    -0.1047  -0.1047   0.0278   0.0279   0.0787   0.0788   0.2524   0.2525
     0.2757   0.2757   0.2805   0.2806   0.3211   0.3211   0.4207   0.4208
     0.4977   0.4977   0.5156   0.5157   0.5459   0.5460   0.5673   0.5673
     6.0543   6.0544   6.1094   6.1094   6.5288   6.5289   6.7831   6.7832
     6.8169   6.8169   6.8435   6.8437   6.9200   6.9200   6.9252   6.9254
     7.0289   7.0291   7.1324   7.1326   7.2815   7.2817   7.2973   7.2974
     7.3328   7.3329   7.5747   7.5748   7.7050   7.7051   7.7112   7.7113
     7.7473   7.7474   7.7692   7.7693   7.8511   7.8511   7.9764   7.9765
     8.1104   8.1104   8.1738   8.1739   8.6898   8.6898   8.7766   8.7767
     9.0400   9.0400   9.1221   9.1221   9.1557   9.1558   9.1682   9.1682
     9.3353   9.3353   9.3733   9.3734   9.4346   9.4348   9.5427   9.5427
     9.5754   9.5755   9.6177   9.6177   9.6667   9.6667   9.9396   9.9398
    12.7165  12.7166  13.1784  13.1785  13.1871  13.1872  13.2408  13.2409
    13.3777  13.3778  13.4309  13.4310  13.5748  13.5749  13.8063  13.8064
    13.9412  13.9413  14.0264  14.0264  14.0971  14.0972  14.1494  14.1495
    14.8217  14.8218  14.9925  14.9925  15.8847  15.8848  16.0201  16.0202
    16.3442  16.3443  16.5074  16.5076  16.5934  16.5935  16.9125  16.9126

          k = 0.0000-0.5000 0.0000 ( 27234 PWs)   bands (ev):

   -45.9843 -45.9843 -45.9834 -45.9834 -45.9832 -45.9832 -45.9823 -45.9823
   -22.4322 -22.4322 -22.4290 -22.4290 -22.3835 -22.3835 -22.3812 -22.3812
   -22.3772 -22.3772 -22.3743 -22.3743 -22.3514 -22.3514 -22.3487 -22.3487
   -22.3484 -22.3484 -22.3463 -22.3463 -22.3224 -22.3224 -22.3204 -22.3204
   -14.4807 -14.4807 -14.3873 -14.3873 -14.3785 -14.3784 -14.3117 -14.3117
    -6.6832  -6.6832  -6.5960  -6.5960  -6.5293  -6.5293  -5.9238  -5.9238
    -5.9133  -5.9133  -5.8645  -5.8645  -5.8329  -5.8329  -5.8314  -5.8314
    -5.7860  -5.7860  -5.7700  -5.7700  -5.7129  -5.7129  -5.6754  -5.6754
    -0.1349  -0.1349  -0.0856  -0.0856   0.0459   0.0459   0.3177   0.3177
     0.3203   0.3203   0.3572   0.3572   0.3718   0.3718   0.4359   0.4359
     0.4890   0.4890   0.4952   0.4952   0.5506   0.5506   0.5546   0.5546
     5.8952   5.8952   6.0892   6.0892   6.1266   6.1266   6.4007   6.4007
     6.6582   6.6583   6.7743   6.7743   6.9875   6.9875   7.0286   7.0286
     7.0488   7.0488   7.1189   7.1189   7.2053   7.2054   7.4319   7.4319
     7.4708   7.4708   7.6839   7.6839   7.7175   7.7175   7.7181   7.7181
     7.7269   7.7269   7.7774   7.7774   7.8284   7.8284   8.3062   8.3062
     8.5238   8.5238   8.6237   8.6237   8.7030   8.7030   8.7484   8.7484
     8.8051   8.8051   8.9662   8.9662   8.9932   8.9932   9.1416   9.1416
     9.1593   9.1593   9.4877   9.4877   9.6144   9.6144   9.6192   9.6192
     9.6343   9.6343   9.7274   9.7274   9.7536   9.7536  10.0700  10.0701
    12.4196  12.4196  13.0242  13.0242  13.0522  13.0522  13.0872  13.0872
    13.1056  13.1056  13.8718  13.8718  13.8776  13.8776  13.9185  13.9185
    13.9448  13.9448  14.1240  14.1240  14.1311  14.1311  14.3555  14.3555
    14.4625  14.4625  14.9622  14.9622  15.0161  15.0161  15.5311  15.5311
    16.1438  16.1439  16.2841  16.2841  16.4869  16.4869  17.0746  17.0746

          k = 0.0000-0.5000 0.1236 ( 27258 PWs)   bands (ev):

   -45.9843 -45.9843 -45.9834 -45.9834 -45.9832 -45.9832 -45.9823 -45.9823
   -22.4304 -22.4304 -22.4272 -22.4272 -22.3853 -22.3853 -22.3831 -22.3831
   -22.3771 -22.3771 -22.3744 -22.3744 -22.3513 -22.3513 -22.3488 -22.3488
   -22.3484 -22.3484 -22.3464 -22.3464 -22.3223 -22.3223 -22.3205 -22.3205
   -14.4772 -14.4772 -14.3910 -14.3910 -14.3760 -14.3759 -14.3143 -14.3143
    -6.6710  -6.6710  -6.5768  -6.5768  -6.5268  -6.5268  -5.9853  -5.9853
    -5.9149  -5.9149  -5.8496  -5.8496  -5.8286  -5.8286  -5.8275  -5.8275
    -5.7816  -5.7816  -5.7736  -5.7736  -5.7110  -5.7110  -5.6765  -5.6765
    -0.1149  -0.1149  -0.1060  -0.1060   0.0990   0.0990   0.2740   0.2740
     0.3102   0.3102   0.3390   0.3390   0.3783   0.3783   0.4122   0.4123
     0.5067   0.5068   0.5070   0.5070   0.5434   0.5434   0.5616   0.5616
     5.9295   5.9295   6.1236   6.1236   6.1428   6.1428   6.4314   6.4314
     6.6908   6.6908   6.7834   6.7835   6.9755   6.9756   7.0294   7.0294
     7.0317   7.0317   7.1366   7.1366   7.1942   7.1942   7.4374   7.4374
     7.4929   7.4929   7.6617   7.6617   7.7066   7.7066   7.7153   7.7153
     7.7300   7.7300   7.7889   7.7889   7.7984   7.7984   8.1922   8.1922
     8.4823   8.4823   8.5469   8.5470   8.7702   8.7702   8.7817   8.7817
     8.8346   8.8346   8.9823   8.9823   9.0136   9.0136   9.1406   9.1406
     9.1545   9.1545   9.4626   9.4626   9.5901   9.5901   9.5971   9.5971
     9.6251   9.6251   9.7203   9.7204   9.7473   9.7473  10.0396  10.0396
    12.4813  12.4813  13.0280  13.0280  13.0691  13.0692  13.0837  13.0837
    13.1457  13.1457  13.8268  13.8268  13.8719  13.8719  13.8837  13.8837
    13.9520  13.9520  14.0822  14.0822  14.1237  14.1237  14.3282  14.3282
    14.5355  14.5355  15.0131  15.0131  15.0795  15.0795  15.5734  15.5734
    16.1912  16.1913  16.3589  16.3589  16.5043  16.5044  17.0739  17.0766

          k = 0.0000-0.5000 0.2473 ( 27230 PWs)   bands (ev):

   -45.9842 -45.9842 -45.9835 -45.9835 -45.9831 -45.9831 -45.9824 -45.9824
   -22.4251 -22.4251 -22.4220 -22.4220 -22.3906 -22.3906 -22.3883 -22.3883
   -22.3768 -22.3768 -22.3748 -22.3748 -22.3510 -22.3510 -22.3491 -22.3491
   -22.3481 -22.3481 -22.3466 -22.3466 -22.3221 -22.3221 -22.3207 -22.3207
   -14.4673 -14.4673 -14.4013 -14.4013 -14.3688 -14.3688 -14.3216 -14.3216
    -6.6378  -6.6378  -6.5232  -6.5232  -6.5211  -6.5211  -6.0889  -6.0889
    -5.9203  -5.9203  -5.8832  -5.8832  -5.8170  -5.8170  -5.7975  -5.7975
    -5.7810  -5.7810  -5.7785  -5.7785  -5.7059  -5.7059  -5.6795  -5.6795
    -0.1177  -0.1177  -0.0573  -0.0573   0.1763   0.1763   0.2047   0.2047
     0.2897   0.2898   0.3062   0.3062   0.3459   0.3459   0.3968   0.3968
     0.5232   0.5232   0.5322   0.5322   0.5379   0.5379   0.5558   0.5558
     6.0023   6.0023   6.1159   6.1159   6.2925   6.2925   6.5444   6.5444
     6.7819   6.7819   6.8068   6.8069   6.9450   6.9450   6.9713   6.9713
     7.0404   7.0405   7.1679   7.1680   7.1976   7.1976   7.4281   7.4282
     7.5070   7.5070   7.5497   7.5498   7.7063   7.7063   7.7342   7.7342
     7.7475   7.7475   7.7659   7.7659   7.8290   7.8290   7.9793   7.9793
     8.3404   8.3404   8.3690   8.3690   8.7332   8.7332   8.8341   8.8342
     9.0293   9.0293   9.0358   9.0358   9.0444   9.0444   9.1209   9.1209
     9.1764   9.1764   9.3945   9.3945   9.4963   9.4963   9.5723   9.5723
     9.6485   9.6485   9.7021   9.7021   9.7321   9.7321   9.9483   9.9483
    12.6500  12.6500  13.0400  13.0400  13.0735  13.0735  13.1253  13.1253
    13.2576  13.2576  13.6822  13.6822  13.7443  13.7443  13.9187  13.9187
    13.9668  13.9668  13.9731  13.9731  14.1022  14.1022  14.2558  14.2559
    14.6979  14.6979  15.0026  15.0026  15.3929  15.3930  15.7172  15.7173
    16.3262  16.3262  16.5223  16.5223  16.5777  16.5777  16.9063  16.9063

          k = 0.0000-0.5000 0.3709 ( 27240 PWs)   bands (ev):

   -45.9840 -45.9840 -45.9837 -45.9837 -45.9830 -45.9830 -45.9826 -45.9826
   -22.4173 -22.4173 -22.4143 -22.4143 -22.3986 -22.3986 -22.3961 -22.3961
   -22.3763 -22.3763 -22.3752 -22.3752 -22.3505 -22.3505 -22.3495 -22.3495
   -22.3478 -22.3478 -22.3470 -22.3470 -22.3218 -22.3218 -22.3210 -22.3210
   -14.4523 -14.4523 -14.4166 -14.4166 -14.3581 -14.3581 -14.3325 -14.3325
    -6.5935  -6.5935  -6.5289  -6.5288  -6.4345  -6.4345  -6.2066  -6.2066
    -5.9278  -5.9278  -5.9141  -5.9141  -5.8030  -5.8030  -5.7865  -5.7865
    -5.7856  -5.7855  -5.7807  -5.7807  -5.6988  -5.6988  -5.6846  -5.6846
    -0.0922  -0.0922   0.0309   0.0309   0.0670   0.0670   0.2490   0.2490
     0.2732   0.2732   0.2803   0.2803   0.3223   0.3223   0.4249   0.4250
     0.4933   0.4933   0.5123   0.5123   0.5553   0.5553   0.5603   0.5603
     6.0597   6.0597   6.1052   6.1052   6.5029   6.5029   6.7632   6.7632
     6.8367   6.8367   6.8714   6.8714   6.9068   6.9068   6.9139   6.9139
     7.0506   7.0506   7.1413   7.1413   7.2923   7.2923   7.3223   7.3223
     7.3324   7.3324   7.6140   7.6140   7.6895   7.6895   7.7207   7.7207
     7.7311   7.7311   7.7496   7.7496   7.8467   7.8467   7.9135   7.9135
     8.1061   8.1061   8.2127   8.2127   8.6974   8.6974   8.7749   8.7749
     9.0948   9.0948   9.1037   9.1037   9.1468   9.1468   9.1820   9.1820
     9.3001   9.3001   9.3005   9.3005   9.3612   9.3612   9.6125   9.6125
     9.6645   9.6645   9.6727   9.6727   9.7168   9.7168   9.8061   9.8061
    12.8785  12.8785  13.0565  13.0565  13.0699  13.0699  13.2306  13.2306
    13.4202  13.4202  13.4653  13.4653  13.5682  13.5682  13.8004  13.8004
    13.9734  13.9734  14.0080  14.0080  14.0695  14.0695  14.1614  14.1614
    14.8444  14.8444  14.9793  14.9793  15.8078  15.8079  15.9803  15.9803
    16.4524  16.4524  16.5324  16.5324  16.6449  16.6450  16.9219  16.9219

          k = 0.0000-0.5000-0.4946 ( 27248 PWs)   bands (ev):

   -45.9838 -45.9838 -45.9838 -45.9838 -45.9828 -45.9828 -45.9828 -45.9828
   -22.4080 -22.4080 -22.4079 -22.4079 -22.4052 -22.4052 -22.4052 -22.4052
   -22.3758 -22.3758 -22.3758 -22.3758 -22.3500 -22.3500 -22.3500 -22.3500
   -22.3474 -22.3474 -22.3474 -22.3474 -22.3214 -22.3214 -22.3214 -22.3214
   -14.4346 -14.4346 -14.4345 -14.4345 -14.3454 -14.3454 -14.3453 -14.3453
    -6.5530  -6.5530  -6.5528  -6.5528  -6.3260  -6.3260  -6.3259  -6.3258
    -5.9292  -5.9292  -5.9291  -5.9291  -5.7907  -5.7907  -5.7906  -5.7906
    -5.7846  -5.7846  -5.7845  -5.7845  -5.6914  -5.6914  -5.6912  -5.6912
    -0.0279  -0.0279  -0.0278  -0.0278   0.1381   0.1381   0.1382   0.1383
     0.2689   0.2689   0.2689   0.2689   0.4306   0.4306   0.4306   0.4306
     0.4587   0.4587   0.4588   0.4588   0.5663   0.5663   0.5663   0.5663
     6.0894   6.0894   6.0895   6.0895   6.7146   6.7146   6.7147   6.7147
     6.8698   6.8699   6.8699   6.8699   7.0070   7.0070   7.0071   7.0071
     7.0811   7.0811   7.0811   7.0812   7.1580   7.1580   7.1581   7.1582
     7.5176   7.5176   7.5177   7.5177   7.6609   7.6609   7.6610   7.6610
     7.7215   7.7215   7.7216   7.7216   7.9479   7.9479   7.9479   7.9479
     8.0489   8.0489   8.0490   8.0490   8.7067   8.7067   8.7067   8.7067
     9.1554   9.1554   9.1554   9.1554   9.1978   9.1978   9.1979   9.1979
     9.2322   9.2322   9.2322   9.2322   9.5426   9.5426   9.5426   9.5426
     9.6537   9.6538   9.6538   9.6538   9.7181   9.7181   9.7182   9.7182
    13.0235  13.0235  13.0236  13.0236  13.2163  13.2163  13.2164  13.2164
    13.3847  13.3848  13.3848  13.3848  13.6095  13.6095  13.6096  13.6096
    14.0284  14.0284  14.0284  14.0284  14.0701  14.0701  14.0701  14.0701
    14.9328  14.9328  14.9328  14.9328  16.2034  16.2035  16.2036  16.2036
    16.3166  16.3167  16.3168  16.3168  16.7895  16.7895  16.7896  16.7897

          k = 0.1250 0.1250 0.0000 ( 27265 PWs)   bands (ev):

   -45.9847 -45.9838 -45.9838 -45.9838 -45.9828 -45.9828 -45.9828 -45.9819
   -22.4338 -22.4304 -22.4304 -22.4278 -22.3844 -22.3823 -22.3823 -22.3804
   -22.3768 -22.3768 -22.3735 -22.3735 -22.3735 -22.3734 -22.3711 -22.3710
   -22.3255 -22.3254 -22.3235 -22.3235 -22.3234 -22.3234 -22.3215 -22.3215
   -14.5328 -14.4212 -14.4195 -14.4194 -14.3471 -14.3470 -14.3447 -14.2817
    -6.8161  -6.8161  -6.7595  -6.5993  -6.3514  -6.2082  -6.2082  -5.9460
    -5.9394  -5.9394  -5.8871  -5.8871  -5.8581  -5.8192  -5.7988  -5.7894
    -5.7871  -5.7871  -5.7799  -5.7261  -5.6733  -5.6288  -5.5853  -5.5853
    -0.4419  -0.3930  -0.3503   0.2019   0.2019   0.2125   0.2523   0.2692
     0.2693   0.2815   0.2855   0.3290   0.4020   0.4342   0.4342   0.4569
     0.4569   0.4753   0.6088   0.6088   0.6447   0.6579   0.6579   0.6950
     5.7742   5.9450   5.9450   5.9568   6.1483   6.1779   6.1779   6.2212
     6.2826   6.2826   6.4212   6.4477   6.4477   6.4750   6.4891   7.3863
     7.3863   7.3924   7.4092   7.4092   7.4467   7.4608   7.4685   7.4685
     7.4902   7.5604   7.5604   7.6549   7.7515   7.7630   7.7946   7.7995
     7.8765   7.8832   7.8859   7.8859   7.9942   8.0263   8.0263   8.4464
     8.4464   8.4975   8.5277   8.5277   8.5714   8.7006   8.7520   8.7530
     8.7530   8.8099   9.0493   9.0780   9.0780   9.1317   9.2177   9.3054
     9.3054   9.3542   9.3542   9.3854   9.4103   9.4103   9.4843   9.6154
     9.8842   9.9122  10.0135  10.0135  10.0418  10.0792  10.1484  10.1757
    12.2044  12.3478  12.3931  12.4196  12.5136  12.5136  13.7540  13.7540
    13.8006  13.8006  13.8030  13.8038  13.8038  13.8406  13.8499  13.8664
    13.8940  13.8940  14.1923  14.2045  14.2045  14.4220  14.4421  14.4462
    14.5248  14.5248  14.5440  14.5473  14.5590  14.9901  15.2256  15.3068
    15.3068  15.3682  16.1909  16.1909  16.4659  16.7774  16.9635  17.0770

          k = 0.1250 0.1250 0.1236 ( 27278 PWs)   bands (ev):

   -45.9847 -45.9839 -45.9837 -45.9837 -45.9829 -45.9829 -45.9827 -45.9819
   -22.4320 -22.4286 -22.4286 -22.4260 -22.3863 -22.3842 -22.3842 -22.3822
   -22.3767 -22.3767 -22.3737 -22.3737 -22.3735 -22.3733 -22.3712 -22.3711
   -22.3255 -22.3253 -22.3236 -22.3235 -22.3234 -22.3234 -22.3216 -22.3216
   -14.5287 -14.4256 -14.4168 -14.4167 -14.3499 -14.3499 -14.3423 -14.2841
    -6.7973  -6.7973  -6.7475  -6.5963  -6.3325  -6.2427  -6.2427  -5.9486
    -5.9275  -5.9275  -5.8850  -5.8850  -5.8566  -5.8207  -5.8173  -5.7927
    -5.7788  -5.7788  -5.7749  -5.7422  -5.6725  -5.6357  -5.5934  -5.5934
    -0.4182  -0.3908  -0.2976   0.1860   0.2128   0.2128   0.2202   0.2752
     0.2752   0.2819   0.2859   0.3541   0.3973   0.4082   0.4083   0.4645
     0.4762   0.4763   0.6042   0.6069   0.6069   0.6436   0.6436   0.6850
     5.8047   5.9578   5.9805   5.9805   6.2084   6.2149   6.2149   6.2747
     6.2747   6.2838   6.4592   6.4754   6.4755   6.4755   6.4885   7.3884
     7.3884   7.3982   7.3982   7.4085   7.4609   7.4609   7.4669   7.4796
     7.5092   7.5879   7.5879   7.6191   7.7233   7.7233   7.7436   7.7592
     7.7783   7.7935   7.8502   7.8727   8.0112   8.0201   8.0201   8.3889
     8.4636   8.4636   8.5917   8.6723   8.6723   8.7109   8.7128   8.7339
     8.7734   8.7734   9.0468   9.0468   9.0597   9.1538   9.2392   9.2501
     9.2501   9.3508   9.3508   9.3566   9.3566   9.4030   9.4972   9.5683
     9.8646   9.8658   9.9928   9.9928   9.9969  10.0292  10.1498  10.1813
    12.2101  12.3422  12.4568  12.4774  12.5725  12.5725  13.7563  13.7563
    13.7976  13.8004  13.8004  13.8038  13.8038  13.8143  13.8258  13.8457
    13.8458  13.8604  14.1760  14.1760  14.2008  14.4055  14.4130  14.4238
    14.5440  14.5465  14.6073  14.6073  14.6654  15.1122  15.2983  15.3031
    15.3031  15.4413  16.2307  16.2307  16.4125  16.7914  17.0519  17.1118

          k = 0.1250 0.1250 0.2473 ( 27270 PWs)   bands (ev):

   -45.9846 -45.9840 -45.9836 -45.9836 -45.9830 -45.9830 -45.9826 -45.9820
   -22.4266 -22.4234 -22.4234 -22.4209 -22.3917 -22.3894 -22.3894 -22.3873
   -22.3764 -22.3764 -22.3740 -22.3740 -22.3732 -22.3731 -22.3714 -22.3714
   -22.3252 -22.3251 -22.3238 -22.3237 -22.3231 -22.3231 -22.3218 -22.3218
   -14.5168 -14.4379 -14.4091 -14.4090 -14.3579 -14.3578 -14.3356 -14.2910
    -6.7429  -6.7429  -6.7147  -6.5925  -6.3280  -6.3280  -6.2779  -5.9503
    -5.9041  -5.9041  -5.8886  -5.8798  -5.8798  -5.8524  -5.8249  -5.7860
    -5.7753  -5.7607  -5.7572  -5.7572  -5.6776  -5.6552  -5.6166  -5.6166
    -0.3505  -0.3475  -0.1821   0.1114   0.1314   0.2388   0.2388   0.2889
     0.2986   0.2987   0.2987   0.3700   0.3700   0.3839   0.4081   0.4349
     0.4924   0.4924   0.4924   0.6011   0.6011   0.6075   0.6075   0.6550
     5.8705   5.9596   6.0604   6.0604   6.2533   6.2533   6.3263   6.3263
     6.3809   6.4582   6.4768   6.4868   6.5753   6.5753   6.5917   7.3091
     7.3091   7.3942   7.3942   7.4178   7.4178   7.4579   7.4743   7.4743
     7.4898   7.5206   7.5245   7.5589   7.5602   7.6656   7.6657   7.7466
     7.7565   7.7994   7.8399   7.9094   8.0293   8.0293   8.0609   8.1052
     8.5122   8.5122   8.5755   8.5998   8.6513   8.7118   8.7118   8.7539
     8.8866   8.8866   9.0394   9.0890   9.0890   9.1391   9.1391   9.2227
     9.2519   9.2519   9.3014   9.3014   9.3050   9.4116   9.4525   9.5348
     9.7770   9.8155   9.8726   9.9058   9.9271   9.9271  10.1539  10.1831
    12.2257  12.3263  12.6329  12.6402  12.7354  12.7354  13.6482  13.6651
    13.6993  13.6993  13.7626  13.7626  13.7997  13.7997  13.8179  13.8179
    13.8899  13.9176  14.1011  14.1011  14.2251  14.3325  14.3353  14.3914
    14.5438  14.5449  14.8053  14.8054  14.9434  15.2873  15.2873  15.4397
    15.5039  15.6548  16.2555  16.3611  16.3611  16.7779  16.8805  17.3383

          k = 0.1250 0.1250 0.3709 ( 27246 PWs)   bands (ev):

   -45.9845 -45.9841 -45.9835 -45.9835 -45.9831 -45.9831 -45.9825 -45.9821
   -22.4187 -22.4156 -22.4156 -22.4132 -22.3998 -22.3972 -22.3972 -22.3951
   -22.3758 -22.3758 -22.3746 -22.3746 -22.3728 -22.3727 -22.3718 -22.3718
   -22.3249 -22.3248 -22.3241 -22.3241 -22.3228 -22.3228 -22.3221 -22.3221
   -14.4990 -14.4563 -14.3974 -14.3974 -14.3697 -14.3697 -14.3254 -14.3013
    -6.6701  -6.6584  -6.6584  -6.6000  -6.4377  -6.4377  -6.1943  -5.9854
    -5.9376  -5.8844  -5.8844  -5.8748  -5.8748  -5.8462  -5.8448  -5.8313
    -5.7487  -5.7396  -5.7265  -5.7265  -5.6930  -5.6838  -5.6507  -5.6507
    -0.2573  -0.2478  -0.0270   0.0018   0.0051   0.2665   0.2665   0.3130
     0.3179   0.3312   0.3312   0.3324   0.3492   0.3492   0.3640   0.3938
     0.4748   0.4764   0.4764   0.5791   0.5791   0.5917   0.5917   0.6066
     5.9246   5.9593   6.1342   6.1342   6.2232   6.2232   6.4789   6.4844
     6.5063   6.5063   6.6432   6.7091   6.7713   6.7713   6.8431   7.0294
     7.0294   7.2701   7.2701   7.2731   7.2815   7.4023   7.4023   7.4250
     7.4250   7.4993   7.5377   7.6087   7.6216   7.7212   7.7266   7.7396
     7.7785   7.7785   7.7825   7.7905   7.9945   7.9945   8.0755   8.1419
     8.4047   8.4435   8.5820   8.5820   8.6953   8.6953   8.7443   8.8372
     8.8727   8.8727   8.9648   9.0174   9.0174   9.1173   9.1173   9.1864
     9.2088   9.2088   9.3427   9.3909   9.3909   9.4167   9.5254   9.5935
     9.6943   9.6971   9.7412   9.7447   9.8074   9.8074  10.1606  10.1777
    12.2485  12.3028  12.8789  12.8840  12.9681  12.9681  13.4231  13.4392
    13.4867  13.4867  13.7714  13.7714  13.7910  13.7910  13.8530  13.8530
    13.9859  14.0053  14.0053  14.0055  14.2232  14.2289  14.2620  14.3516
    14.5436  14.5439  15.0145  15.0145  15.2475  15.2475  15.3069  15.8102
    15.8799  15.9909  16.0046  16.5495  16.5997  16.5997  16.6397  16.8908

          k = 0.1250 0.1250-0.4946 ( 27256 PWs)   bands (ev):

   -45.9843 -45.9843 -45.9833 -45.9833 -45.9833 -45.9833 -45.9823 -45.9823
   -22.4092 -22.4092 -22.4064 -22.4064 -22.4064 -22.4064 -22.4042 -22.4042
   -22.3752 -22.3752 -22.3752 -22.3752 -22.3723 -22.3723 -22.3722 -22.3722
   -22.3245 -22.3245 -22.3245 -22.3244 -22.3225 -22.3225 -22.3225 -22.3225
   -14.4778 -14.4777 -14.3837 -14.3836 -14.3836 -14.3836 -14.3134 -14.3134
    -6.6274  -6.6273  -6.5528  -6.5528  -6.5526  -6.5526  -6.0924  -6.0923
    -5.9008  -5.9007  -5.8748  -5.8748  -5.8748  -5.8748  -5.8388  -5.8387
    -5.7167  -5.7166  -5.7155  -5.7154  -5.6896  -5.6896  -5.6895  -5.6895
    -0.1330  -0.1330  -0.1244  -0.1243   0.1512   0.1512   0.2961   0.2961
     0.2962   0.2962   0.3408   0.3408   0.3503   0.3503   0.4170   0.4170
     0.4170   0.4171   0.5441   0.5441   0.5809   0.5809   0.5809   0.5809
     5.9510   5.9511   6.1855   6.1855   6.1856   6.1856   6.4815   6.4816
     6.7445   6.7445   6.7447   6.7447   6.9588   6.9589   6.9864   6.9864
     7.0314   7.0314   7.0316   7.0316   7.2063   7.2065   7.4118   7.4118
     7.4119   7.4119   7.6339   7.6340   7.6791   7.6791   7.7014   7.7015
     7.7231   7.7232   7.9003   7.9003   7.9004   7.9004   8.2560   8.2560
     8.2624   8.2625   8.6497   8.6497   8.6497   8.6498   8.8566   8.8567
     8.9238   8.9238   8.9239   8.9239   8.9806   8.9806   9.1200   9.1200
     9.1200   9.1200   9.5084   9.5084   9.5683   9.5683   9.6097   9.6097
     9.6268   9.6268   9.6268   9.6268   9.6667   9.6668  10.1691  10.1692
    12.2754  12.2755  13.1538  13.1539  13.1666  13.1667  13.2313  13.2313
    13.2314  13.2314  13.7812  13.7812  13.7813  13.7813  13.9166  13.9166
    13.9166  13.9166  14.1017  14.1018  14.1135  14.1136  14.3062  14.3062
    14.5435  14.5435  15.1638  15.1638  15.1638  15.1638  15.6779  15.6780
    16.1748  16.1750  16.3191  16.3193  16.4185  16.4187  16.9283  16.9284

          k = 0.1250 0.2500 0.0000 ( 27275 PWs)   bands (ev):

   -45.9846 -45.9839 -45.9837 -45.9837 -45.9830 -45.9829 -45.9827 -45.9820
   -22.4334 -22.4308 -22.4301 -22.4281 -22.3841 -22.3826 -22.3821 -22.3806
   -22.3764 -22.3739 -22.3732 -22.3713 -22.3708 -22.3677 -22.3677 -22.3653
   -22.3315 -22.3294 -22.3293 -22.3274 -22.3252 -22.3237 -22.3233 -22.3218
   -14.5198 -14.4331 -14.4127 -14.4108 -14.3559 -14.3536 -14.3395 -14.2894
    -6.7793  -6.7650  -6.7035  -6.6072  -6.4096  -6.2874  -6.1501  -5.9360
    -5.9223  -5.9149  -5.8915  -5.8735  -5.8516  -5.8092  -5.8088  -5.8032
    -5.7778  -5.7688  -5.7615  -5.7505  -5.7423  -5.6452  -5.6362  -5.6100
    -0.3853  -0.3072  -0.2521   0.1165   0.1895   0.2157   0.2252   0.2884
     0.3038   0.3044   0.3147   0.3597   0.3802   0.4008   0.4127   0.4340
     0.4749   0.4763   0.5044   0.5979   0.6115   0.6213   0.6253   0.6407
     5.8408   5.9441   6.0117   6.0399   6.1331   6.2540   6.2568   6.3473
     6.3507   6.4351   6.4546   6.4717   6.5746   6.6011   6.6087   7.2490
     7.3648   7.4357   7.4490   7.4500   7.4626   7.4635   7.4725   7.4998
     7.5279   7.5291   7.5409   7.5640   7.5696   7.6040   7.6205   7.7499
     7.7896   7.8373   7.8477   7.9458   8.0061   8.0120   8.0845   8.1643
     8.5125   8.5346   8.5424   8.5808   8.5987   8.6452   8.6976   8.7556
     8.8210   9.0141   9.0186   9.0333   9.1730   9.1812   9.1840   9.1869
     9.2003   9.2954   9.3728   9.3754   9.3833   9.3968   9.4225   9.4611
     9.8053   9.8542   9.9394   9.9398  10.0193  10.0393  10.0754  10.0785
    12.3690  12.4573  12.4979  12.5376  12.5455  12.6246  13.5906  13.6216
    13.6370  13.6478  13.7696  13.8064  13.8250  13.8418  13.8665  13.8695
    13.8901  13.9318  14.1070  14.1228  14.2325  14.3338  14.3588  14.4159
    14.5349  14.5556  14.7044  14.7593  14.8550  15.0062  15.2872  15.4531
    15.5833  15.6438  16.0696  16.3657  16.5990  16.8494  16.9612  17.1311

          k = 0.1250 0.2500 0.1236 ( 27253 PWs)   bands (ev):

   -45.9846 -45.9839 -45.9838 -45.9836 -45.9830 -45.9829 -45.9828 -45.9820
   -22.4316 -22.4290 -22.4283 -22.4263 -22.3860 -22.3844 -22.3839 -22.3824
   -22.3763 -22.3738 -22.3734 -22.3714 -22.3707 -22.3678 -22.3676 -22.3654
   -22.3315 -22.3295 -22.3293 -22.3275 -22.3251 -22.3236 -22.3233 -22.3218
   -14.5158 -14.4302 -14.4168 -14.4082 -14.3589 -14.3512 -14.3423 -14.2919
    -6.7618  -6.7461  -6.6932  -6.6017  -6.3907  -6.3063  -6.1865  -5.9395
    -5.9161  -5.9086  -5.8901  -5.8711  -5.8502  -5.8497  -5.8114  -5.7976
    -5.7712  -5.7655  -5.7623  -5.7580  -5.7271  -5.6508  -5.6436  -5.6165
    -0.3646  -0.3176  -0.1899   0.1312   0.1855   0.1982   0.2194   0.2680
     0.2859   0.2979   0.3220   0.3558   0.3652   0.3926   0.4095   0.4407
     0.4856   0.4870   0.4905   0.5961   0.5981   0.6059   0.6239   0.6439
     5.8753   5.9801   6.0407   6.0534   6.1914   6.2498   6.2902   6.3723
     6.3989   6.4446   6.4642   6.4982   6.5753   6.6106   6.6234   7.2626
     7.3358   7.4344   7.4494   7.4530   7.4550   7.4657   7.4711   7.4780
     7.5130   7.5221   7.5704   7.5810   7.5826   7.5895   7.6252   7.7487
     7.7769   7.7995   7.8335   7.8573   7.9145   7.9619   8.0806   8.1814
     8.4384   8.5448   8.5478   8.6307   8.6506   8.6605   8.7196   8.7532
     8.8047   8.9983   9.0500   9.0594   9.1362   9.1645   9.1663   9.2035
     9.2319   9.3184   9.3228   9.3456   9.3492   9.3912   9.4133   9.4231
     9.7806   9.8140   9.8962   9.9255   9.9944   9.9961  10.0780  10.0838
    12.3949  12.4993  12.5403  12.5572  12.5830  12.6796  13.5934  13.6270
    13.6445  13.6636  13.7742  13.7893  13.8117  13.8179  13.8410  13.8438
    13.8590  13.8872  14.0892  14.1154  14.2040  14.3175  14.3327  14.3874
    14.6164  14.6279  14.7596  14.7996  14.8903  15.1278  15.2833  15.5200
    15.6424  15.6543  16.1086  16.3915  16.5449  16.8843  16.9967  17.2328

          k = 0.1250 0.2500 0.2473 ( 27262 PWs)   bands (ev):

   -45.9845 -45.9839 -45.9837 -45.9835 -45.9831 -45.9829 -45.9828 -45.9821
   -22.4263 -22.4238 -22.4231 -22.4212 -22.3914 -22.3897 -22.3892 -22.3876
   -22.3760 -22.3737 -22.3735 -22.3717 -22.3704 -22.3682 -22.3673 -22.3656
   -22.3312 -22.3297 -22.3290 -22.3277 -22.3249 -22.3235 -22.3234 -22.3220
   -14.5045 -14.4287 -14.4220 -14.4006 -14.3674 -14.3501 -14.3443 -14.2990
    -6.7113  -6.6915  -6.6653  -6.5903  -6.3613  -6.3359  -6.2743  -5.9452
    -5.9335  -5.9134  -5.8871  -5.8838  -5.8649  -5.8458  -5.8210  -5.8022
    -5.7819  -5.7566  -5.7480  -5.7453  -5.7157  -5.6668  -5.6637  -5.6348
    -0.3130  -0.2825  -0.0676   0.1200   0.1644   0.1742   0.1900   0.2304
     0.2780   0.3038   0.3074   0.3434   0.3443   0.3551   0.4420   0.4426
     0.4673   0.4706   0.5202   0.5240   0.5987   0.6020   0.6186   0.6423
     5.9498   6.0423   6.0595   6.1526   6.2310   6.3582   6.4012   6.4170
     6.4547   6.5323   6.5497   6.5797   6.5917   6.6397   6.7032   7.2092
     7.3078   7.3251   7.3736   7.4047   7.4309   7.4429   7.4655   7.4723
     7.4825   7.5017   7.5153   7.6158   7.6206   7.6653   7.6822   7.6856
     7.7056   7.7467   7.7526   7.8042   7.8469   8.0095   8.0768   8.1700
     8.2285   8.3960   8.5079   8.5811   8.6113   8.7005   8.7035   8.9126
     8.9807   8.9990   9.0315   9.0818   9.1387   9.1603   9.1702   9.2256
     9.2286   9.2580   9.2737   9.3143   9.3227   9.3419   9.3853   9.4376
     9.7012   9.7503   9.7793   9.8780   9.8851   9.9233  10.0770  10.0865
    12.4251  12.5257  12.6560  12.7161  12.7211  12.8313  13.6011  13.6275
    13.6410  13.6480  13.6704  13.7090  13.7376  13.7420  13.7864  13.8311
    13.8564  13.8979  14.0000  14.1287  14.1395  14.2351  14.2930  14.3171
    14.7212  14.7601  14.8108  15.0361  15.0800  15.2677  15.4556  15.6311
    15.7089  15.8627  16.2377  16.3856  16.4805  16.8920  17.0038  17.0972

          k = 0.1250 0.2500 0.3709 ( 27261 PWs)   bands (ev):

   -45.9844 -45.9840 -45.9836 -45.9834 -45.9832 -45.9830 -45.9826 -45.9823
   -22.4183 -22.4160 -22.4153 -22.4135 -22.3995 -22.3975 -22.3970 -22.3953
   -22.3755 -22.3742 -22.3731 -22.3721 -22.3699 -22.3687 -22.3669 -22.3660
   -22.3309 -22.3301 -22.3287 -22.3280 -22.3246 -22.3239 -22.3231 -22.3223
   -14.4873 -14.4463 -14.4096 -14.3891 -14.3801 -14.3618 -14.3340 -14.3095
    -6.6343  -6.6293  -6.6068  -6.5855  -6.4444  -6.3851  -6.2517  -6.0374
    -5.9398  -5.9028  -5.8861  -5.8646  -5.8644  -5.8584  -5.8388  -5.8203
    -5.7588  -5.7393  -5.7330  -5.7215  -5.7188  -5.6910  -5.6899  -5.6618
    -0.2367  -0.1902   0.0023   0.0544   0.0843   0.1775   0.2456   0.2492
     0.2494   0.2845   0.3139   0.3262   0.3265   0.3747   0.3949   0.3987
     0.4102   0.4313   0.5296   0.5607   0.6000   0.6010   0.6104   0.6233
     6.0089   6.0424   6.1285   6.2051   6.2523   6.3768   6.5774   6.5805
     6.5836   6.5929   6.6092   6.7356   6.7827   6.8355   6.8698   6.9913
     7.0810   7.2023   7.2082   7.2798   7.3560   7.3867   7.4270   7.4367
     7.4486   7.4773   7.5119   7.5915   7.6001   7.6569   7.7267   7.7503
     7.7524   7.7548   7.7806   7.8379   7.8484   7.8802   8.0203   8.0904
     8.2145   8.2943   8.3610   8.4752   8.6109   8.6426   8.7706   8.9601
     8.9786   8.9991   9.0140   9.1006   9.1054   9.1391   9.1446   9.1733
     9.2594   9.2678   9.3091   9.3632   9.3942   9.4218   9.4592   9.5104
     9.6107   9.6149   9.6788   9.7295   9.7869   9.7937  10.0771  10.0834
    12.4510  12.5038  12.8964  12.9238  12.9549  13.0487  13.4212  13.4479
    13.4717  13.5382  13.6119  13.6405  13.6950  13.8031  13.8405  13.8470
    13.8725  13.8847  13.9816  14.0320  14.1132  14.1760  14.1984  14.2660
    14.7489  14.7596  15.0125  15.2302  15.2992  15.4252  15.5903  15.9013
    15.9908  16.1305  16.1933  16.4760  16.6618  16.6838  16.7203  17.0840

          k = 0.1250 0.2500-0.4946 ( 27268 PWs)   bands (ev):

   -45.9842 -45.9842 -45.9834 -45.9834 -45.9832 -45.9832 -45.9824 -45.9824
   -22.4089 -22.4089 -22.4068 -22.4068 -22.4062 -22.4062 -22.4044 -22.4044
   -22.3749 -22.3748 -22.3726 -22.3726 -22.3693 -22.3693 -22.3665 -22.3664
   -22.3305 -22.3305 -22.3284 -22.3284 -22.3243 -22.3242 -22.3227 -22.3227
   -14.4670 -14.4669 -14.3949 -14.3948 -14.3755 -14.3755 -14.3218 -14.3217
    -6.5988  -6.5987  -6.5408  -6.5407  -6.5008  -6.5006  -6.1480  -6.1479
    -5.9121  -5.9120  -5.8913  -5.8912  -5.8566  -5.8566  -5.8300  -5.8299
    -5.7347  -5.7346  -5.7179  -5.7178  -5.7139  -5.7137  -5.6926  -5.6924
    -0.1265  -0.1265  -0.0717  -0.0716   0.2019   0.2020   0.2466   0.2467
     0.2772   0.2773   0.3037   0.3038   0.3298   0.3299   0.3550   0.3550
     0.4072   0.4073   0.5844   0.5844   0.5883   0.5883   0.6035   0.6035
     6.0353   6.0354   6.1731   6.1732   6.3246   6.3246   6.5806   6.5807
     6.7739   6.7740   6.8167   6.8168   6.9065   6.9066   6.9484   6.9485
     7.0449   7.0450   7.1133   7.1134   7.1970   7.1971   7.4265   7.4266
     7.4897   7.4898   7.4905   7.4906   7.6776   7.6777   7.6957   7.6958
     7.7683   7.7683   7.8134   7.8134   7.9106   7.9107   8.0308   8.0309
     8.2107   8.2107   8.3719   8.3719   8.6171   8.6172   8.8717   8.8717
     8.9664   8.9665   9.0483   9.0483   9.0947   9.0947   9.1754   9.1754
     9.2235   9.2236   9.4342   9.4342   9.5182   9.5183   9.5549   9.5550
     9.5962   9.5962   9.6026   9.6026   9.6438   9.6439  10.0794  10.0795
    12.4778  12.4779  13.1636  13.1637  13.1825  13.1826  13.2186  13.2187
    13.2960  13.2960  13.6248  13.6249  13.7757  13.7758  13.8219  13.8220
    13.9408  13.9408  13.9776  13.9776  14.0859  14.0860  14.2201  14.2201
    14.7569  14.7569  15.1527  15.1527  15.4899  15.4900  15.7985  15.7986
    16.3297  16.3299  16.3593  16.3595  16.6161  16.6163  16.8029  16.8031

          k = 0.1250 0.3750 0.0000 ( 27250 PWs)   bands (ev):

   -45.9845 -45.9841 -45.9835 -45.9835 -45.9831 -45.9831 -45.9826 -45.9822
   -22.4328 -22.4314 -22.4296 -22.4286 -22.3838 -22.3830 -22.3817 -22.3809
   -22.3759 -22.3745 -22.3728 -22.3718 -22.3619 -22.3590 -22.3589 -22.3566
   -22.3406 -22.3382 -22.3381 -22.3361 -22.3249 -22.3240 -22.3229 -22.3221
   -14.5002 -14.4533 -14.3998 -14.3979 -14.3691 -14.3669 -14.3281 -14.3010
    -6.7275  -6.6870  -6.6308  -6.6170  -6.4949  -6.3945  -6.0615  -5.9212
    -5.8985  -5.8963  -5.8775  -5.8539  -5.8499  -5.8276  -5.8265  -5.8144
    -5.7986  -5.7846  -5.7752  -5.7410  -5.7301  -5.7062  -5.6737  -5.6468
    -0.2823  -0.1943  -0.0979  -0.0080   0.0726   0.2398   0.2558   0.2920
     0.3112   0.3152   0.3317   0.3517   0.3752   0.3807   0.3849   0.4016
     0.4438   0.5038   0.5315   0.5444   0.5621   0.5746   0.5806   0.5870
     5.8976   5.9401   6.0610   6.1130   6.1206   6.2214   6.4191   6.4230
     6.4356   6.5517   6.6715   6.7151   6.7749   6.8421   6.8571   6.9566
     7.1303   7.2647   7.2832   7.3459   7.3566   7.4397   7.4567   7.4601
     7.4606   7.4792   7.5647   7.6211   7.6370   7.6488   7.6959   7.7221
     7.7666   7.7775   7.7969   7.8522   7.8797   7.9612   8.1673   8.1818
     8.4335   8.5176   8.5392   8.5700   8.6660   8.6788   8.7370   8.7575
     8.7989   8.9302   8.9366   8.9884   9.0510   9.1294   9.1324   9.2229
     9.2490   9.2753   9.3278   9.3419   9.4815   9.5040   9.5362   9.5406
     9.6637   9.7503   9.7872   9.8076   9.8750   9.9519  10.0286  10.0545
    12.4195  12.4748  12.7190  12.7674  12.8206  12.8308  13.3405  13.3619
    13.3852  13.4112  13.7970  13.8181  13.8271  13.8570  13.8814  13.8839
    13.9633  13.9975  14.0098  14.0203  14.2135  14.2427  14.2744  14.3736
    14.5439  14.5537  14.8692  14.9813  15.0063  15.2252  15.2394  15.8014
    15.8635  15.9135  16.0821  16.6159  16.6600  16.7856  16.8287  16.8307

          k = 0.1250 0.3750 0.1236 ( 27248 PWs)   bands (ev):

   -45.9844 -45.9840 -45.9836 -45.9834 -45.9832 -45.9830 -45.9826 -45.9822
   -22.4310 -22.4296 -22.4278 -22.4267 -22.3857 -22.3848 -22.3836 -22.3828
   -22.3757 -22.3744 -22.3729 -22.3719 -22.3618 -22.3591 -22.3588 -22.3567
   -22.3405 -22.3383 -22.3381 -22.3362 -22.3248 -22.3240 -22.3230 -22.3222
   -14.4965 -14.4502 -14.4037 -14.3953 -14.3724 -14.3644 -14.3308 -14.3036
    -6.7121  -6.6681  -6.6219  -6.6097  -6.4759  -6.4006  -6.1021  -5.9246
    -5.9122  -5.8983  -5.8879  -5.8789  -5.8509  -5.8277  -5.8119  -5.8097
    -5.7888  -5.7870  -5.7706  -5.7372  -5.7287  -5.7120  -5.6765  -5.6508
    -0.2650  -0.2092  -0.0372   0.0088   0.0597   0.2256   0.2389   0.3064
     0.3114   0.3149   0.3205   0.3258   0.3345   0.3691   0.3861   0.3946
     0.4707   0.4730   0.4919   0.5726   0.5840   0.5856   0.5872   0.5942
     5.9347   5.9768   6.1094   6.1193   6.1688   6.2158   6.4480   6.4518
     6.4619   6.5791   6.6806   6.7010   6.7778   6.8536   6.8603   6.9802
     7.1034   7.2482   7.2885   7.3170   7.3741   7.4304   7.4677   7.4697
     7.4850   7.4966   7.5308   7.5997   7.6516   7.6630   7.6946   7.7255
     7.7267   7.7719   7.7773   7.8725   7.8871   7.8924   8.0299   8.1824
     8.3645   8.4829   8.4899   8.5394   8.6673   8.7248   8.7742   8.8060
     8.8086   8.9721   8.9809   9.0066   9.0111   9.1055   9.1452   9.2387
     9.2443   9.2514   9.3150   9.3810   9.4355   9.4939   9.4998   9.5409
     9.6432   9.7153   9.7451   9.8031   9.8717   9.9484  10.0024  10.0295
    12.4779  12.5346  12.7279  12.7965  12.8160  12.8788  13.3446  13.3711
    13.4075  13.4178  13.8054  13.8055  13.8311  13.8339  13.8340  13.8343
    13.9491  13.9723  13.9800  14.0057  14.1955  14.2146  14.2457  14.3448
    14.6247  14.6320  14.9781  14.9808  15.1268  15.2358  15.2579  15.8586
    15.9010  15.9834  16.0852  16.6538  16.6709  16.7737  16.8189  16.8993

          k = 0.1250 0.3750 0.2473 ( 27248 PWs)   bands (ev):

   -45.9843 -45.9839 -45.9837 -45.9833 -45.9833 -45.9829 -45.9827 -45.9823
   -22.4257 -22.4243 -22.4227 -22.4216 -22.3910 -22.3901 -22.3888 -22.3880
   -22.3754 -22.3741 -22.3733 -22.3722 -22.3615 -22.3594 -22.3586 -22.3569
   -22.3403 -22.3386 -22.3379 -22.3364 -22.3246 -22.3237 -22.3232 -22.3224
   -14.4858 -14.4412 -14.4148 -14.3878 -14.3816 -14.3574 -14.3385 -14.3108
    -6.6684  -6.6132  -6.5994  -6.5913  -6.4229  -6.4210  -6.1936  -6.0068
    -5.9328  -5.9066  -5.8990  -5.8519  -5.8472  -5.8431  -5.8261  -5.7968
    -5.7933  -5.7634  -5.7633  -5.7274  -5.7265  -5.7246  -5.6849  -5.6620
    -0.2301  -0.1824   0.0392   0.0631   0.0825   0.1402   0.2357   0.2386
     0.2430   0.2822   0.3006   0.3275   0.3312   0.3892   0.3934   0.4002
     0.4079   0.4417   0.5275   0.5532   0.5966   0.5982   0.6092   0.6227
     6.0148   6.0565   6.1164   6.2012   6.2363   6.3267   6.5415   6.5498
     6.5606   6.6538   6.6609   6.7154   6.7894   6.8479   6.9241   7.0274
     7.0484   7.1947   7.2243   7.2989   7.3900   7.4070   7.4281   7.4524
     7.4750   7.5347   7.5657   7.5712   7.5970   7.6940   7.6989   7.7051
     7.7354   7.7506   7.7610   7.7909   7.8081   7.9251   7.9322   8.1542
     8.1981   8.2445   8.3909   8.4188   8.6561   8.7016   8.7189   8.9665
     8.9677   8.9758   9.0351   9.0515   9.0737   9.0943   9.1744   9.2070
     9.2604   9.2799   9.2882   9.3458   9.4548   9.4586   9.4711   9.5221
     9.5758   9.6385   9.6673   9.7842   9.8355   9.9212   9.9398   9.9723
    12.6245  12.6994  12.7649  12.8028  12.8883  13.0117  13.3553  13.3959
    13.4047  13.5083  13.6606  13.6889  13.6935  13.8285  13.8308  13.8567
    13.8718  13.8812  13.9457  14.0290  14.1005  14.1699  14.1822  14.2685
    14.7922  14.8140  14.9783  15.2224  15.2611  15.3912  15.4522  16.0195
    16.0278  16.0813  16.1901  16.6121  16.7105  16.7628  16.8539  17.1019

          k = 0.1250 0.3750 0.3709 ( 27255 PWs)   bands (ev):

   -45.9842 -45.9838 -45.9838 -45.9834 -45.9832 -45.9828 -45.9828 -45.9824
   -22.4178 -22.4165 -22.4149 -22.4139 -22.3990 -22.3980 -22.3966 -22.3957
   -22.3749 -22.3737 -22.3736 -22.3726 -22.3610 -22.3599 -22.3582 -22.3573
   -22.3399 -22.3390 -22.3375 -22.3367 -22.3243 -22.3235 -22.3234 -22.3227
   -14.4697 -14.4313 -14.4277 -14.3955 -14.3766 -14.3499 -14.3468 -14.3216
    -6.6043  -6.5753  -6.5718  -6.5282  -6.4675  -6.3361  -6.3058  -6.1169
    -5.9368  -5.9158  -5.9037  -5.8906  -5.8341  -5.8340  -5.8207  -5.8022
    -5.7791  -5.7583  -5.7558  -5.7424  -5.7182  -5.7141  -5.6972  -5.6786
    -0.1782  -0.0966   0.0238   0.0488   0.1320   0.1366   0.1528   0.2224
     0.2442   0.2692   0.2853   0.2909   0.3237   0.3436   0.3927   0.3947
     0.3990   0.4767   0.4815   0.5791   0.5897   0.6129   0.6226   0.6308
     6.0764   6.1124   6.1210   6.1816   6.3884   6.5583   6.5987   6.6944
     6.7111   6.7244   6.7369   6.8242   6.8327   6.8786   6.9194   7.0557
     7.0576   7.1099   7.1529   7.1668   7.2762   7.3706   7.3802   7.3975
     7.4353   7.4801   7.5177   7.5688   7.6489   7.6852   7.6994   7.7030
     7.7295   7.7346   7.7552   7.7776   7.8085   7.9784   7.9996   8.0051
     8.0094   8.0694   8.2374   8.2588   8.6173   8.6316   8.6948   8.8392
     8.9895   9.0727   9.1024   9.1352   9.1423   9.1987   9.2166   9.2496
     9.2687   9.3114   9.3177   9.3507   9.4538   9.4837   9.4841   9.4937
     9.5360   9.5380   9.6384   9.7201   9.7382   9.7798   9.9307   9.9360
    12.7220  12.7826  12.9291  12.9334  13.0444  13.2035  13.3642  13.3711
    13.4461  13.4743  13.4810  13.4967  13.6411  13.6433  13.7276  13.8586
    13.9031  13.9202  13.9551  13.9582  14.0647  14.0718  14.1366  14.1724
    14.9025  14.9701  15.0020  15.1907  15.6081  15.6705  15.8956  16.0341
    16.2623  16.2669  16.3540  16.5189  16.7140  16.8043  16.8820  16.9289

          k = 0.1250 0.3750-0.4946 ( 27260 PWs)   bands (ev):

   -45.9840 -45.9840 -45.9836 -45.9836 -45.9830 -45.9830 -45.9826 -45.9826
   -22.4084 -22.4084 -22.4073 -22.4073 -22.4058 -22.4058 -22.4048 -22.4048
   -22.3743 -22.3743 -22.3731 -22.3731 -22.3604 -22.3604 -22.3578 -22.3578
   -22.3394 -22.3394 -22.3371 -22.3371 -22.3239 -22.3239 -22.3231 -22.3230
   -14.4507 -14.4506 -14.4117 -14.4116 -14.3633 -14.3633 -14.3343 -14.3342
    -6.5641  -6.5640  -6.5322  -6.5321  -6.4219  -6.4218  -6.2309  -6.2308
    -5.9241  -5.9240  -5.9120  -5.9119  -5.8291  -5.8290  -5.8122  -5.8120
    -5.7628  -5.7627  -5.7530  -5.7529  -5.7093  -5.7092  -5.6973  -5.6972
    -0.0903  -0.0903   0.0142   0.0143   0.0869   0.0869   0.2285   0.2286
     0.2609   0.2609   0.2719   0.2720   0.3607   0.3607   0.3668   0.3669
     0.3947   0.3948   0.5491   0.5491   0.6157   0.6157   0.6230   0.6230
     6.1031   6.1032   6.1575   6.1576   6.5117   6.5118   6.7660   6.7661
     6.8076   6.8077   6.8192   6.8193   6.9253   6.9254   6.9307   6.9307
     7.0687   7.0689   7.1737   7.1738   7.2663   7.2664   7.2836   7.2837
     7.3589   7.3590   7.5979   7.5980   7.6222   7.6223   7.7124   7.7124
     7.7501   7.7501   7.8330   7.8331   7.8338   7.8339   7.9423   7.9424
     8.0978   8.0978   8.1186   8.1186   8.5926   8.5927   8.7340   8.7340
     9.0596   9.0596   9.1367   9.1367   9.1736   9.1737   9.2197   9.2197
     9.3389   9.3389   9.3905   9.3906   9.4526   9.4528   9.5418   9.5418
     9.5776   9.5776   9.5999   9.5999   9.6531   9.6532   9.9270   9.9272
    12.7568  12.7569  13.1889  13.1890  13.1913  13.1914  13.2517  13.2518
    13.3956  13.3956  13.4242  13.4242  13.5855  13.5855  13.7976  13.7976
    13.8900  13.8900  13.9770  13.9771  14.0487  14.0487  14.1092  14.1092
    14.9502  14.9502  15.1252  15.1252  15.8882  15.8883  16.0231  16.0232
    16.3540  16.3542  16.5604  16.5606  16.5930  16.5931  16.9398  16.9400

          k = 0.1250-0.5000 0.0000 ( 27242 PWs)   bands (ev):

   -45.9843 -45.9843 -45.9833 -45.9833 -45.9833 -45.9833 -45.9824 -45.9824
   -22.4321 -22.4321 -22.4291 -22.4291 -22.3834 -22.3834 -22.3813 -22.3813
   -22.3752 -22.3752 -22.3723 -22.3723 -22.3513 -22.3513 -22.3486 -22.3486
   -22.3485 -22.3485 -22.3464 -22.3464 -22.3244 -22.3244 -22.3225 -22.3225
   -14.4769 -14.4769 -14.3845 -14.3845 -14.3824 -14.3824 -14.3146 -14.3146
    -6.6734  -6.6734  -6.5925  -6.5924  -6.5097  -6.5097  -5.9545  -5.9545
    -5.9081  -5.9081  -5.8647  -5.8647  -5.8334  -5.8334  -5.8326  -5.8326
    -5.7815  -5.7814  -5.7764  -5.7764  -5.7076  -5.7076  -5.6894  -5.6894
    -0.1491  -0.1491  -0.0621  -0.0621   0.0910   0.0910   0.2737   0.2737
     0.3001   0.3001   0.3444   0.3444   0.3658   0.3658   0.4564   0.4564
     0.4711   0.4711   0.5115   0.5115   0.5482   0.5482   0.5583   0.5583
     5.9279   5.9279   6.0902   6.0902   6.1783   6.1783   6.4322   6.4322
     6.6624   6.6624   6.8156   6.8156   6.9667   6.9667   7.0274   7.0274
     7.0420   7.0421   7.1193   7.1193   7.2008   7.2008   7.4576   7.4576
     7.4694   7.4695   7.6700   7.6700   7.6827   7.6827   7.7186   7.7186
     7.7637   7.7637   7.7644   7.7644   7.8396   7.8396   8.2889   8.2890
     8.3610   8.3611   8.5448   8.5448   8.8135   8.8135   8.8209   8.8209
     8.8344   8.8344   8.8843   8.8843   8.9140   8.9140   9.1661   9.1662
     9.1899   9.1899   9.4936   9.4936   9.6086   9.6086   9.6250   9.6250
     9.6405   9.6406   9.6935   9.6935   9.7598   9.7598  10.0408  10.0408
    12.4479  12.4479  13.0361  13.0361  13.0614  13.0614  13.1007  13.1007
    13.1233  13.1233  13.8102  13.8102  13.8750  13.8750  13.8956  13.8956
    13.9300  13.9300  14.0838  14.0838  14.1194  14.1194  14.3239  14.3239
    14.5501  14.5501  14.9677  14.9677  15.1437  15.1437  15.5761  15.5761
    16.2133  16.2133  16.3388  16.3388  16.5064  16.5065  17.0271  17.0271

          k = 0.1250-0.5000 0.1236 ( 27254 PWs)   bands (ev):

   -45.9842 -45.9842 -45.9834 -45.9834 -45.9832 -45.9832 -45.9824 -45.9824
   -22.4303 -22.4303 -22.4273 -22.4273 -22.3852 -22.3852 -22.3832 -22.3832
   -22.3751 -22.3751 -22.3724 -22.3724 -22.3512 -22.3512 -22.3487 -22.3487
   -22.3485 -22.3485 -22.3465 -22.3465 -22.3244 -22.3244 -22.3226 -22.3226
   -14.4735 -14.4734 -14.3881 -14.3881 -14.3799 -14.3799 -14.3172 -14.3172
    -6.6610  -6.6610  -6.5735  -6.5735  -6.5075  -6.5075  -6.0036  -6.0036
    -5.9097  -5.9097  -5.8489  -5.8489  -5.8394  -5.8394  -5.8288  -5.8288
    -5.7796  -5.7796  -5.7783  -5.7783  -5.7071  -5.7070  -5.6906  -5.6906
    -0.1327  -0.1327  -0.0781  -0.0781   0.1416   0.1416   0.2659   0.2659
     0.2706   0.2706   0.3393   0.3393   0.3512   0.3512   0.4095   0.4095
     0.4539   0.4539   0.5350   0.5350   0.5719   0.5719   0.5761   0.5761
     5.9653   5.9653   6.1429   6.1429   6.1746   6.1746   6.4577   6.4577
     6.6917   6.6917   6.8181   6.8181   6.9547   6.9547   7.0069   7.0070
     7.0475   7.0475   7.1362   7.1362   7.2004   7.2005   7.4640   7.4640
     7.4928   7.4928   7.6309   7.6309   7.6921   7.6921   7.6961   7.6961
     7.7701   7.7701   7.7757   7.7757   7.8095   7.8095   8.1979   8.1980
     8.3293   8.3293   8.4971   8.4971   8.7645   8.7645   8.8683   8.8683
     8.8883   8.8883   8.9213   8.9213   8.9327   8.9327   9.1503   9.1503
     9.2038   9.2038   9.4789   9.4789   9.5819   9.5820   9.6050   9.6050
     9.6178   9.6178   9.6987   9.6987   9.7530   9.7530  10.0126  10.0126
    12.5079  12.5079  13.0422  13.0422  13.0776  13.0776  13.1193  13.1193
    13.1406  13.1406  13.8229  13.8229  13.8243  13.8243  13.8838  13.8838
    13.9032  13.9032  14.0657  14.0657  14.0879  14.0879  14.2952  14.2952
    14.6300  14.6300  15.0849  15.0849  15.1415  15.1415  15.6111  15.6111
    16.2581  16.2581  16.4097  16.4097  16.5197  16.5197  17.0289  17.0289

          k = 0.1250-0.5000 0.2473 ( 27230 PWs)   bands (ev):

   -45.9841 -45.9841 -45.9835 -45.9835 -45.9831 -45.9831 -45.9825 -45.9825
   -22.4250 -22.4250 -22.4221 -22.4221 -22.3906 -22.3906 -22.3884 -22.3884
   -22.3748 -22.3748 -22.3727 -22.3727 -22.3509 -22.3509 -22.3490 -22.3490
   -22.3482 -22.3482 -22.3467 -22.3467 -22.3242 -22.3242 -22.3228 -22.3228
   -14.4636 -14.4636 -14.3983 -14.3983 -14.3727 -14.3726 -14.3247 -14.3247
    -6.6269  -6.6269  -6.5185  -6.5185  -6.5051  -6.5050  -6.0990  -6.0989
    -5.9153  -5.9153  -5.8814  -5.8814  -5.8187  -5.8187  -5.8107  -5.8107
    -5.7858  -5.7858  -5.7769  -5.7769  -5.7062  -5.7062  -5.6939  -5.6939
    -0.1067  -0.1067  -0.0617  -0.0617   0.1790   0.1790   0.2459   0.2459
     0.2630   0.2630   0.3031   0.3031   0.3257   0.3257   0.3555   0.3555
     0.4249   0.4249   0.5774   0.5774   0.5807   0.5807   0.6054   0.6054
     6.0458   6.0458   6.1654   6.1654   6.2886   6.2886   6.5561   6.5561
     6.7764   6.7764   6.8242   6.8242   6.9298   6.9298   6.9458   6.9458
     7.0639   7.0639   7.1928   7.1928   7.1936   7.1936   7.4556   7.4556
     7.4876   7.4876   7.5544   7.5544   7.6691   7.6691   7.7155   7.7155
     7.7567   7.7567   7.7898   7.7898   7.8142   7.8142   8.0048   8.0048
     8.2635   8.2635   8.3143   8.3144   8.6861   8.6861   8.8049   8.8049
     9.0043   9.0043   9.0347   9.0347   9.0542   9.0542   9.1494   9.1494
     9.2313   9.2313   9.4290   9.4290   9.4856   9.4856   9.5680   9.5680
     9.6378   9.6378   9.6923   9.6923   9.7360   9.7360   9.9280   9.9280
    12.6719  12.6719  13.0581  13.0581  13.1074  13.1074  13.1340  13.1340
    13.2516  13.2517  13.6807  13.6807  13.7567  13.7567  13.8603  13.8603
    13.9252  13.9252  13.9572  13.9573  14.0586  14.0586  14.2189  14.2189
    14.8106  14.8106  15.1329  15.1329  15.3984  15.3984  15.7362  15.7363
    16.3875  16.3875  16.5308  16.5308  16.6171  16.6171  16.9071  16.9071

          k = 0.1250-0.5000 0.3709 ( 27250 PWs)   bands (ev):

   -45.9840 -45.9840 -45.9836 -45.9836 -45.9830 -45.9830 -45.9826 -45.9826
   -22.4172 -22.4172 -22.4144 -22.4144 -22.3985 -22.3985 -22.3962 -22.3962
   -22.3743 -22.3743 -22.3732 -22.3732 -22.3504 -22.3504 -22.3494 -22.3494
   -22.3479 -22.3479 -22.3471 -22.3471 -22.3238 -22.3238 -22.3231 -22.3231
   -14.4488 -14.4488 -14.4135 -14.4135 -14.3618 -14.3617 -14.3358 -14.3358
    -6.5813  -6.5813  -6.5125  -6.5125  -6.4334  -6.4334  -6.2115  -6.2114
    -5.9234  -5.9234  -5.9114  -5.9114  -5.8059  -5.8058  -5.7962  -5.7962
    -5.7886  -5.7886  -5.7804  -5.7804  -5.7056  -5.7056  -5.6987  -5.6987
    -0.0787  -0.0787   0.0173   0.0174   0.0749   0.0749   0.2262   0.2262
     0.2561   0.2561   0.2727   0.2727   0.3623   0.3623   0.3661   0.3662
     0.3999   0.3999   0.5454   0.5454   0.6119   0.6119   0.6257   0.6257
     6.1080   6.1080   6.1536   6.1536   6.4897   6.4897   6.7424   6.7424
     6.8311   6.8312   6.8425   6.8425   6.9081   6.9081   6.9251   6.9251
     7.0866   7.0866   7.1774   7.1774   7.2851   7.2851   7.3036   7.3036
     7.3595   7.3595   7.6104   7.6104   7.6299   7.6299   7.7259   7.7259
     7.7277   7.7277   7.8185   7.8185   7.8387   7.8387   7.8926   7.8926
     8.0851   8.0852   8.1513   8.1513   8.6287   8.6287   8.6908   8.6908
     9.0855   9.0855   9.1270   9.1270   9.1562   9.1562   9.2503   9.2503
     9.3185   9.3185   9.3395   9.3395   9.3648   9.3648   9.5985   9.5985
     9.6504   9.6504   9.6666   9.6666   9.7186   9.7186   9.7970   9.7970
    12.8957  12.8957  13.0872  13.0873  13.0903  13.0903  13.2404  13.2404
    13.4132  13.4132  13.4674  13.4674  13.5801  13.5801  13.7916  13.7917
    13.9190  13.9190  13.9611  13.9611  14.0240  14.0240  14.1192  14.1192
    14.9731  14.9731  15.1118  15.1118  15.8142  15.8143  15.9831  15.9832
    16.4596  16.4597  16.5876  16.5876  16.6441  16.6441  17.0574  17.0574

          k = 0.1250-0.5000-0.4946 ( 27268 PWs)   bands (ev):

   -45.9838 -45.9838 -45.9838 -45.9838 -45.9828 -45.9828 -45.9828 -45.9828
   -22.4079 -22.4079 -22.4078 -22.4078 -22.4053 -22.4053 -22.4053 -22.4053
   -22.3737 -22.3737 -22.3737 -22.3737 -22.3499 -22.3499 -22.3499 -22.3499
   -22.3475 -22.3475 -22.3475 -22.3475 -22.3235 -22.3235 -22.3235 -22.3235
   -14.4313 -14.4313 -14.4312 -14.4312 -14.3489 -14.3489 -14.3488 -14.3488
    -6.5387  -6.5387  -6.5386  -6.5386  -6.3273  -6.3273  -6.3271  -6.3271
    -5.9256  -5.9256  -5.9255  -5.9255  -5.7961  -5.7961  -5.7960  -5.7960
    -5.7859  -5.7859  -5.7858  -5.7858  -5.7033  -5.7033  -5.7031  -5.7031
    -0.0167  -0.0167  -0.0166  -0.0166   0.1190   0.1190   0.1190   0.1191
     0.2574   0.2574   0.2574   0.2574   0.3808   0.3808   0.3808   0.3808
     0.4682   0.4683   0.4683   0.4683   0.6288   0.6288   0.6288   0.6288
     6.1380   6.1380   6.1381   6.1381   6.6891   6.6891   6.6892   6.6892
     6.8327   6.8327   6.8327   6.8327   7.0605   7.0605   7.0606   7.0606
     7.0799   7.0799   7.0800   7.0800   7.1876   7.1876   7.1877   7.1877
     7.4673   7.4673   7.4673   7.4673   7.7036   7.7036   7.7037   7.7037
     7.7229   7.7229   7.7230   7.7230   7.9288   7.9288   7.9289   7.9289
     8.0146   8.0146   8.0147   8.0147   8.6225   8.6225   8.6225   8.6225
     9.1514   9.1514   9.1514   9.1515   9.2459   9.2459   9.2459   9.2459
     9.2669   9.2669   9.2669   9.2669   9.5426   9.5426   9.5426   9.5426
     9.6378   9.6378   9.6379   9.6379   9.7179   9.7179   9.7180   9.7180
    13.0489  13.0490  13.0490  13.0490  13.2258  13.2258  13.2258  13.2259
    13.3957  13.3957  13.3957  13.3958  13.6015  13.6016  13.6016  13.6016
    13.9799  13.9799  13.9799  13.9800  14.0236  14.0236  14.0236  14.0236
    15.0663  15.0663  15.0664  15.0664  16.2114  16.2114  16.2115  16.2116
    16.3148  16.3149  16.3149  16.3150  16.8388  16.8388  16.8389  16.8390

          k = 0.2500 0.2500 0.0000 ( 27250 PWs)   bands (ev):

   -45.9845 -45.9838 -45.9838 -45.9836 -45.9830 -45.9829 -45.9829 -45.9821
   -22.4330 -22.4305 -22.4305 -22.4284 -22.3839 -22.3823 -22.3823 -22.3808
   -22.3705 -22.3705 -22.3682 -22.3678 -22.3674 -22.3674 -22.3657 -22.3654
   -22.3315 -22.3311 -22.3296 -22.3296 -22.3293 -22.3290 -22.3276 -22.3276
   -14.5073 -14.4239 -14.4239 -14.4042 -14.3631 -14.3482 -14.3482 -14.2973
    -6.7333  -6.7333  -6.6474  -6.6070  -6.4469  -6.2300  -6.2300  -5.9231
    -5.9023  -5.9023  -5.8777  -5.8777  -5.8519  -5.8294  -5.8112  -5.8065
    -5.7982  -5.7700  -5.7626  -5.7603  -5.7603  -5.6594  -5.6594  -5.6525
    -0.3539  -0.2327  -0.1358   0.1195   0.1195   0.2210   0.2381   0.2382
     0.2745   0.2900   0.3222   0.3619   0.3715   0.3715   0.4370   0.4519
     0.4519   0.5023   0.5023   0.5383   0.5841   0.5987   0.6042   0.6042
     5.9107   6.0123   6.0123   6.1223   6.1373   6.3794   6.3794   6.4228
     6.4228   6.4960   6.5174   6.6260   6.6260   6.6429   6.6485   7.1230
     7.3688   7.3916   7.3916   7.4330   7.4601   7.4700   7.4700   7.4869
     7.5040   7.5276   7.5276   7.6063   7.6063   7.6161   7.6792   7.6792
     7.7473   7.7511   7.7978   7.8254   7.8477   8.0698   8.0698   8.2595
     8.2595   8.4345   8.5202   8.5202   8.5424   8.5942   8.8492   8.8492
     8.9422   8.9516   8.9769   9.0454   9.0564   9.1166   9.1834   9.2605
     9.2605   9.2888   9.2888   9.3224   9.3628   9.3628   9.4575   9.4575
     9.7960   9.7999   9.8937   9.9283   9.9406   9.9406  10.0064  10.0264
    12.4550  12.5956  12.6018  12.6093  12.6093  12.7133  13.5806  13.6063
    13.6063  13.6332  13.6332  13.7001  13.7175  13.7175  13.8440  13.8767
    13.9230  13.9230  14.0090  14.1507  14.1507  14.2382  14.3260  14.3357
    14.6903  14.7166  14.7166  15.0067  15.0187  15.0321  15.6290  15.6290
    15.6810  15.7759  16.2391  16.2391  16.6954  17.0429  17.0909  17.0939

          k = 0.2500 0.2500 0.1236 ( 27245 PWs)   bands (ev):

   -45.9845 -45.9837 -45.9837 -45.9836 -45.9830 -45.9829 -45.9829 -45.9821
   -22.4312 -22.4286 -22.4286 -22.4266 -22.3858 -22.3842 -22.3842 -22.3827
   -22.3704 -22.3704 -22.3681 -22.3677 -22.3675 -22.3675 -22.3658 -22.3655
   -22.3314 -22.3310 -22.3295 -22.3295 -22.3294 -22.3291 -22.3277 -22.3277
   -14.5035 -14.4211 -14.4211 -14.4082 -14.3606 -14.3512 -14.3511 -14.2999
    -6.7156  -6.7156  -6.6386  -6.5997  -6.4281  -6.2500  -6.2500  -5.9277
    -5.9020  -5.9020  -5.8866  -5.8759  -5.8759  -5.8499  -5.8010  -5.8002
    -5.7847  -5.7767  -5.7607  -5.7558  -5.7558  -5.6652  -5.6652  -5.6587
    -0.3329  -0.2471  -0.0757   0.1304   0.1305   0.1981   0.2299   0.2300
     0.2752   0.2896   0.3040   0.3114   0.3500   0.3500   0.4366   0.4367
     0.4701   0.4880   0.5202   0.5202   0.5933   0.6185   0.6185   0.6218
     5.9512   6.0545   6.0545   6.1375   6.1786   6.4025   6.4025   6.4132
     6.4132   6.5313   6.5394   6.6427   6.6480   6.6484   6.6484   7.1341
     7.3522   7.3522   7.3562   7.4448   7.4461   7.4761   7.4761   7.5067
     7.5094   7.5094   7.5159   7.6237   7.6237   7.6247   7.6816   7.6817
     7.7426   7.7450   7.7800   7.7826   7.8619   7.9665   7.9665   8.2681
     8.2681   8.4078   8.4478   8.5143   8.6070   8.6070   8.8715   8.8715
     8.8795   8.9592   8.9957   9.0853   9.0901   9.1434   9.2103   9.2285
     9.2285   9.2480   9.2480   9.3380   9.3929   9.3930   9.4169   9.4169
     9.7557   9.7753   9.8573   9.8956   9.9236   9.9236  10.0093  10.0241
    12.4988  12.6220  12.6355  12.6643  12.6643  12.7080  13.6089  13.6122
    13.6122  13.6402  13.6403  13.7121  13.7121  13.7194  13.7914  13.8260
    13.8753  13.8753  14.0176  14.1174  14.1174  14.2271  14.2935  14.3046
    14.8006  14.8116  14.8116  15.0082  15.0306  15.1397  15.6268  15.6268
    15.7411  15.8428  16.2635  16.2635  16.6401  17.0463  17.1282  17.1428

          k = 0.2500 0.2500 0.2473 ( 27249 PWs)   bands (ev):

   -45.9844 -45.9837 -45.9836 -45.9836 -45.9830 -45.9830 -45.9829 -45.9822
   -22.4259 -22.4235 -22.4235 -22.4215 -22.3912 -22.3894 -22.3894 -22.3878
   -22.3700 -22.3700 -22.3679 -22.3679 -22.3679 -22.3675 -22.3660 -22.3658
   -22.3312 -22.3308 -22.3296 -22.3293 -22.3293 -22.3293 -22.3279 -22.3279
   -14.4925 -14.4196 -14.4130 -14.4130 -14.3595 -14.3595 -14.3536 -14.3071
    -6.6646  -6.6646  -6.6154  -6.5822  -6.3738  -6.3078  -6.3078  -5.9740
    -5.9366  -5.8968  -5.8968  -5.8720  -5.8720  -5.8441  -5.8239  -5.8061
    -5.7851  -5.7557  -5.7535  -5.7463  -5.7463  -5.6811  -5.6811  -5.6762
    -0.2728  -0.2372   0.0464   0.1332   0.1592   0.1592   0.1928   0.2194
     0.2194   0.2773   0.2831   0.2882   0.3008   0.3008   0.3995   0.3996
     0.4182   0.5331   0.5551   0.5613   0.5613   0.6411   0.6411   0.6551
     6.0413   6.1390   6.1520   6.1520   6.3383   6.3870   6.3870   6.4841
     6.4841   6.6287   6.6321   6.6425   6.6468   6.7249   6.7249   7.1781
     7.2225   7.2225   7.3050   7.3179   7.4763   7.4763   7.4805   7.4869
     7.4869   7.5289   7.6115   7.6115   7.6318   7.6472   7.6773   7.6777
     7.6777   7.7162   7.7376   7.7473   7.8878   7.8878   7.9027   8.1924
     8.2885   8.2885   8.3271   8.3536   8.5667   8.5667   8.7971   8.9845
     9.0064   9.0341   9.0341   9.0722   9.1433   9.1433   9.1513   9.2320
     9.2320   9.2706   9.2876   9.3509   9.3509   9.3835   9.4008   9.4008
     9.6672   9.7176   9.7518   9.8106   9.8687   9.8687  10.0104  10.0183
    12.5685  12.6926  12.7301  12.7544  12.8158  12.8158  13.6272  13.6272
    13.6436  13.6656  13.6656  13.6815  13.6851  13.6851  13.6873  13.7524
    13.7524  13.7751  14.0288  14.0288  14.0422  14.1860  14.2073  14.2294
    15.0119  15.0274  15.0469  15.0469  15.0915  15.4674  15.6148  15.6148
    15.9121  16.0403  16.3492  16.3492  16.4765  16.9949  17.4248  17.4248

          k = 0.2500 0.2500 0.3709 ( 27245 PWs)   bands (ev):

   -45.9842 -45.9839 -45.9835 -45.9835 -45.9831 -45.9831 -45.9827 -45.9824
   -22.4180 -22.4157 -22.4157 -22.4138 -22.3992 -22.3973 -22.3973 -22.3956
   -22.3695 -22.3695 -22.3684 -22.3684 -22.3674 -22.3671 -22.3664 -22.3662
   -22.3308 -22.3304 -22.3300 -22.3297 -22.3290 -22.3290 -22.3282 -22.3282
   -14.4760 -14.4366 -14.4009 -14.4009 -14.3719 -14.3719 -14.3430 -14.3179
    -6.5874  -6.5867  -6.5867  -6.5672  -6.3936  -6.3936  -6.2904  -6.0779
    -5.9370  -5.8851  -5.8851  -5.8739  -5.8697  -5.8697  -5.8355  -5.8149
    -5.7609  -5.7493  -5.7443  -5.7356  -5.7356  -5.7022  -5.7021  -5.7020
    -0.1819  -0.1802   0.0376   0.0520   0.1870   0.1871   0.1927   0.2377
     0.2377   0.2493   0.2493   0.2801   0.2830   0.2861   0.3482   0.3482
     0.3550   0.4681   0.5949   0.6050   0.6050   0.6496   0.6497   0.6622
     6.1115   6.1413   6.2420   6.2420   6.3497   6.3497   6.5743   6.6351
     6.6351   6.6427   6.6451   6.7802   6.8194   6.8829   6.8829   7.0274
     7.0274   7.1078   7.2077   7.2669   7.3594   7.3594   7.4652   7.4960
     7.4960   7.5309   7.5309   7.5376   7.5413   7.6699   7.6758   7.7238
     7.7371   7.7568   7.7568   7.8085   7.8687   7.8687   7.9046   7.9683
     8.1915   8.1926   8.3118   8.3118   8.4381   8.4382   8.7512   8.8501
     9.0714   9.0912   9.0912   9.1255   9.1255   9.1669   9.2137   9.2403
     9.2403   9.3639   9.3639   9.3927   9.4052   9.4284   9.4284   9.4541
     9.5840   9.5903   9.6346   9.6883   9.7672   9.7672  10.0088  10.0122
    12.6078  12.6691  12.9438  12.9471  13.0330  13.0330  13.4274  13.4649
    13.5193  13.5193  13.6475  13.6475  13.6953  13.6953  13.7180  13.7181
    13.8020  13.8620  13.9134  13.9134  14.0770  14.0795  14.0922  14.1726
    15.0162  15.0238  15.3046  15.3046  15.4753  15.5770  15.5770  15.9160
    16.1708  16.2134  16.3565  16.5288  16.5289  16.7754  16.8252  17.1402

          k = 0.2500 0.2500-0.4946 ( 27298 PWs)   bands (ev):

   -45.9841 -45.9841 -45.9833 -45.9833 -45.9833 -45.9833 -45.9825 -45.9825
   -22.4086 -22.4086 -22.4065 -22.4065 -22.4065 -22.4065 -22.4047 -22.4047
   -22.3690 -22.3690 -22.3689 -22.3689 -22.3670 -22.3669 -22.3666 -22.3666
   -22.3304 -22.3304 -22.3301 -22.3301 -22.3286 -22.3286 -22.3286 -22.3286
   -14.4564 -14.4564 -14.3865 -14.3865 -14.3864 -14.3864 -14.3305 -14.3304
    -6.5681  -6.5680  -6.4919  -6.4919  -6.4917  -6.4917  -6.1877  -6.1876
    -5.9163  -5.9162  -5.8738  -5.8738  -5.8738  -5.8738  -5.8253  -5.8252
    -5.7444  -5.7443  -5.7319  -5.7317  -5.7216  -5.7216  -5.7215  -5.7215
    -0.0795  -0.0794  -0.0731  -0.0731   0.2106   0.2107   0.2107   0.2107
     0.2832   0.2833   0.2898   0.2898   0.2898   0.2899   0.3077   0.3078
     0.3406   0.3406   0.6370   0.6370   0.6370   0.6371   0.6409   0.6409
     6.1377   6.1378   6.3035   6.3035   6.3035   6.3035   6.6436   6.6437
     6.8227   6.8228   6.8228   6.8228   6.8460   6.8461   6.9219   6.9219
     7.1232   7.1232   7.1233   7.1233   7.2450   7.2452   7.3955   7.3955
     7.5067   7.5067   7.5068   7.5068   7.6061   7.6062   7.7028   7.7028
     7.7687   7.7687   7.8294   7.8294   7.8295   7.8295   8.0078   8.0079
     8.0626   8.0627   8.3497   8.3497   8.3497   8.3497   8.7630   8.7631
     9.0948   9.0948   9.0948   9.0948   9.1334   9.1335   9.2982   9.2982
     9.2983   9.2983   9.3987   9.3987   9.4976   9.4976   9.5417   9.5418
     9.5460   9.5460   9.6135   9.6135   9.6135   9.6135  10.0086  10.0088
    12.6401  12.6401  13.1803  13.1804  13.2075  13.2076  13.2797  13.2797
    13.2798  13.2798  13.6705  13.6705  13.6706  13.6706  13.8026  13.8026
    13.8027  13.8027  13.9379  13.9380  13.9715  13.9715  14.1245  14.1246
    15.0201  15.0201  15.4850  15.4850  15.4851  15.4851  15.8684  15.8685
    16.3855  16.3857  16.4859  16.4861  16.7652  16.7654  16.8130  16.8131

          k = 0.2500 0.3750 0.0000 ( 27252 PWs)   bands (ev):

   -45.9844 -45.9840 -45.9836 -45.9834 -45.9832 -45.9830 -45.9827 -45.9822
   -22.4324 -22.4311 -22.4300 -22.4289 -22.3835 -22.3827 -22.3820 -22.3812
   -22.3699 -22.3686 -22.3670 -22.3660 -22.3615 -22.3592 -22.3587 -22.3569
   -22.3403 -22.3384 -22.3380 -22.3364 -22.3309 -22.3300 -22.3288 -22.3280
   -14.4885 -14.4433 -14.4101 -14.3915 -14.3772 -14.3612 -14.3367 -14.3091
    -6.6900  -6.6647  -6.6185  -6.5606  -6.5079  -6.3375  -6.1421  -5.9233
    -5.9050  -5.8839  -5.8834  -5.8716  -5.8574  -5.8381  -5.8374  -5.8159
    -5.8001  -5.7826  -5.7595  -5.7530  -5.7341  -5.7267  -5.6923  -5.6739
    -0.2730  -0.1276  -0.0132   0.0194   0.1263   0.1354   0.2233   0.2366
     0.2794   0.3128   0.3190   0.3348   0.3504   0.3600   0.4201   0.4286
     0.4808   0.4952   0.4988   0.5312   0.5560   0.5647   0.5661   0.5832
     5.9677   6.0085   6.0648   6.1084   6.2415   6.3776   6.4921   6.4980
     6.5492   6.6712   6.6986   6.7269   6.8169   6.8459   6.8553   6.9014
     7.1807   7.1927   7.2526   7.3389   7.3786   7.4180   7.4295   7.4553
     7.4663   7.5206   7.5313   7.6223   7.6531   7.6561   7.6676   7.7301
     7.7315   7.7839   7.8091   7.8092   7.8649   7.9689   8.0060   8.1617
     8.2538   8.3892   8.4438   8.4487   8.4986   8.5575   8.7188   8.8529
     8.8807   8.9029   8.9839   9.0141   9.0267   9.1513   9.1801   9.2540
     9.2870   9.2975   9.3268   9.3853   9.4263   9.4667   9.5448   9.5656
     9.6822   9.7321   9.7680   9.7709   9.8009   9.9278   9.9438   9.9679
    12.5206  12.5861  12.7830  12.8161  12.8298  12.9549  13.3574  13.3642
    13.3872  13.4946  13.6266  13.6568  13.6735  13.8262  13.8631  13.8814
    13.9008  13.9085  13.9942  14.0478  14.1059  14.1921  14.2159  14.2899
    14.7266  14.7272  14.8806  15.0159  15.2731  15.3758  15.5807  16.0254
    16.0266  16.0778  16.0791  16.5268  16.7630  16.8762  16.8915  17.0220

          k = 0.2500 0.3750 0.1236 ( 27243 PWs)   bands (ev):

   -45.9843 -45.9839 -45.9836 -45.9835 -45.9832 -45.9831 -45.9827 -45.9823
   -22.4306 -22.4292 -22.4282 -22.4271 -22.3854 -22.3846 -22.3838 -22.3830
   -22.3698 -22.3685 -22.3671 -22.3661 -22.3614 -22.3591 -22.3588 -22.3570
   -22.3402 -22.3384 -22.3381 -22.3364 -22.3308 -22.3299 -22.3289 -22.3281
   -14.4849 -14.4403 -14.4074 -14.3953 -14.3747 -14.3644 -14.3395 -14.3118
    -6.6742  -6.6467  -6.6083  -6.5547  -6.4894  -6.3447  -6.1647  -5.9620
    -5.9094  -5.8834  -5.8804  -5.8802  -5.8551  -5.8362  -5.8202  -5.8145
    -5.8113  -5.7837  -5.7575  -5.7528  -5.7327  -5.7312  -5.6960  -5.6787
    -0.2544  -0.1443   0.0012   0.0752   0.1096   0.1429   0.2147   0.2252
     0.2778   0.2957   0.2969   0.3239   0.3257   0.3602   0.3887   0.3954
     0.4270   0.4449   0.5307   0.5549   0.5914   0.6039   0.6062   0.6107
     6.0123   6.0519   6.1123   6.1619   6.2380   6.3689   6.5097   6.5140
     6.5624   6.6563   6.7118   6.7436   6.8218   6.8409   6.8737   6.9180
     7.1566   7.1868   7.2188   7.3567   7.3763   7.4191   7.4254   7.4595
     7.4845   7.5300   7.5502   7.5901   7.6387   7.6637   7.6778   7.7270
     7.7302   7.7404   7.7941   7.8207   7.8831   7.9316   7.9735   8.0542
     8.2382   8.3755   8.3835   8.4290   8.4570   8.5985   8.6810   8.8289
     8.9321   8.9466   8.9920   9.0495   9.0775   9.1380   9.1764   9.2634
     9.2648   9.3278   9.3541   9.3662   9.3686   9.5047   9.5118   9.5528
     9.6496   9.7075   9.7201   9.7833   9.7935   9.9227   9.9237   9.9519
    12.5735  12.6408  12.8074  12.8441  12.8635  12.9494  13.3668  13.3957
    13.3966  13.4893  13.6375  13.6749  13.6811  13.8115  13.8185  13.8518
    13.8597  13.8901  13.9493  14.0083  14.0953  14.1590  14.1796  14.2575
    14.8230  14.8295  14.9898  15.1361  15.2746  15.3843  15.5788  16.0470
    16.0762  16.0786  16.1424  16.5362  16.8029  16.8197  16.9089  17.0679

          k = 0.2500 0.3750 0.2473 ( 27243 PWs)   bands (ev):

   -45.9842 -45.9838 -45.9836 -45.9835 -45.9832 -45.9831 -45.9828 -45.9824
   -22.4253 -22.4240 -22.4230 -22.4219 -22.3908 -22.3898 -22.3891 -22.3882
   -22.3695 -22.3682 -22.3674 -22.3664 -22.3611 -22.3591 -22.3589 -22.3572
   -22.3400 -22.3383 -22.3381 -22.3367 -22.3306 -22.3297 -22.3291 -22.3283
   -14.4746 -14.4315 -14.4060 -14.3995 -14.3735 -14.3674 -14.3476 -14.3192
    -6.6294  -6.5950  -6.5818  -6.5405  -6.4359  -6.3700  -6.2275  -6.0435
    -5.9202  -5.8956  -5.8836  -5.8709  -5.8497  -5.8494  -5.8316  -5.7986
    -5.7972  -5.7897  -5.7551  -5.7519  -5.7422  -5.7307  -5.7060  -5.6924
    -0.2028  -0.1462   0.0419   0.0873   0.1515   0.1632   0.1913   0.2305
     0.2356   0.2377   0.2664   0.2713   0.2877   0.2958   0.3382   0.3485
     0.3754   0.4718   0.5941   0.5960   0.6039   0.6459   0.6536   0.6559
     6.1137   6.1507   6.2311   6.2320   6.3110   6.3456   6.5675   6.5899
     6.6140   6.6239   6.7429   6.7981   6.8326   6.8446   6.9340   6.9754
     7.0658   7.1168   7.1931   7.2991   7.3797   7.3973   7.4382   7.5283
     7.5334   7.5381   7.5456   7.5542   7.5708   7.6587   7.6914   7.7142
     7.7210   7.7277   7.7623   7.8239   7.8253   7.8551   7.9543   7.9840
     8.1669   8.2119   8.2427   8.3636   8.3643   8.5412   8.6083   8.7349
     9.0565   9.0849   9.0960   9.1061   9.1199   9.1682   9.2158   9.2570
     9.2906   9.2979   9.3396   9.3720   9.4178   9.4622   9.5232   9.5237
     9.5807   9.6344   9.6553   9.7533   9.7666   9.8601   9.9095   9.9159
    12.7112  12.7917  12.8579  12.9184  12.9336  12.9949  13.3899  13.4287
    13.4724  13.4862  13.6674  13.6683  13.7051  13.7134  13.7235  13.7279
    13.7819  13.8385  13.9014  13.9149  14.0547  14.0710  14.0908  14.1715
    15.0583  15.0719  15.2740  15.2778  15.4374  15.4614  15.5691  16.0717
    16.1262  16.2195  16.3297  16.5710  16.6526  16.9141  16.9186  17.1924

          k = 0.2500 0.3750 0.3709 ( 27253 PWs)   bands (ev):

   -45.9841 -45.9837 -45.9837 -45.9833 -45.9833 -45.9830 -45.9829 -45.9825
   -22.4175 -22.4162 -22.4153 -22.4142 -22.3987 -22.3977 -22.3969 -22.3960
   -22.3690 -22.3679 -22.3678 -22.3668 -22.3606 -22.3596 -22.3585 -22.3576
   -22.3396 -22.3387 -22.3378 -22.3370 -22.3302 -22.3294 -22.3294 -22.3286
   -14.4590 -14.4219 -14.4184 -14.3877 -14.3869 -14.3596 -14.3564 -14.3304
    -6.5631  -6.5505  -6.5281  -6.5157  -6.4189  -6.3536  -6.3176  -6.1447
    -5.9282  -5.9023  -5.8908  -5.8880  -5.8573  -5.8446  -5.8229  -5.7998
    -5.7831  -5.7822  -5.7558  -5.7527  -5.7483  -5.7298  -5.7181  -5.7128
    -0.1335  -0.0962   0.0547   0.0792   0.1108   0.1119   0.1668   0.1905
     0.2376   0.2525   0.2528   0.2546   0.2687   0.2783   0.2989   0.3197
     0.3247   0.5471   0.5530   0.6493   0.6499   0.6505   0.6789   0.6838
     6.1922   6.2259   6.2329   6.3145   6.3637   6.5219   6.5500   6.6955
     6.7375   6.7467   6.7668   6.8570   6.9001   6.9193   6.9506   6.9541
     7.0532   7.0860   7.1225   7.1879   7.3443   7.4243   7.4372   7.4439
     7.4541   7.4621   7.4680   7.5750   7.5938   7.6926   7.6999   7.7177
     7.7263   7.7341   7.7468   7.7770   7.7846   7.9152   7.9268   7.9429
     8.0042   8.0245   8.1290   8.1948   8.3352   8.4126   8.5494   8.6076
     9.1010   9.1762   9.1840   9.1874   9.1896   9.2253   9.2340   9.3221
     9.3527   9.3581   9.3800   9.3838   9.4891   9.5002   9.5030   9.5101
     9.5108   9.5128   9.5991   9.6648   9.7096   9.7459   9.8902   9.8944
    12.8293  12.9087  12.9885  13.0074  13.0710  13.1850  13.4177  13.4290
    13.4591  13.5009  13.5096  13.5399  13.6172  13.6200  13.7091  13.7557
    13.7579  13.7843  13.8114  13.9287  13.9527  13.9555  14.0234  14.0651
    15.2352  15.2789  15.3064  15.5397  15.6218  15.6677  15.9072  16.0287
    16.3039  16.3837  16.4406  16.6321  16.6585  16.7567  16.9186  17.0208

          k = 0.2500 0.3750-0.4946 ( 27262 PWs)   bands (ev):

   -45.9839 -45.9839 -45.9835 -45.9835 -45.9831 -45.9831 -45.9827 -45.9827
   -22.4081 -22.4081 -22.4070 -22.4070 -22.4061 -22.4061 -22.4051 -22.4051
   -22.3685 -22.3684 -22.3673 -22.3673 -22.3601 -22.3601 -22.3581 -22.3581
   -22.3392 -22.3392 -22.3374 -22.3374 -22.3299 -22.3298 -22.3290 -22.3290
   -14.4406 -14.4405 -14.4027 -14.4027 -14.3738 -14.3737 -14.3435 -14.3434
    -6.5298  -6.5297  -6.4878  -6.4877  -6.4189  -6.4188  -6.2525  -6.2524
    -5.9202  -5.9201  -5.8969  -5.8968  -5.8467  -5.8466  -5.8116  -5.8115
    -5.7764  -5.7763  -5.7568  -5.7567  -5.7347  -5.7345  -5.7269  -5.7268
    -0.0495  -0.0495  -0.0011  -0.0010   0.1099   0.1100   0.1872   0.1873
     0.2180   0.2181   0.2448   0.2448   0.2667   0.2668   0.2870   0.2871
     0.4507   0.4507   0.6172   0.6172   0.6774   0.6774   0.6815   0.6815
     6.2194   6.2196   6.2797   6.2798   6.4681   6.4682   6.7485   6.7485
     6.7759   6.7760   6.8293   6.8294   6.9289   6.9289   6.9433   6.9433
     7.1414   7.1415   7.2431   7.2432   7.2467   7.2468   7.2722   7.2723
     7.4445   7.4446   7.5237   7.5238   7.6201   7.6202   7.7199   7.7200
     7.7623   7.7624   7.7905   7.7905   7.8652   7.8652   7.8689   7.8689
     8.0095   8.0096   8.0651   8.0651   8.3351   8.3352   8.5387   8.5388
     9.1462   9.1462   9.2002   9.2002   9.2289   9.2290   9.3522   9.3523
     9.3537   9.3537   9.4353   9.4354   9.4878   9.4879   9.5306   9.5306
     9.5490   9.5490   9.5795   9.5796   9.6149   9.6149   9.8852   9.8853
    12.8759  12.8760  13.2202  13.2202  13.2484  13.2484  13.2795  13.2796
    13.4038  13.4039  13.4516  13.4517  13.6148  13.6148  13.7477  13.7477
    13.7713  13.7714  13.8428  13.8429  13.9184  13.9184  13.9998  13.9998
    15.2721  15.2721  15.4656  15.4656  15.8950  15.8950  16.0359  16.0360
    16.3747  16.3749  16.5932  16.5933  16.7170  16.7171  17.0265  17.0267

          k = 0.2500-0.5000 0.0000 ( 27244 PWs)   bands (ev):

   -45.9842 -45.9842 -45.9834 -45.9834 -45.9832 -45.9832 -45.9825 -45.9825
   -22.4318 -22.4318 -22.4294 -22.4294 -22.3831 -22.3831 -22.3816 -22.3816
   -22.3693 -22.3693 -22.3665 -22.3665 -22.3510 -22.3509 -22.3489 -22.3489
   -22.3483 -22.3483 -22.3466 -22.3466 -22.3304 -22.3304 -22.3284 -22.3284
   -14.4660 -14.4660 -14.3938 -14.3937 -14.3764 -14.3764 -14.3229 -14.3229
    -6.6477  -6.6477  -6.5849  -6.5849  -6.4530  -6.4530  -6.0351  -6.0351
    -5.8920  -5.8920  -5.8609  -5.8609  -5.8355  -5.8355  -5.8349  -5.8349
    -5.7929  -5.7929  -5.7682  -5.7682  -5.7269  -5.7269  -5.7033  -5.7033
    -0.1529  -0.1529  -0.0022  -0.0022   0.1700   0.1700   0.1917   0.1917
     0.2709   0.2709   0.3013   0.3013   0.3846   0.3846   0.4042   0.4042
     0.4886   0.4886   0.5356   0.5356   0.5460   0.5461   0.5516   0.5516
     5.9967   5.9967   6.0916   6.0916   6.3203   6.3203   6.5398   6.5398
     6.6752   6.6752   6.9259   6.9259   6.9292   6.9292   6.9635   6.9636
     7.0963   7.0964   7.1208   7.1209   7.1844   7.1844   7.4440   7.4440
     7.5260   7.5260   7.5487   7.5487   7.7002   7.7002   7.7154   7.7154
     7.7502   7.7502   7.8376   7.8376   7.8757   7.8757   8.0665   8.0665
     8.2907   8.2907   8.4412   8.4412   8.5380   8.5380   8.6592   8.6592
     8.9629   8.9629   8.9702   8.9703   9.0803   9.0803   9.1848   9.1848
     9.2376   9.2376   9.5325   9.5325   9.5948   9.5948   9.5956   9.5956
     9.6078   9.6078   9.6423   9.6423   9.7725   9.7725   9.9519   9.9519
    12.5571  12.5571  13.0638  13.0638  13.0851  13.0852  13.1062  13.1062
    13.2286  13.2286  13.6408  13.6408  13.7607  13.7607  13.8888  13.8888
    13.9566  13.9566  13.9615  13.9615  14.0971  14.0971  14.2408  14.2408
    14.7320  14.7320  14.9771  14.9772  15.4702  15.4702  15.7299  15.7299
    16.3969  16.3970  16.5159  16.5159  16.5312  16.5313  16.8843  16.8844

          k = 0.2500-0.5000 0.1236 ( 27240 PWs)   bands (ev):

   -45.9841 -45.9841 -45.9834 -45.9834 -45.9832 -45.9832 -45.9825 -45.9825
   -22.4299 -22.4299 -22.4276 -22.4276 -22.3850 -22.3850 -22.3834 -22.3834
   -22.3692 -22.3692 -22.3666 -22.3666 -22.3509 -22.3509 -22.3488 -22.3488
   -22.3484 -22.3484 -22.3467 -22.3467 -22.3304 -22.3304 -22.3285 -22.3285
   -14.4627 -14.4627 -14.3911 -14.3911 -14.3799 -14.3799 -14.3257 -14.3257
    -6.6345  -6.6345  -6.5667  -6.5666  -6.4520  -6.4520  -6.0627  -6.0627
    -5.8938  -5.8938  -5.8531  -5.8531  -5.8483  -5.8483  -5.8316  -5.8315
    -5.7950  -5.7950  -5.7681  -5.7681  -5.7284  -5.7284  -5.7053  -5.7053
    -0.1367  -0.1367  -0.0204  -0.0204   0.1744   0.1744   0.2398   0.2398
     0.2489   0.2489   0.2977   0.2977   0.3515   0.3515   0.3728   0.3728
     0.4020   0.4020   0.5802   0.5802   0.5840   0.5840   0.5950   0.5950
     6.0414   6.0414   6.1423   6.1423   6.3133   6.3133   6.5509   6.5509
     6.6958   6.6958   6.9174   6.9174   6.9206   6.9206   6.9400   6.9400
     7.1043   7.1043   7.1377   7.1378   7.2018   7.2019   7.4683   7.4683
     7.5227   7.5227   7.5356   7.5356   7.6748   7.6748   7.7013   7.7013
     7.7598   7.7598   7.8326   7.8326   7.8459   7.8459   8.0748   8.0748
     8.1995   8.1995   8.4055   8.4055   8.5148   8.5148   8.6598   8.6598
     8.9976   8.9976   9.0219   9.0219   9.0824   9.0824   9.1740   9.1740
     9.2655   9.2655   9.5096   9.5096   9.5388   9.5388   9.6000   9.6000
     9.6145   9.6145   9.6432   9.6433   9.7640   9.7640   9.9304   9.9304
    12.6112  12.6112  13.0796  13.0796  13.1165  13.1165  13.1244  13.1244
    13.2232  13.2232  13.6559  13.6559  13.7690  13.7690  13.8387  13.8387
    13.9113  13.9113  13.9519  13.9519  14.0562  14.0562  14.2081  14.2081
    14.8300  14.8300  15.0944  15.0944  15.4701  15.4701  15.7464  15.7464
    16.4414  16.4415  16.5376  16.5376  16.5702  16.5702  16.8852  16.8852

          k = 0.2500-0.5000 0.2473 ( 27256 PWs)   bands (ev):

   -45.9840 -45.9840 -45.9834 -45.9834 -45.9833 -45.9833 -45.9826 -45.9826
   -22.4247 -22.4247 -22.4225 -22.4225 -22.3903 -22.3903 -22.3886 -22.3886
   -22.3689 -22.3689 -22.3669 -22.3669 -22.3506 -22.3506 -22.3487 -22.3487
   -22.3485 -22.3485 -22.3470 -22.3470 -22.3301 -22.3301 -22.3287 -22.3287
   -14.4532 -14.4531 -14.3898 -14.3898 -14.3835 -14.3835 -14.3335 -14.3335
    -6.5981  -6.5981  -6.5140  -6.5140  -6.4532  -6.4532  -6.1337  -6.1336
    -5.9001  -5.9001  -5.8771  -5.8771  -5.8372  -5.8372  -5.8230  -5.8230
    -5.7979  -5.7978  -5.7710  -5.7710  -5.7322  -5.7322  -5.7118  -5.7118
    -0.0928  -0.0928  -0.0336  -0.0335   0.1853   0.1854   0.1866   0.1866
     0.2860   0.2860   0.2913   0.2914   0.2987   0.2987   0.3216   0.3216
     0.3412   0.3412   0.6294   0.6294   0.6369   0.6369   0.6381   0.6381
     6.1433   6.1433   6.2784   6.2785   6.2959   6.2959   6.6074   6.6074
     6.7649   6.7649   6.8707   6.8707   6.8914   6.8915   6.9177   6.9177
     7.1262   7.1262   7.1877   7.1878   7.2375   7.2375   7.4264   7.4264
     7.5327   7.5327   7.5364   7.5364   7.6040   7.6040   7.7093   7.7093
     7.7881   7.7881   7.7905   7.7905   7.8200   7.8200   8.0242   8.0243
     8.0751   8.0751   8.2507   8.2507   8.4574   8.4574   8.5795   8.5795
     9.0992   9.0992   9.1072   9.1072   9.1380   9.1380   9.2034   9.2034
     9.3183   9.3184   9.4630   9.4630   9.4641   9.4641   9.5682   9.5682
     9.6100   9.6100   9.6566   9.6567   9.7422   9.7422   9.8654   9.8654
    12.7602  12.7602  13.1152  13.1153  13.1627  13.1627  13.2071  13.2071
    13.2334  13.2334  13.6984  13.6984  13.6999  13.6999  13.7862  13.7862
    13.7931  13.7931  13.9111  13.9111  13.9570  13.9570  14.1208  14.1208
    15.0670  15.0670  15.4088  15.4089  15.4668  15.4668  15.8148  15.8149
    16.5391  16.5391  16.5658  16.5659  16.7378  16.7378  16.9099  16.9105

          k = 0.2500-0.5000 0.3709 ( 27250 PWs)   bands (ev):

   -45.9839 -45.9839 -45.9835 -45.9835 -45.9831 -45.9831 -45.9827 -45.9827
   -22.4168 -22.4168 -22.4147 -22.4147 -22.3982 -22.3982 -22.3964 -22.3964
   -22.3684 -22.3684 -22.3673 -22.3673 -22.3501 -22.3501 -22.3491 -22.3491
   -22.3482 -22.3482 -22.3473 -22.3473 -22.3298 -22.3298 -22.3290 -22.3290
   -14.4388 -14.4388 -14.4045 -14.4045 -14.3722 -14.3721 -14.3451 -14.3451
    -6.5482  -6.5482  -6.4665  -6.4665  -6.4332  -6.4332  -6.2294  -6.2294
    -5.9101  -5.9101  -5.9039  -5.9039  -5.8219  -5.8219  -5.8143  -5.8142
    -5.7958  -5.7958  -5.7786  -5.7786  -5.7351  -5.7351  -5.7221  -5.7221
    -0.0431  -0.0431   0.0054   0.0054   0.0970   0.0970   0.1878   0.1878
     0.2037   0.2037   0.2508   0.2508   0.2780   0.2780   0.2843   0.2844
     0.4529   0.4529   0.6132   0.6132   0.6791   0.6791   0.6792   0.6792
     6.2229   6.2229   6.2762   6.2762   6.4545   6.4545   6.7381   6.7381
     6.7615   6.7615   6.8633   6.8633   6.8972   6.8972   6.9567   6.9567
     7.1481   7.1481   7.2661   7.2661   7.2690   7.2690   7.2731   7.2731
     7.4493   7.4493   7.5173   7.5173   7.6317   7.6318   7.7245   7.7245
     7.7446   7.7446   7.8200   7.8200   7.8501   7.8501   7.8661   7.8661
     8.0251   8.0251   8.0304   8.0304   8.3979   8.3979   8.4489   8.4489
     9.1610   9.1610   9.1925   9.1925   9.2222   9.2222   9.3541   9.3541
     9.3601   9.3601   9.3803   9.3803   9.4149   9.4150   9.5626   9.5626
     9.6114   9.6114   9.6386   9.6386   9.7184   9.7184   9.7670   9.7670
    12.9671  12.9671  13.1566  13.1566  13.1801  13.1801  13.2685  13.2685
    13.3923  13.3923  13.4947  13.4947  13.6105  13.6105  13.7645  13.7645
    13.7701  13.7701  13.8318  13.8318  13.9006  13.9006  14.0056  14.0056
    15.2947  15.2947  15.4528  15.4528  15.8285  15.8285  15.9974  15.9974
    16.4740  16.4741  16.6417  16.6418  16.7527  16.7527  17.0207  17.0209

          k = 0.2500-0.5000-0.4946 ( 27252 PWs)   bands (ev):

   -45.9837 -45.9837 -45.9837 -45.9837 -45.9829 -45.9829 -45.9829 -45.9829
   -22.4076 -22.4076 -22.4075 -22.4075 -22.4056 -22.4056 -22.4056 -22.4056
   -22.3679 -22.3679 -22.3679 -22.3679 -22.3497 -22.3497 -22.3496 -22.3496
   -22.3478 -22.3478 -22.3477 -22.3477 -22.3294 -22.3294 -22.3294 -22.3294
   -14.4218 -14.4218 -14.4217 -14.4217 -14.3587 -14.3587 -14.3586 -14.3586
    -6.4996  -6.4996  -6.4995  -6.4995  -6.3342  -6.3342  -6.3341  -6.3340
    -5.9150  -5.9150  -5.9149  -5.9149  -5.8129  -5.8129  -5.8128  -5.8128
    -5.7883  -5.7883  -5.7882  -5.7881  -5.7320  -5.7320  -5.7318  -5.7318
     0.0148   0.0148   0.0149   0.0149   0.0901   0.0901   0.0901   0.0902
     0.2234   0.2234   0.2235   0.2235   0.2713   0.2714   0.2714   0.2714
     0.5500   0.5500   0.5500   0.5500   0.6942   0.6942   0.6943   0.6943
     6.2568   6.2568   6.2569   6.2569   6.6211   6.6211   6.6212   6.6212
     6.8286   6.8286   6.8286   6.8286   7.0815   7.0815   7.0816   7.0816
     7.0977   7.0977   7.0977   7.0977   7.3084   7.3084   7.3084   7.3084
     7.3937   7.3937   7.3937   7.3938   7.7296   7.7297   7.7297   7.7297
     7.7375   7.7375   7.7375   7.7376   7.8804   7.8804   7.8805   7.8805
     7.9396   7.9396   7.9397   7.9397   8.3799   8.3799   8.3800   8.3800
     9.2193   9.2193   9.2193   9.2193   9.2865   9.2865   9.2865   9.2865
     9.3826   9.3826   9.3827   9.3827   9.5344   9.5344   9.5344   9.5344
     9.5921   9.5921   9.5921   9.5921   9.7113   9.7113   9.7115   9.7115
    13.1302  13.1303  13.1303  13.1303  13.2720  13.2720  13.2721  13.2721
    13.4253  13.4253  13.4254  13.4254  13.5778  13.5778  13.5778  13.5778
    13.8474  13.8474  13.8474  13.8475  13.8968  13.8968  13.8968  13.8968
    15.4101  15.4101  15.4101  15.4101  16.2314  16.2315  16.2316  16.2316
    16.3087  16.3088  16.3089  16.3089  16.9863  16.9864  16.9865  16.9865

          k = 0.3750 0.3750 0.0000 ( 27208 PWs)   bands (ev):

   -45.9842 -45.9838 -45.9838 -45.9834 -45.9832 -45.9828 -45.9828 -45.9824
   -22.4319 -22.4306 -22.4306 -22.4294 -22.3832 -22.3824 -22.3824 -22.3815
   -22.3610 -22.3610 -22.3601 -22.3594 -22.3583 -22.3583 -22.3575 -22.3571
   -22.3403 -22.3395 -22.3389 -22.3389 -22.3378 -22.3374 -22.3367 -22.3367
   -14.4708 -14.4284 -14.4283 -14.3926 -14.3791 -14.3494 -14.3494 -14.3212
    -6.6372  -6.6372  -6.6103  -6.5363  -6.4735  -6.2499  -6.2499  -6.0283
    -5.8787  -5.8632  -5.8632  -5.8614  -5.8614  -5.8455  -5.8423  -5.8177
    -5.8175  -5.7772  -5.7660  -5.7535  -5.7535  -5.7364  -5.7364  -5.6872
    -0.2176  -0.0301   0.0049   0.0049   0.1299   0.1629   0.2076   0.2077
     0.2339   0.2632   0.2869   0.2869   0.3791   0.4092   0.4381   0.4381
     0.4494   0.4494   0.4787   0.5391   0.5402   0.5472   0.5747   0.5747
     6.0232   6.0627   6.0627   6.1016   6.3890   6.5965   6.5965   6.6047
     6.6048   6.7029   6.8052   6.8827   6.8852   6.8852   6.8991   6.9491
     7.0771   7.0861   7.2739   7.2739   7.3253   7.3347   7.3789   7.3789
     7.5129   7.5549   7.5549   7.5788   7.6277   7.6277   7.7021   7.7021
     7.7348   7.7567   7.7792   7.8138   7.8545   8.0370   8.0821   8.0821
     8.1006   8.1006   8.3303   8.4117   8.4117   8.4144   8.4495   8.5996
     8.9885   8.9885   9.0669   9.0807   9.1402   9.2378   9.3174   9.3242
     9.3433   9.3433   9.3590   9.3590   9.3938   9.3938   9.5929   9.6258
     9.6365   9.6365   9.7204   9.7249   9.7962   9.7962   9.8555   9.8738
    12.6716  12.7919  12.7919  12.8755  12.9921  13.1554  13.2816  13.3778
    13.3778  13.4554  13.4554  13.4764  13.6250  13.6250  13.7263  13.8939
    13.9338  13.9542  13.9693  13.9693  14.0876  14.0876  14.1660  14.1892
    14.8357  14.8866  14.8866  15.0121  15.6124  15.6657  16.0269  16.0269
    16.3051  16.3051  16.3231  16.3901  16.8205  16.9626  16.9664  16.9783

          k = 0.3750 0.3750 0.1236 ( 27225 PWs)   bands (ev):

   -45.9842 -45.9837 -45.9837 -45.9833 -45.9833 -45.9829 -45.9829 -45.9824
   -22.4300 -22.4287 -22.4287 -22.4276 -22.3851 -22.3842 -22.3842 -22.3834
   -22.3609 -22.3609 -22.3600 -22.3593 -22.3584 -22.3584 -22.3576 -22.3572
   -22.3402 -22.3394 -22.3388 -22.3388 -22.3379 -22.3375 -22.3368 -22.3368
   -14.4673 -14.4254 -14.4254 -14.3899 -14.3826 -14.3525 -14.3524 -14.3240
    -6.6208  -6.6208  -6.5981  -6.5184  -6.4703  -6.2593  -6.2593  -6.0500
    -5.8844  -5.8691  -5.8691  -5.8603  -5.8603  -5.8413  -5.8395  -5.8295
    -5.8129  -5.7790  -5.7690  -5.7565  -5.7565  -5.7374  -5.7374  -5.6924
    -0.2008  -0.0496   0.0164   0.0165   0.1352   0.1845   0.1845   0.2147
     0.2163   0.2584   0.2744   0.2744   0.3408   0.3669   0.3809   0.3915
     0.3916   0.4756   0.4756   0.5809   0.5901   0.6037   0.6211   0.6211
     6.0725   6.1105   6.1105   6.1526   6.3793   6.5889   6.5889   6.6025
     6.6025   6.6952   6.8171   6.8827   6.8978   6.9052   6.9052   6.9529
     7.0514   7.1074   7.2467   7.2467   7.3397   7.3666   7.3981   7.3981
     7.5012   7.5012   7.5069   7.5883   7.6821   7.6821   7.6992   7.7068
     7.7068   7.7346   7.7874   7.8051   7.8320   8.0111   8.0111   8.0473
     8.0889   8.0889   8.2720   8.3599   8.4096   8.4096   8.4236   8.5700
     9.0405   9.0405   9.0686   9.1183   9.1758   9.2505   9.2992   9.2992
     9.3289   9.3289   9.3314   9.3465   9.4413   9.4413   9.5592   9.6216
     9.6216   9.6225   9.7003   9.7066   9.7854   9.7854   9.8494   9.8660
    12.7199  12.8385  12.8385  12.9013  13.0017  13.1491  13.3161  13.3925
    13.3925  13.4638  13.4638  13.4950  13.6176  13.6176  13.7354  13.8437
    13.8866  13.9228  13.9229  13.9442  14.0489  14.0489  14.1279  14.1527
    14.9502  14.9972  14.9972  15.1318  15.6156  15.6639  16.0276  16.0276
    16.3113  16.3113  16.3794  16.4287  16.8327  16.9196  16.9759  17.0048

          k = 0.3750 0.3750 0.2473 ( 27226 PWs)   bands (ev):

   -45.9840 -45.9836 -45.9836 -45.9834 -45.9832 -45.9830 -45.9830 -45.9826
   -22.4248 -22.4236 -22.4236 -22.4224 -22.3904 -22.3895 -22.3895 -22.3886
   -22.3606 -22.3606 -22.3597 -22.3591 -22.3587 -22.3587 -22.3579 -22.3574
   -22.3399 -22.3392 -22.3386 -22.3386 -22.3382 -22.3377 -22.3370 -22.3370
   -14.4576 -14.4170 -14.4170 -14.3928 -14.3823 -14.3612 -14.3611 -14.3318
    -6.5741  -6.5741  -6.5653  -6.4669  -6.4644  -6.2907  -6.2907  -6.1098
    -5.8984  -5.8790  -5.8790  -5.8597  -5.8590  -5.8590  -5.8314  -5.8310
    -5.7994  -5.7845  -5.7775  -5.7629  -5.7629  -5.7420  -5.7420  -5.7072
    -0.1528  -0.0657   0.0492   0.0493   0.1486   0.1487   0.1503   0.1663
     0.2380   0.2380   0.2446   0.2460   0.2820   0.3020   0.3038   0.3038
     0.3238   0.5522   0.5522   0.6407   0.6486   0.6557   0.6762   0.6762
     6.1901   6.2271   6.2271   6.2901   6.3571   6.5451   6.5451   6.6462
     6.6462   6.7097   6.8690   6.8829   6.8942   6.9524   6.9601   6.9601
     6.9709   7.1689   7.1689   7.1774   7.3555   7.4495   7.4495   7.4498
     7.4498   7.4792   7.4887   7.5722   7.5911   7.7142   7.7142   7.7242
     7.7242   7.7350   7.7777   7.7845   7.8122   7.8896   7.8896   8.0393
     8.0563   8.0563   8.1475   8.1716   8.3169   8.3169   8.3611   8.4649
     9.0983   9.1773   9.1773   9.2195   9.2606   9.2606   9.2697   9.2835
     9.2934   9.2934   9.3703   9.3977   9.4895   9.4895   9.5063   9.5856
     9.5856   9.6100   9.6367   9.6557   9.7489   9.7489   9.8315   9.8456
    12.8497  12.9679  12.9679  12.9813  13.0329  13.1304  13.4117  13.4361
    13.4361  13.4900  13.4900  13.5502  13.5950  13.5950  13.7053  13.7529
    13.7615  13.7952  13.7952  13.9141  13.9439  13.9439  14.0268  14.0532
    15.2551  15.2858  15.2858  15.4563  15.6238  15.6593  16.0240  16.0240
    16.3365  16.3366  16.5423  16.5479  16.7457  16.8628  16.9684  17.1264

          k = 0.3750 0.3750 0.3709 ( 27256 PWs)   bands (ev):

   -45.9839 -45.9835 -45.9835 -45.9835 -45.9831 -45.9831 -45.9831 -45.9827
   -22.4170 -22.4158 -22.4158 -22.4147 -22.3983 -22.3973 -22.3973 -22.3964
   -22.3602 -22.3602 -22.3593 -22.3591 -22.3591 -22.3587 -22.3583 -22.3578
   -22.3395 -22.3389 -22.3386 -22.3382 -22.3382 -22.3381 -22.3374 -22.3374
   -14.4429 -14.4078 -14.4043 -14.4043 -14.3741 -14.3741 -14.3708 -14.3435
    -6.5224  -6.5044  -6.5044  -6.4658  -6.3885  -6.3477  -6.3477  -6.1958
    -5.9119  -5.8931  -5.8808  -5.8808  -5.8627  -5.8627  -5.8192  -5.8180
    -5.7933  -5.7900  -5.7788  -5.7658  -5.7658  -5.7507  -5.7507  -5.7289
    -0.0805  -0.0454   0.0921   0.0979   0.0980   0.1186   0.1337   0.1337
     0.1726   0.1865   0.1865   0.2236   0.2282   0.2282   0.2419   0.2530
     0.4448   0.6217   0.6278   0.6278   0.6984   0.6985   0.6997   0.7032
     6.2867   6.3361   6.3400   6.3400   6.4700   6.4843   6.4843   6.7732
     6.7732   6.8098   6.8190   6.8837   6.8898   6.9924   6.9947   7.0545
     7.0545   7.0628   7.0628   7.2604   7.3747   7.3747   7.3835   7.4000
     7.4585   7.5154   7.5154   7.5355   7.6411   7.6642   7.6642   7.7309
     7.7380   7.7599   7.7600   7.7626   7.8182   7.8182   7.8558   7.9062
     7.9768   8.0196   8.0196   8.0221   8.1503   8.1503   8.2946   8.3202
     9.2158   9.2505   9.2505   9.2513   9.2513   9.3009   9.3202   9.3894
     9.3894   9.3904   9.4286   9.4478   9.4857   9.5106   9.5106   9.5258
     9.5499   9.5499   9.5762   9.5828   9.6770   9.6770   9.8105   9.8212
    12.9938  13.1007  13.1177  13.1231  13.1549  13.1549  13.4960  13.4960
    13.5112  13.5419  13.5419  13.5472  13.5472  13.5508  13.5556  13.6289
    13.6289  13.6391  13.8013  13.8016  13.8016  13.8514  13.8930  13.9275
    15.6340  15.6376  15.6376  15.6524  15.6641  15.9022  15.9966  15.9966
    16.4110  16.4110  16.4624  16.7236  16.8241  16.8981  16.8982  16.9532

          k = 0.3750 0.3750-0.4946 ( 27274 PWs)   bands (ev):

   -45.9837 -45.9837 -45.9833 -45.9833 -45.9833 -45.9833 -45.9829 -45.9829
   -22.4077 -22.4077 -22.4066 -22.4066 -22.4066 -22.4066 -22.4056 -22.4055
   -22.3597 -22.3596 -22.3596 -22.3596 -22.3588 -22.3588 -22.3583 -22.3582
   -22.3390 -22.3390 -22.3385 -22.3385 -22.3378 -22.3378 -22.3378 -22.3378
   -14.4255 -14.4254 -14.3893 -14.3893 -14.3892 -14.3892 -14.3572 -14.3572
    -6.4852  -6.4851  -6.4239  -6.4239  -6.4237  -6.4237  -6.2937  -6.2936
    -5.9127  -5.9126  -5.8727  -5.8727  -5.8726  -5.8726  -5.8049  -5.8048
    -5.8047  -5.8046  -5.7606  -5.7606  -5.7605  -5.7605  -5.7541  -5.7540
     0.0053   0.0054   0.0174   0.0175   0.1426   0.1427   0.1427   0.1427
     0.1637   0.1638   0.1638   0.1638   0.1984   0.1984   0.2316   0.2317
     0.5512   0.5512   0.6808   0.6808   0.6808   0.6809   0.7193   0.7193
     6.3206   6.3207   6.4177   6.4177   6.4178   6.4178   6.6469   6.6470
     6.8861   6.8861   6.9353   6.9353   6.9353   6.9353   6.9632   6.9633
     7.1889   7.1889   7.2135   7.2135   7.2136   7.2136   7.3837   7.3838
     7.4206   7.4207   7.5830   7.5830   7.5831   7.5831   7.7466   7.7466
     7.7488   7.7489   7.7968   7.7968   7.7968   7.7968   7.8265   7.8266
     7.9237   7.9238   8.0327   8.0327   8.0327   8.0327   8.2621   8.2622
     9.2562   9.2562   9.2562   9.2562   9.3335   9.3336   9.3757   9.3757
     9.4762   9.4762   9.5021   9.5021   9.5023   9.5024   9.5058   9.5058
     9.5059   9.5059   9.5709   9.5709   9.5709   9.5709   9.8055   9.8056
    13.0602  13.0603  13.3025  13.3026  13.3277  13.3278  13.3676  13.3676
    13.3677  13.3677  13.5469  13.5469  13.5470  13.5470  13.6584  13.6584
    13.6584  13.6584  13.7115  13.7116  13.7569  13.7569  13.8518  13.8519
    15.6438  15.6439  15.8942  15.8942  15.8942  15.8945  16.0886  16.0887
    16.3765  16.3767  16.6032  16.6033  16.6033  16.9304  16.9305  16.9596

          k = 0.3750-0.5000 0.0000 ( 27202 PWs)   bands (ev):

   -45.9840 -45.9840 -45.9836 -45.9836 -45.9830 -45.9830 -45.9826 -45.9826
   -22.4312 -22.4312 -22.4300 -22.4300 -22.3828 -22.3828 -22.3819 -22.3819
   -22.3604 -22.3604 -22.3578 -22.3578 -22.3505 -22.3505 -22.3493 -22.3493
   -22.3480 -22.3480 -22.3470 -22.3470 -22.3394 -22.3394 -22.3372 -22.3372
   -14.4497 -14.4497 -14.4106 -14.4105 -14.3643 -14.3643 -14.3353 -14.3353
    -6.6162  -6.6162  -6.5817  -6.5817  -6.3656  -6.3656  -6.1424  -6.1423
    -5.8646  -5.8646  -5.8541  -5.8541  -5.8399  -5.8399  -5.8349  -5.8349
    -5.8126  -5.8125  -5.7763  -5.7763  -5.7486  -5.7486  -5.7103  -5.7102
    -0.1203  -0.1203   0.0536   0.0536   0.0871   0.0871   0.2512   0.2512
     0.2663   0.2663   0.3067   0.3067   0.3095   0.3095   0.4138   0.4138
     0.4812   0.4812   0.5053   0.5053   0.5485   0.5485   0.5667   0.5667
     6.0512   6.0512   6.0895   6.0895   6.5140   6.5140   6.6902   6.6902
     6.6964   6.6964   6.8576   6.8577   6.9413   6.9413   7.0654   7.0654
     7.1260   7.1261   7.1606   7.1606   7.2481   7.2481   7.3451   7.3451
     7.3802   7.3802   7.6101   7.6101   7.7010   7.7010   7.7254   7.7254
     7.7485   7.7485   7.8005   7.8006   7.9298   7.9298   7.9470   7.9470
     8.1941   8.1941   8.2492   8.2492   8.3673   8.3673   8.4508   8.4508
     9.0545   9.0545   9.0741   9.0741   9.2247   9.2247   9.2699   9.2699
     9.3424   9.3424   9.4658   9.4658   9.4780   9.4780   9.5764   9.5764
     9.5842   9.5842   9.6947   9.6947   9.7763   9.7763   9.8037   9.8037
    12.7541  12.7541  13.0528  13.0528  13.0997  13.0997  13.2135  13.2135
    13.3903  13.3903  13.4052  13.4052  13.5734  13.5734  13.7856  13.7856
    13.9359  13.9359  13.9935  13.9935  14.0619  14.0619  14.1346  14.1346
    14.8771  14.8771  14.9764  14.9765  15.8808  15.8808  16.0053  16.0053
    16.4758  16.4758  16.6320  16.6320  16.6496  16.6496  16.8460  16.8461

          k = 0.3750-0.5000 0.1236 ( 27206 PWs)   bands (ev):

   -45.9839 -45.9839 -45.9835 -45.9835 -45.9831 -45.9831 -45.9827 -45.9827
   -22.4294 -22.4294 -22.4282 -22.4282 -22.3846 -22.3846 -22.3838 -22.3838
   -22.3603 -22.3603 -22.3579 -22.3579 -22.3504 -22.3504 -22.3492 -22.3492
   -22.3481 -22.3481 -22.3471 -22.3471 -22.3393 -22.3393 -22.3372 -22.3372
   -14.4465 -14.4465 -14.4077 -14.4077 -14.3676 -14.3676 -14.3383 -14.3382
    -6.6018  -6.6018  -6.5646  -6.5646  -6.3670  -6.3670  -6.1559  -6.1559
    -5.8664  -5.8664  -5.8562  -5.8562  -5.8499  -5.8499  -5.8323  -5.8323
    -5.8132  -5.8132  -5.7783  -5.7783  -5.7512  -5.7512  -5.7140  -5.7140
    -0.1061  -0.1061   0.0620   0.0620   0.0647   0.0647   0.2361   0.2361
     0.2585   0.2585   0.2748   0.2748   0.3558   0.3558   0.3634   0.3634
     0.3907   0.3908   0.5452   0.5452   0.6126   0.6126   0.6164   0.6164
     6.1004   6.1004   6.1388   6.1388   6.4990   6.4990   6.6818   6.6818
     6.7053   6.7053   6.8310   6.8310   6.9553   6.9553   7.0550   7.0550
     7.1452   7.1452   7.1882   7.1882   7.2370   7.2371   7.3681   7.3681
     7.3694   7.3694   7.6226   7.6227   7.6262   7.6262   7.7265   7.7265
     7.7543   7.7543   7.8536   7.8536   7.9102   7.9102   7.9185   7.9185
     8.1347   8.1347   8.2266   8.2266   8.3305   8.3305   8.4290   8.4290
     9.1058   9.1058   9.1117   9.1117   9.2080   9.2081   9.2622   9.2622
     9.3751   9.3751   9.4359   9.4360   9.4661   9.4661   9.5852   9.5852
     9.5856   9.5856   9.6780   9.6780   9.7652   9.7652   9.7929   9.7929
    12.8005  12.8005  13.0917  13.0917  13.1200  13.1200  13.2226  13.2226
    13.3833  13.3833  13.4231  13.4231  13.5824  13.5824  13.7766  13.7766
    13.8877  13.8877  13.9496  13.9496  14.0194  14.0194  14.0968  14.0968
    14.9902  14.9902  15.0942  15.0942  15.8835  15.8835  16.0069  16.0069
    16.4808  16.4808  16.6488  16.6488  16.6807  16.6808  16.8744  16.8744

          k = 0.3750-0.5000 0.2473 ( 27240 PWs)   bands (ev):

   -45.9838 -45.9838 -45.9834 -45.9834 -45.9832 -45.9832 -45.9828 -45.9828
   -22.4242 -22.4242 -22.4230 -22.4230 -22.3899 -22.3899 -22.3890 -22.3890
   -22.3600 -22.3600 -22.3582 -22.3582 -22.3501 -22.3501 -22.3490 -22.3490
   -22.3483 -22.3483 -22.3474 -22.3474 -22.3391 -22.3391 -22.3375 -22.3375
   -14.4374 -14.4374 -14.3997 -14.3997 -14.3770 -14.3770 -14.3465 -14.3465
    -6.5617  -6.5617  -6.5155  -6.5155  -6.3755  -6.3754  -6.1982  -6.1981
    -5.8743  -5.8743  -5.8727  -5.8727  -5.8578  -5.8578  -5.8275  -5.8274
    -5.8111  -5.8111  -5.7815  -5.7815  -5.7594  -5.7594  -5.7251  -5.7251
    -0.0658  -0.0658   0.0370   0.0370   0.0858   0.0858   0.1926   0.1926
     0.2237   0.2237   0.2361   0.2361   0.2722   0.2723   0.2845   0.2845
     0.4522   0.4522   0.6185   0.6186   0.6708   0.6708   0.6777   0.6777
     6.2189   6.2189   6.2656   6.2656   6.4605   6.4605   6.6966   6.6966
     6.7538   6.7538   6.7561   6.7561   6.9820   6.9820   7.0277   7.0277
     7.1878   7.1878   7.2233   7.2233   7.2638   7.2638   7.3276   7.3276
     7.4465   7.4465   7.5147   7.5147   7.6376   7.6377   7.7315   7.7315
     7.7732   7.7732   7.8555   7.8555   7.8602   7.8602   7.8912   7.8912
     8.0127   8.0127   8.1679   8.1679   8.1841   8.1841   8.3214   8.3214
     9.1827   9.1828   9.2195   9.2195   9.2456   9.2456   9.2705   9.2705
     9.3993   9.3993   9.4307   9.4307   9.4441   9.4441   9.5829   9.5829
     9.5923   9.5924   9.6341   9.6341   9.7362   9.7362   9.7593   9.7593
    12.9285  12.9285  13.1815  13.1815  13.1997  13.1997  13.2508  13.2509
    13.3626  13.3626  13.4769  13.4769  13.6087  13.6087  13.7494  13.7495
    13.7553  13.7553  13.8272  13.8273  13.9043  13.9043  13.9937  13.9937
    15.2876  15.2876  15.4109  15.4109  15.8888  15.8888  16.0166  16.0166
    16.4885  16.4885  16.6468  16.6469  16.8218  16.8218  16.9239  16.9659

          k = 0.3750-0.5000 0.3709 ( 27242 PWs)   bands (ev):

   -45.9837 -45.9837 -45.9833 -45.9833 -45.9833 -45.9833 -45.9829 -45.9829
   -22.4164 -22.4164 -22.4152 -22.4152 -22.3978 -22.3978 -22.3969 -22.3969
   -22.3596 -22.3596 -22.3586 -22.3586 -22.3497 -22.3497 -22.3487 -22.3487
   -22.3486 -22.3486 -22.3477 -22.3477 -22.3387 -22.3387 -22.3379 -22.3379
   -14.4237 -14.4237 -14.3910 -14.3910 -14.3876 -14.3876 -14.3589 -14.3588
    -6.5049  -6.5049  -6.4416  -6.4416  -6.4001  -6.4001  -6.2677  -6.2677
    -5.8926  -5.8926  -5.8877  -5.8877  -5.8524  -5.8524  -5.8295  -5.8295
    -5.8019  -5.8019  -5.7767  -5.7767  -5.7724  -5.7724  -5.7419  -5.7419
    -0.0064  -0.0064   0.0398   0.0398   0.1212   0.1212   0.1272   0.1273
     0.1688   0.1689   0.1909   0.1909   0.2030   0.2030   0.2214   0.2214
     0.5536   0.5536   0.6771   0.6771   0.6827   0.6827   0.7169   0.7169
     6.3221   6.3221   6.4114   6.4114   6.4149   6.4149   6.6510   6.6510
     6.8044   6.8044   6.8862   6.8862   6.9923   6.9923   7.0201   7.0201
     7.1987   7.1987   7.2387   7.2388   7.2464   7.2464   7.3673   7.3673
     7.4027   7.4027   7.5722   7.5723   7.5977   7.5977   7.7421   7.7421
     7.7885   7.7885   7.8100   7.8100   7.8100   7.8100   7.8756   7.8756
     7.8982   7.8982   7.9633   7.9633   8.0984   8.0984   8.1497   8.1497
     9.2594   9.2594   9.3008   9.3008   9.3102   9.3102   9.3761   9.3761
     9.4128   9.4128   9.4259   9.4259   9.4754   9.4754   9.5656   9.5656
     9.5727   9.5727   9.5796   9.5796   9.7018   9.7018   9.7096   9.7096
    13.1093  13.1093  13.2674  13.2674  13.3195  13.3195  13.3283  13.3283
    13.3565  13.3565  13.5649  13.5649  13.5689  13.5689  13.6503  13.6503
    13.6536  13.6536  13.6921  13.6921  13.7571  13.7571  13.8536  13.8536
    15.6514  15.6514  15.8381  15.8381  15.8882  15.8882  16.0671  16.0671
    16.4645  16.4645  16.6416  16.6417  16.6483  16.6483  16.8663  16.8663

          k = 0.3750-0.5000-0.4946 ( 27248 PWs)   bands (ev):

   -45.9835 -45.9835 -45.9835 -45.9835 -45.9831 -45.9831 -45.9831 -45.9831
   -22.4071 -22.4071 -22.4071 -22.4071 -22.4061 -22.4061 -22.4061 -22.4061
   -22.3591 -22.3591 -22.3591 -22.3591 -22.3492 -22.3492 -22.3492 -22.3492
   -22.3482 -22.3482 -22.3482 -22.3482 -22.3383 -22.3383 -22.3383 -22.3383
   -14.4075 -14.4075 -14.4074 -14.4074 -14.3733 -14.3733 -14.3733 -14.3732
    -6.4459  -6.4459  -6.4458  -6.4458  -6.3541  -6.3541  -6.3540  -6.3540
    -5.8974  -5.8974  -5.8973  -5.8973  -5.8408  -5.8408  -5.8407  -5.8407
    -5.7878  -5.7878  -5.7876  -5.7876  -5.7611  -5.7611  -5.7609  -5.7609
     0.0582   0.0582   0.0582   0.0583   0.0875   0.0875   0.0875   0.0875
     0.1629   0.1629   0.1629   0.1629   0.1886   0.1886   0.1887   0.1887
     0.6346   0.6347   0.6347   0.6347   0.7185   0.7185   0.7186   0.7186
     6.3738   6.3738   6.3739   6.3739   6.5363   6.5363   6.5363   6.5363
     6.9361   6.9361   6.9362   6.9362   7.0867   7.0867   7.0868   7.0868
     7.1098   7.1098   7.1099   7.1099   7.3044   7.3044   7.3044   7.3045
     7.4868   7.4868   7.4868   7.4868   7.7262   7.7262   7.7263   7.7263
     7.7479   7.7479   7.7480   7.7480   7.8282   7.8282   7.8282   7.8282
     7.8652   7.8652   7.8652   7.8653   8.0628   8.0628   8.0629   8.0629
     9.3273   9.3273   9.3273   9.3274   9.3504   9.3504   9.3504   9.3504
     9.4850   9.4850   9.4851   9.4851   9.5008   9.5008   9.5008   9.5008
     9.5441   9.5441   9.5442   9.5442   9.6836   9.6837   9.6838   9.6838
    13.2684  13.2684  13.2685  13.2685  13.3735  13.3735  13.3735  13.3735
    13.4691  13.4691  13.4692  13.4692  13.5369  13.5369  13.5370  13.5370
    13.6673  13.6673  13.6673  13.6673  13.7208  13.7208  13.7208  13.7208
    15.8532  15.8532  15.8532  15.8532  16.2559  16.2559  16.2560  16.2560
    16.2974  16.2974  16.2975  16.2975  16.6810  16.6810  16.6810  16.6810

          k =-0.5000-0.5000 0.0000 ( 27260 PWs)   bands (ev):

   -45.9838 -45.9838 -45.9838 -45.9838 -45.9829 -45.9829 -45.9829 -45.9829
   -22.4306 -22.4306 -22.4306 -22.4306 -22.3824 -22.3824 -22.3824 -22.3824
   -22.3503 -22.3503 -22.3503 -22.3503 -22.3495 -22.3495 -22.3495 -22.3495
   -22.3477 -22.3477 -22.3477 -22.3477 -22.3473 -22.3473 -22.3473 -22.3473
   -14.4302 -14.4302 -14.4302 -14.4302 -14.3499 -14.3499 -14.3499 -14.3499
    -6.5915  -6.5915  -6.5915  -6.5915  -6.2577  -6.2577  -6.2577  -6.2577
    -5.8465  -5.8465  -5.8465  -5.8465  -5.8303  -5.8303  -5.8303  -5.8303
    -5.8228  -5.8227  -5.8227  -5.8227  -5.7272  -5.7272  -5.7272  -5.7272
    -0.0488  -0.0488  -0.0488  -0.0488   0.1951   0.1951   0.1952   0.1952
     0.2489   0.2489   0.2489   0.2489   0.4203   0.4203   0.4203   0.4203
     0.4484   0.4484   0.4484   0.4484   0.5666   0.5666   0.5667   0.5667
     6.0787   6.0787   6.0787   6.0787   6.7061   6.7061   6.7061   6.7061
     6.7198   6.7198   6.7198   6.7199   7.1363   7.1364   7.1364   7.1364
     7.1416   7.1416   7.1416   7.1416   7.2071   7.2072   7.2072   7.2072
     7.5067   7.5067   7.5067   7.5067   7.6755   7.6755   7.6755   7.6755
     7.7425   7.7425   7.7425   7.7425   8.0507   8.0507   8.0507   8.0507
     8.0617   8.0617   8.0617   8.0617   8.3557   8.3557   8.3557   8.3557
     9.1001   9.1001   9.1001   9.1001   9.3319   9.3320   9.3320   9.3320
     9.3608   9.3608   9.3608   9.3608   9.5362   9.5362   9.5362   9.5362
     9.6244   9.6244   9.6244   9.6245   9.7530   9.7530   9.7530   9.7530
    12.9613  12.9613  12.9613  12.9613  13.1891  13.1891  13.1891  13.1891
    13.3774  13.3774  13.3774  13.3774  13.5852  13.5852  13.5852  13.5852
    14.0077  14.0077  14.0077  14.0077  14.0441  14.0441  14.0441  14.0441
    14.9504  14.9504  14.9504  14.9504  16.2530  16.2531  16.2531  16.2531
    16.3401  16.3401  16.3401  16.3402  16.9007  16.9008  16.9008  16.9008

          k =-0.5000-0.5000 0.1236 ( 27212 PWs)   bands (ev):

   -45.9837 -45.9837 -45.9837 -45.9837 -45.9829 -45.9829 -45.9829 -45.9829
   -22.4288 -22.4288 -22.4288 -22.4288 -22.3842 -22.3842 -22.3842 -22.3842
   -22.3502 -22.3502 -22.3502 -22.3502 -22.3494 -22.3494 -22.3494 -22.3494
   -22.3478 -22.3478 -22.3478 -22.3478 -22.3474 -22.3474 -22.3474 -22.3474
   -14.4272 -14.4272 -14.4272 -14.4272 -14.3530 -14.3530 -14.3530 -14.3530
    -6.5758  -6.5757  -6.5757  -6.5757  -6.2635  -6.2635  -6.2635  -6.2634
    -5.8534  -5.8534  -5.8534  -5.8534  -5.8275  -5.8274  -5.8274  -5.8274
    -5.8265  -5.8265  -5.8265  -5.8265  -5.7313  -5.7313  -5.7313  -5.7313
    -0.0374  -0.0374  -0.0374  -0.0373   0.1676   0.1676   0.1677   0.1677
     0.2376   0.2376   0.2376   0.2377   0.3772   0.3772   0.3772   0.3772
     0.4643   0.4643   0.4643   0.4643   0.6245   0.6245   0.6245   0.6245
     6.1281   6.1281   6.1281   6.1281   6.6819   6.6819   6.6819   6.6819
     6.7155   6.7155   6.7155   6.7155   7.1377   7.1378   7.1378   7.1378
     7.1876   7.1876   7.1876   7.1876   7.2037   7.2037   7.2037   7.2038
     7.4530   7.4530   7.4530   7.4530   7.7137   7.7137   7.7137   7.7137
     7.7454   7.7454   7.7454   7.7455   8.0256   8.0256   8.0256   8.0256
     8.0296   8.0296   8.0296   8.0296   8.3174   8.3174   8.3174   8.3174
     9.1459   9.1459   9.1459   9.1459   9.3071   9.3071   9.3071   9.3071
     9.3701   9.3701   9.3701   9.3701   9.5362   9.5362   9.5362   9.5362
     9.6265   9.6265   9.6265   9.6265   9.7391   9.7391   9.7391   9.7391
    13.0027  13.0027  13.0027  13.0027  13.2089  13.2089  13.2089  13.2089
    13.3868  13.3868  13.3868  13.3868  13.5770  13.5770  13.5770  13.5771
    13.9629  13.9629  13.9629  13.9629  14.0020  14.0020  14.0020  14.0020
    15.0680  15.0680  15.0680  15.0680  16.2585  16.2586  16.2586  16.2586
    16.3382  16.3382  16.3382  16.3382  16.9456  16.9457  16.9457  16.9457

          k =-0.5000-0.5000 0.2473 ( 27236 PWs)   bands (ev):

   -45.9836 -45.9836 -45.9836 -45.9836 -45.9830 -45.9830 -45.9830 -45.9830
   -22.4236 -22.4236 -22.4236 -22.4236 -22.3895 -22.3895 -22.3895 -22.3895
   -22.3500 -22.3500 -22.3500 -22.3500 -22.3491 -22.3491 -22.3491 -22.3491
   -22.3481 -22.3481 -22.3481 -22.3481 -22.3476 -22.3476 -22.3476 -22.3476
   -14.4187 -14.4186 -14.4186 -14.4186 -14.3619 -14.3618 -14.3618 -14.3618
    -6.5311  -6.5311  -6.5311  -6.5311  -6.2847  -6.2847  -6.2847  -6.2846
    -5.8678  -5.8678  -5.8678  -5.8678  -5.8403  -5.8403  -5.8403  -5.8403
    -5.8157  -5.8157  -5.8157  -5.8157  -5.7428  -5.7428  -5.7428  -5.7428
    -0.0049  -0.0049  -0.0049  -0.0049   0.1269   0.1270   0.1270   0.1270
     0.2055   0.2055   0.2056   0.2056   0.2734   0.2735   0.2735   0.2735
     0.5516   0.5516   0.5516   0.5517   0.6892   0.6892   0.6892   0.6892
     6.2505   6.2505   6.2505   6.2505   6.6173   6.6173   6.6173   6.6173
     6.7401   6.7401   6.7401   6.7401   7.1424   7.1424   7.1425   7.1425
     7.1940   7.1941   7.1941   7.1941   7.3045   7.3045   7.3045   7.3045
     7.3675   7.3675   7.3675   7.3675   7.7490   7.7490   7.7490   7.7490
     7.7560   7.7560   7.7560   7.7560   7.9564   7.9564   7.9564   7.9564
     7.9600   7.9600   7.9600   7.9600   8.1739   8.1739   8.1739   8.1739
     9.2534   9.2534   9.2534   9.2534   9.2916   9.2916   9.2916   9.2916
     9.3958   9.3958   9.3958   9.3958   9.5278   9.5278   9.5278   9.5278
     9.6281   9.6281   9.6281   9.6281   9.7017   9.7017   9.7017   9.7017
    13.1172  13.1173  13.1173  13.1173  13.2692  13.2692  13.2692  13.2692
    13.4141  13.4141  13.4141  13.4141  13.5527  13.5527  13.5527  13.5528
    13.8423  13.8423  13.8423  13.8423  13.8842  13.8842  13.8842  13.8842
    15.3847  15.3847  15.3847  15.3847  16.2726  16.2726  16.2726  16.2726
    16.3322  16.3322  16.3322  16.3322  17.0792  17.0799  17.0802  17.0802

          k =-0.5000-0.5000 0.3709 ( 27288 PWs)   bands (ev):

   -45.9835 -45.9835 -45.9835 -45.9835 -45.9831 -45.9831 -45.9831 -45.9831
   -22.4158 -22.4158 -22.4158 -22.4158 -22.3973 -22.3973 -22.3973 -22.3973
   -22.3495 -22.3495 -22.3495 -22.3495 -22.3488 -22.3488 -22.3488 -22.3488
   -22.3485 -22.3485 -22.3485 -22.3485 -22.3480 -22.3480 -22.3480 -22.3480
   -14.4058 -14.4057 -14.4057 -14.4057 -14.3750 -14.3750 -14.3750 -14.3750
    -6.4657  -6.4657  -6.4657  -6.4657  -6.3282  -6.3282  -6.3282  -6.3281
    -5.8766  -5.8766  -5.8766  -5.8766  -5.8573  -5.8573  -5.8573  -5.8573
    -5.7993  -5.7993  -5.7993  -5.7993  -5.7599  -5.7598  -5.7598  -5.7598
     0.0435   0.0435   0.0436   0.0436   0.1104   0.1104   0.1104   0.1104
     0.1574   0.1574   0.1575   0.1575   0.1861   0.1861   0.1861   0.1861
     0.6369   0.6369   0.6369   0.6369   0.7155   0.7155   0.7155   0.7155
     6.3722   6.3722   6.3722   6.3722   6.5355   6.5355   6.5355   6.5355
     6.8649   6.8649   6.8649   6.8649   7.1514   7.1514   7.1514   7.1514
     7.1799   7.1799   7.1799   7.1799   7.2570   7.2570   7.2570   7.2570
     7.4661   7.4661   7.4661   7.4662   7.7642   7.7643   7.7643   7.7643
     7.7785   7.7785   7.7785   7.7785   7.8776   7.8776   7.8776   7.8776
     7.8792   7.8792   7.8792   7.8792   7.9299   7.9299   7.9299   7.9299
     9.3437   9.3437   9.3437   9.3437   9.3658   9.3658   9.3658   9.3658
     9.4274   9.4274   9.4274   9.4274   9.4942   9.4942   9.4942   9.4942
     9.6220   9.6220   9.6220   9.6220   9.6539   9.6539   9.6539   9.6540
    13.2809  13.2809  13.2809  13.2809  13.3715  13.3715  13.3715  13.3715
    13.4585  13.4585  13.4585  13.4585  13.5122  13.5122  13.5122  13.5123
    13.6796  13.6796  13.6796  13.6796  13.7149  13.7149  13.7150  13.7150
    15.8162  15.8162  15.8162  15.8162  16.2903  16.2903  16.2903  16.2903
    16.3219  16.3219  16.3219  16.3219  16.6749  16.6749  16.6749  16.6750

          k =-0.5000-0.5000-0.4946 ( 27256 PWs)   bands (ev):

   -45.9833 -45.9833 -45.9833 -45.9833 -45.9833 -45.9833 -45.9833 -45.9833
   -22.4066 -22.4066 -22.4066 -22.4066 -22.4066 -22.4066 -22.4066 -22.4066
   -22.3490 -22.3490 -22.3490 -22.3490 -22.3490 -22.3490 -22.3490 -22.3490
   -22.3484 -22.3484 -22.3484 -22.3484 -22.3484 -22.3484 -22.3484 -22.3484
   -14.3905 -14.3905 -14.3904 -14.3904 -14.3904 -14.3904 -14.3904 -14.3904
    -6.3928  -6.3928  -6.3928  -6.3927  -6.3926  -6.3926  -6.3926  -6.3926
    -5.8720  -5.8720  -5.8720  -5.8720  -5.8719  -5.8719  -5.8719  -5.8719
    -5.7798  -5.7798  -5.7798  -5.7798  -5.7797  -5.7796  -5.7796  -5.7796
     0.1005   0.1005   0.1006   0.1006   0.1006   0.1006   0.1006   0.1006
     0.1296   0.1296   0.1297   0.1297   0.1297   0.1297   0.1297   0.1297
     0.6963   0.6963   0.6963   0.6964   0.6964   0.6964   0.6964   0.6964
     6.4568   6.4568   6.4568   6.4568   6.4568   6.4568   6.4568   6.4569
     7.0756   7.0756   7.0756   7.0756   7.0757   7.0757   7.0757   7.0758
     7.1645   7.1645   7.1645   7.1645   7.1646   7.1646   7.1646   7.1646
     7.6697   7.6697   7.6697   7.6698   7.6698   7.6698   7.6698   7.6698
     7.8082   7.8082   7.8083   7.8083   7.8083   7.8083   7.8083   7.8083
     7.8184   7.8184   7.8184   7.8184   7.8185   7.8185   7.8185   7.8185
     9.4273   9.4273   9.4273   9.4273   9.4273   9.4273   9.4273   9.4273
     9.4311   9.4311   9.4311   9.4311   9.4312   9.4312   9.4312   9.4312
     9.6213   9.6213   9.6213   9.6213   9.6214   9.6214   9.6214   9.6214
    13.4389  13.4390  13.4390  13.4390  13.4390  13.4390  13.4390  13.4390
    13.5130  13.5130  13.5130  13.5130  13.5131  13.5131  13.5131  13.5131
    13.5438  13.5438  13.5439  13.5439  13.5439  13.5439  13.5439  13.5439
    16.2714  16.2714  16.2714  16.2715  16.2716  16.2716  16.2716  16.2716
    16.3076  16.3076  16.3076  16.3076  16.3076  16.3076  16.3076  16.3076

     highest occupied, lowest unoccupied level (ev):    10.2662   12.0430

!    total energy              =   -5887.13483794 Ry
     total all-electron energy =   -147371.588410 Ry
     estimated scf accuracy    <          1.7E-11 Ry

     The total energy is the sum of the following terms:
     one-electron contribution =    -548.14851030 Ry
     hartree contribution      =     480.62856651 Ry
     xc contribution           =    -485.46305006 Ry
     ewald contribution        =   -1653.96634398 Ry
     one-center paw contrib.   =   -3680.18550011 Ry

     convergence has been achieved in  30 iterations

     Forces acting on atoms (cartesian axes, Ry/au):

     atom    1 type  1   force =     0.00000000    0.00000000   -0.00146064
     atom    2 type  1   force =     0.00000000    0.00000000   -0.00143133
     atom    3 type  1   force =     0.00000000    0.00000000   -0.00145004
     atom    4 type  1   force =     0.00000000    0.00000000   -0.00143702
     atom    5 type  1   force =     0.00000000    0.00000000   -0.00145004
     atom    6 type  1   force =     0.00000000    0.00000000   -0.00143702
     atom    7 type  1   force =     0.00000000    0.00000000   -0.00146453
     atom    8 type  1   force =     0.00000000    0.00000000   -0.00142917
     atom    9 type  2   force =    -0.00000070   -0.00000070   -0.00152778
     atom   10 type  2   force =    -0.00000122   -0.00000122   -0.00151980
     atom   11 type  2   force =    -0.00000070    0.00000070   -0.00152778
     atom   12 type  2   force =    -0.00000122    0.00000122   -0.00151980
     atom   13 type  2   force =     0.00000070   -0.00000070   -0.00152778
     atom   14 type  2   force =     0.00000122   -0.00000122   -0.00151980
     atom   15 type  2   force =     0.00000070    0.00000070   -0.00152778
     atom   16 type  2   force =     0.00000122    0.00000122   -0.00151980
     atom   17 type  3   force =    -0.00000139   -0.00000139    0.00277219
     atom   18 type  3   force =    -0.00000228   -0.00000228    0.00278016
     atom   19 type  3   force =    -0.00000139    0.00000139    0.00277219
     atom   20 type  3   force =    -0.00000228    0.00000228    0.00278016
     atom   21 type  3   force =     0.00000139   -0.00000139    0.00277219
     atom   22 type  3   force =     0.00000228   -0.00000228    0.00278016
     atom   23 type  3   force =     0.00000139    0.00000139    0.00277219
     atom   24 type  3   force =     0.00000228    0.00000228    0.00278016
     atom   25 type  3   force =    -0.00000194    0.00000000    0.00009085
     atom   26 type  3   force =    -0.00000525    0.00000000    0.00009497
     atom   27 type  3   force =     0.00000091    0.00000000    0.00009528
     atom   28 type  3   force =     0.00000283    0.00000000    0.00010406
     atom   29 type  3   force =     0.00000194    0.00000000    0.00009085
     atom   30 type  3   force =     0.00000525    0.00000000    0.00009497
     atom   31 type  3   force =    -0.00000091    0.00000000    0.00009528
     atom   32 type  3   force =    -0.00000283    0.00000000    0.00010406
     atom   33 type  3   force =     0.00000000   -0.00000194    0.00009085
     atom   34 type  3   force =     0.00000000   -0.00000525    0.00009497
     atom   35 type  3   force =     0.00000000    0.00000194    0.00009085
     atom   36 type  3   force =     0.00000000    0.00000525    0.00009497
     atom   37 type  3   force =     0.00000000    0.00000091    0.00009528
     atom   38 type  3   force =     0.00000000    0.00000283    0.00010406
     atom   39 type  3   force =     0.00000000   -0.00000091    0.00009528
     atom   40 type  3   force =    -0.00000000   -0.00000283    0.00010406

     Total force =     0.009853     Total SCF correction =     0.000002


     Computing stress (Cartesian axis) and pressure

          total   stress  (Ry/bohr**3)                   (kbar)     P=      -23.10
  -0.00018753   0.00000000   0.00000000          -27.59        0.00        0.00
   0.00000000  -0.00018753   0.00000000            0.00      -27.59        0.00
   0.00000000   0.00000000  -0.00009595            0.00        0.00      -14.12


     Writing all to output data dir ./tmp/60_ecut_8_kmesh_PBE.save/ :
     XML data file, charge density, pseudopotentials, collected wavefunctions

     init_run     :      2.79s CPU      3.05s WALL (       1 calls)
     electrons    :    244.05s CPU    250.21s WALL (       1 calls)
     forces       :      1.30s CPU      1.34s WALL (       1 calls)
     stress       :      4.01s CPU      4.09s WALL (       1 calls)

     Called by init_run:
     wfcinit      :      1.87s CPU      1.96s WALL (       1 calls)
     potinit      :      0.20s CPU      0.23s WALL (       1 calls)
     hinit0       :      0.43s CPU      0.51s WALL (       1 calls)

     Called by electrons:
     c_bands      :    220.64s CPU    226.16s WALL (      30 calls)
     sum_band     :     19.49s CPU     19.88s WALL (      30 calls)
     v_of_rho     :      0.95s CPU      1.06s WALL (      31 calls)
     newd         :      1.04s CPU      1.07s WALL (      31 calls)
     PAW_pot      :      1.48s CPU      1.51s WALL (      31 calls)
     mix_rho      :      0.11s CPU      0.12s WALL (      30 calls)

     Called by c_bands:
     init_us_2    :      2.55s CPU      2.58s WALL (     630 calls)
     cegterg      :    194.32s CPU    199.63s WALL (     310 calls)

     Called by *egterg:
     cdiaghg      :     38.11s CPU     39.85s WALL (    2231 calls)
     h_psi        :     90.64s CPU     92.12s WALL (    2251 calls)
     s_psi        :     11.60s CPU     11.73s WALL (    2251 calls)
     g_psi        :      0.24s CPU      0.24s WALL (    1931 calls)

     Called by h_psi:
     h_psi:calbec :     18.41s CPU     18.89s WALL (    2251 calls)
     vloc_psi     :     59.85s CPU     60.52s WALL (    2251 calls)
                                        0.00s GPU  (    2251 calls)
     add_vuspsi   :     11.68s CPU     11.84s WALL (    2251 calls)

     General routines
     calbec       :     27.89s CPU     28.64s WALL (    2721 calls)
     fft          :      1.00s CPU      1.16s WALL (     426 calls)
     ffts         :      0.17s CPU      0.19s WALL (      61 calls)
     fftw         :     67.60s CPU     68.35s WALL (  418070 calls)
     interpolate  :      0.21s CPU      0.23s WALL (      31 calls)

     Parallel routines

     PWSCF        :    253.72s CPU    262.28s WALL


   This run was terminated on:   4: 6:28  21May2026            

=------------------------------------------------------------------------------=
   JOB DONE.
=------------------------------------------------------------------------------=
