
     Program PWSCF v.7.5 starts on 21May2026 at  4: 2: 6 

     This program is part of the open-source Quantum ESPRESSO suite
     for quantum simulation of materials; please cite
         "P. Giannozzi et al., J. Phys.:Condens. Matter 21 395502 (2009);
         "P. Giannozzi et al., J. Phys.:Condens. Matter 29 465901 (2017);
         "P. Giannozzi et al., J. Chem. Phys. 152 154105 (2020);
          URL http://www.quantum-espresso.org", 
     in publications or presentations arising from this work. More details at
     http://www.quantum-espresso.org/quote

     Parallel version (MPI & OpenMP), running on     192 processor cores
     Number of MPI processes:               192
     Threads/MPI process:                     1

     MPI processes distributed on     1 nodes
     529964 MiB available memory on the printing compute node when the environment starts

     Waiting for input...
     Reading input from standard input

     Current dimensions of program PWSCF are:
     Max number of different atomic species (ntypx) = 10
     Max number of k-points (npk) =  40000
     Max angular momentum in pseudopotentials (lmaxx) =  4
     file Ba.pbe-spn-kjpaw_psl.1.0.0.UPF: wavefunction(s)  5S 6S renormalized
     file Ti.pbe-spn-kjpaw_psl.1.0.0.UPF: wavefunction(s)  3S 3P 3D renormalized
     file O.pbe-n-kjpaw_psl.1.0.0.UPF: wavefunction(s)  2S 2P renormalized

     IMPORTANT: XC functional enforced from input :
     Exchange-correlation= PBESOL
                           (   1   4  10   8   0   0   0)
     Any further DFT definition will be discarded
     Please, verify this is what you really want

     Found identity + ( -0.5000 -0.5000  0.0000) symmetry
     This is a supercell, fractional translations are disabled

     K-points division:     npool     =       8
     R & G space division:  proc/nbgrp/npool/nimage =      24
     Subspace diagonalization in iterative solution of the eigenvalue problem:
     one sub-group per band group will be used
     ELPA distributed-memory algorithm (size of sub-group:  2*  2 procs)


     Parallelization info
     --------------------
     sticks:   dense  smooth     PW     G-vecs:    dense   smooth      PW
     Min         482     240     65                39550    13981    1967
     Max         485     242     66                39552    13987    1972
     Sum       11585    5785   1565               949235   335575   47241

     Using Slab Decomposition



     bravais-lattice index     =            6
     lattice parameter (alat)  =      15.0876  a.u.
     unit-cell volume          =    3472.3239 (a.u.)^3
     number of atoms/cell      =           40
     number of atomic types    =            3
     number of electrons       =       320.00
     number of Kohn-Sham states=          200
     kinetic-energy cutoff     =      80.0000  Ry
     charge density cutoff     =     640.0000  Ry
     scf convergence threshold =      1.0E-10
     mixing beta               =       0.3000
     number of iterations used =           16  plain     mixing
     Exchange-correlation= PBESOL
                           (   1   4  10   8   0   0   0)

     celldm(1)=  15.087600  celldm(2)=   0.000000  celldm(3)=   1.011020
     celldm(4)=   0.000000  celldm(5)=   0.000000  celldm(6)=   0.000000

     crystal axes: (cart. coord. in units of alat)
               a(1) = (   1.000000   0.000000   0.000000 )  
               a(2) = (   0.000000   1.000000   0.000000 )  
               a(3) = (   0.000000   0.000000   1.011020 )  

     reciprocal axes: (cart. coord. in units 2 pi/alat)
               b(1) = (  1.000000  0.000000  0.000000 )  
               b(2) = (  0.000000  1.000000  0.000000 )  
               b(3) = (  0.000000  0.000000  0.989100 )  


     PseudoPot. # 1 for Ba read from file:
     /home/kylay/scratch/BTO/pseuds/Ba.pbe-spn-kjpaw_psl.1.0.0.UPF
     MD5 check sum: 7cfe25f1fe7574a4710541d5a11d6531
     Pseudo is Projector augmented-wave + core cor, Zval = 10.0
     Generated using &quot;atomic&quot; code by A. Dal Corso  v.6.2.2
     Shape of augmentation charge: PSQ
     Using radial grid of 1251 points,  7 beta functions with: 
                l(1) =   0
                l(2) =   0
                l(3) =   0
                l(4) =   1
                l(5) =   1
                l(6) =   2
                l(7) =   2
     Q(r) pseudized with 0 coefficients 


     PseudoPot. # 2 for Ti read from file:
     /home/kylay/scratch/BTO/pseuds/Ti.pbe-spn-kjpaw_psl.1.0.0.UPF
     MD5 check sum: 01f69b0d8ba4438b2e03ac6ea4af1c0b
     Pseudo is Projector augmented-wave + core cor, Zval = 12.0
     Generated using &quot;atomic&quot; code by A. Dal Corso  v.6.2.2
     Shape of augmentation charge: PSQ
     Using radial grid of 1177 points,  6 beta functions with: 
                l(1) =   0
                l(2) =   0
                l(3) =   1
                l(4) =   1
                l(5) =   2
                l(6) =   2
     Q(r) pseudized with 0 coefficients 


     PseudoPot. # 3 for O  read from file:
     /home/kylay/scratch/BTO/pseuds/O.pbe-n-kjpaw_psl.1.0.0.UPF
     MD5 check sum: e99d9cef9b487d1ca56f5b95ecd0fd7a
     Pseudo is Projector augmented-wave + core cor, Zval =  6.0
     Generated using &quot;atomic&quot; code by A. Dal Corso  v.6.3
     Shape of augmentation charge: PSQ
     Using radial grid of 1095 points,  4 beta functions with: 
                l(1) =   0
                l(2) =   0
                l(3) =   1
                l(4) =   1
     Q(r) pseudized with 0 coefficients 


     atomic species   valence    mass     pseudopotential
     Ba               10.00   137.32700     Ba( 1.00)
     Ti               12.00    47.86700     Ti( 1.00)
     O                 6.00    15.99900     O ( 1.00)

      8 Sym. Ops. (no inversion) found



   Cartesian axes

     site n.     atom                  positions (alat units)
         1        Ba     tau(   1) = (   0.0000000   0.0000000  -0.0010787  )
         2        Ba     tau(   2) = (   0.0000000   0.0000000   0.5044220  )
         3        Ba     tau(   3) = (   0.0000000   0.5000000  -0.0010832  )
         4        Ba     tau(   4) = (   0.0000000   0.5000000   0.5044235  )
         5        Ba     tau(   5) = (   0.5000000   0.0000000  -0.0010832  )
         6        Ba     tau(   6) = (   0.5000000   0.0000000   0.5044235  )
         7        Ba     tau(   7) = (   0.5000000   0.5000000  -0.0010766  )
         8        Ba     tau(   8) = (   0.5000000   0.5000000   0.5044202  )
         9        Ti     tau(   9) = (   0.2500002   0.2500002   0.2436990  )
        10        Ti     tau(  10) = (   0.2500007   0.2500007   0.7492042  )
        11        Ti     tau(  11) = (   0.2500002   0.7499998   0.2436990  )
        12        Ti     tau(  12) = (   0.2500007   0.7499993   0.7492042  )
        13        Ti     tau(  13) = (   0.7499998   0.2500002   0.2436990  )
        14        Ti     tau(  14) = (   0.7499993   0.2500007   0.7492042  )
        15        Ti     tau(  15) = (   0.7499998   0.7499998   0.2436990  )
        16        Ti     tau(  16) = (   0.7499993   0.7499993   0.7492042  )
        17        O      tau(  17) = (   0.2500011   0.2500011   0.0113903  )
        18        O      tau(  18) = (   0.2500007   0.2500007   0.5168954  )
        19        O      tau(  19) = (   0.2500011   0.7499989   0.0113903  )
        20        O      tau(  20) = (   0.2500007   0.7499993   0.5168954  )
        21        O      tau(  21) = (   0.7499989   0.2500011   0.0113903  )
        22        O      tau(  22) = (   0.7499993   0.2500007   0.5168954  )
        23        O      tau(  23) = (   0.7499989   0.7499989   0.0113903  )
        24        O      tau(  24) = (   0.7499993   0.7499993   0.5168954  )
        25        O      tau(  25) = (   0.2500005   0.0000000   0.2592128  )
        26        O      tau(  26) = (   0.2500020   0.0000000   0.7647195  )
        27        O      tau(  27) = (   0.2499999   0.5000000   0.2592107  )
        28        O      tau(  28) = (   0.2499998   0.5000000   0.7647148  )
        29        O      tau(  29) = (   0.7499995   0.0000000   0.2592128  )
        30        O      tau(  30) = (   0.7499980   0.0000000   0.7647195  )
        31        O      tau(  31) = (   0.7500001   0.5000000   0.2592107  )
        32        O      tau(  32) = (   0.7500002   0.5000000   0.7647148  )
        33        O      tau(  33) = (   0.0000000   0.2500005   0.2592128  )
        34        O      tau(  34) = (   0.0000000   0.2500020   0.7647195  )
        35        O      tau(  35) = (   0.0000000   0.7499995   0.2592128  )
        36        O      tau(  36) = (   0.0000000   0.7499980   0.7647195  )
        37        O      tau(  37) = (   0.5000000   0.2499999   0.2592107  )
        38        O      tau(  38) = (   0.5000000   0.2499998   0.7647148  )
        39        O      tau(  39) = (   0.5000000   0.7500001   0.2592107  )
        40        O      tau(  40) = (   0.5000000   0.7500002   0.7647148  )

     number of k points=    18
                       cart. coord. in units 2pi/alat
        k(    1) = (   0.0000000   0.0000000   0.0000000), wk =   0.0312500
        k(    2) = (   0.0000000   0.0000000   0.2472750), wk =   0.0625000
        k(    3) = (   0.0000000   0.0000000  -0.4945501), wk =   0.0312500
        k(    4) = (   0.0000000   0.2500000   0.0000000), wk =   0.1250000
        k(    5) = (   0.0000000   0.2500000   0.2472750), wk =   0.2500000
        k(    6) = (   0.0000000   0.2500000  -0.4945501), wk =   0.1250000
        k(    7) = (   0.0000000  -0.5000000   0.0000000), wk =   0.0625000
        k(    8) = (   0.0000000  -0.5000000   0.2472750), wk =   0.1250000
        k(    9) = (   0.0000000  -0.5000000  -0.4945501), wk =   0.0625000
        k(   10) = (   0.2500000   0.2500000   0.0000000), wk =   0.1250000
        k(   11) = (   0.2500000   0.2500000   0.2472750), wk =   0.2500000
        k(   12) = (   0.2500000   0.2500000  -0.4945501), wk =   0.1250000
        k(   13) = (   0.2500000  -0.5000000   0.0000000), wk =   0.1250000
        k(   14) = (   0.2500000  -0.5000000   0.2472750), wk =   0.2500000
        k(   15) = (   0.2500000  -0.5000000  -0.4945501), wk =   0.1250000
        k(   16) = (  -0.5000000  -0.5000000   0.0000000), wk =   0.0312500
        k(   17) = (  -0.5000000  -0.5000000   0.2472750), wk =   0.0625000
        k(   18) = (  -0.5000000  -0.5000000  -0.4945501), wk =   0.0312500

     Dense  grid:   949235 G-vectors     FFT dimensions: ( 125, 125, 125)

     Smooth grid:   335575 G-vectors     FFT dimensions: (  90,  90,  90)

     Estimated max dynamical RAM per process >     112.56 MB

     Estimated total dynamical RAM >      17.94 GB
     Cannot read rho : file not found

     Initial potential from superposition of free atoms

     starting charge     319.8521, renormalised to     320.0000
     Message from routine qexsd_readschema :
     xml data file ./tmp/80_ecut_4_kmesh_PBE.save/data-file-schema.xml not found
     Cannot read wfcs: file not found
     Starting wfcs are  216 randomized atomic wfcs
     Checking if some PAW data can be deallocated... 

     total cpu time spent up to now is        3.4 secs

     per-process dynamical memory:   170.5 Mb

     Self-consistent Calculation

     iteration #  1     ecut=    80.00 Ry     beta= 0.30
     Davidson diagonalization with overlap
     ethr =  1.00E-05,  avg # of iterations = 37.8

     total cpu time spent up to now is       16.2 secs

     total energy              =   -5884.38269076 Ry
     estimated scf accuracy    <      13.70991478 Ry

     iteration #  2     ecut=    80.00 Ry     beta= 0.30
     Davidson diagonalization with overlap
     ethr =  4.28E-03,  avg # of iterations =  2.0

     total cpu time spent up to now is       18.2 secs

     total energy              =   -5886.03280094 Ry
     estimated scf accuracy    <       0.62087612 Ry

     iteration #  3     ecut=    80.00 Ry     beta= 0.30
     Davidson diagonalization with overlap
     ethr =  1.94E-04,  avg # of iterations = 14.2

     total cpu time spent up to now is       23.1 secs

     total energy              =   -5887.00952259 Ry
     estimated scf accuracy    <       1.17091652 Ry

     iteration #  4     ecut=    80.00 Ry     beta= 0.30
     Davidson diagonalization with overlap
     ethr =  1.94E-04,  avg # of iterations =  2.0

     total cpu time spent up to now is       25.1 secs

     total energy              =   -5887.11070550 Ry
     estimated scf accuracy    <       0.19795290 Ry

     iteration #  5     ecut=    80.00 Ry     beta= 0.30
     Davidson diagonalization with overlap
     ethr =  6.19E-05,  avg # of iterations = 12.5

     total cpu time spent up to now is       29.1 secs

     total energy              =   -5886.98819390 Ry
     estimated scf accuracy    <       0.97887478 Ry

     iteration #  6     ecut=    80.00 Ry     beta= 0.30
     Davidson diagonalization with overlap
     ethr =  6.19E-05,  avg # of iterations =  5.2

     total cpu time spent up to now is       32.0 secs

     total energy              =   -5887.12991348 Ry
     estimated scf accuracy    <       0.19995058 Ry

     iteration #  7     ecut=    80.00 Ry     beta= 0.30
     Davidson diagonalization with overlap
     ethr =  6.19E-05,  avg # of iterations =  2.0

     total cpu time spent up to now is       34.1 secs

     total energy              =   -5887.13958469 Ry
     estimated scf accuracy    <       0.03999897 Ry

     iteration #  8     ecut=    80.00 Ry     beta= 0.30
     Davidson diagonalization with overlap
     ethr =  1.25E-05,  avg # of iterations =  9.9

     total cpu time spent up to now is       37.8 secs

     total energy              =   -5887.14573185 Ry
     estimated scf accuracy    <       0.06875729 Ry

     iteration #  9     ecut=    80.00 Ry     beta= 0.30
     Davidson diagonalization with overlap
     ethr =  1.25E-05,  avg # of iterations =  5.6

     total cpu time spent up to now is       40.9 secs

     total energy              =   -5887.16352171 Ry
     estimated scf accuracy    <       0.01198332 Ry

     iteration # 10     ecut=    80.00 Ry     beta= 0.30
     Davidson diagonalization with overlap
     ethr =  3.74E-06,  avg # of iterations =  3.4

     total cpu time spent up to now is       43.1 secs

     total energy              =   -5887.16471869 Ry
     estimated scf accuracy    <       0.00144006 Ry

     iteration # 11     ecut=    80.00 Ry     beta= 0.30
     Davidson diagonalization with overlap
     ethr =  4.50E-07,  avg # of iterations =  7.3

     total cpu time spent up to now is       46.4 secs

     total energy              =   -5887.16580310 Ry
     estimated scf accuracy    <       0.00072767 Ry

     iteration # 12     ecut=    80.00 Ry     beta= 0.30
     Davidson diagonalization with overlap
     ethr =  2.27E-07,  avg # of iterations =  1.5

     total cpu time spent up to now is       48.3 secs

     total energy              =   -5887.16556776 Ry
     estimated scf accuracy    <       0.00054353 Ry

     iteration # 13     ecut=    80.00 Ry     beta= 0.30
     Davidson diagonalization with overlap
     ethr =  1.70E-07,  avg # of iterations =  7.2

     total cpu time spent up to now is       51.2 secs

     total energy              =   -5887.16580239 Ry
     estimated scf accuracy    <       0.00033786 Ry

     iteration # 14     ecut=    80.00 Ry     beta= 0.30
     Davidson diagonalization with overlap
     ethr =  1.06E-07,  avg # of iterations =  3.2

     total cpu time spent up to now is       53.4 secs

     total energy              =   -5887.16571072 Ry
     estimated scf accuracy    <       0.00035090 Ry

     iteration # 15     ecut=    80.00 Ry     beta= 0.30
     Davidson diagonalization with overlap
     ethr =  1.06E-07,  avg # of iterations =  1.8

     total cpu time spent up to now is       55.4 secs

     total energy              =   -5887.16572573 Ry
     estimated scf accuracy    <       0.00005204 Ry

     iteration # 16     ecut=    80.00 Ry     beta= 0.30
     Davidson diagonalization with overlap
     ethr =  1.63E-08,  avg # of iterations =  8.2

     total cpu time spent up to now is       58.2 secs

     total energy              =   -5887.16574028 Ry
     estimated scf accuracy    <       0.00000564 Ry

     iteration # 17     ecut=    80.00 Ry     beta= 0.30
     Davidson diagonalization with overlap
     ethr =  1.76E-09,  avg # of iterations =  6.2

     total cpu time spent up to now is       61.0 secs

     total energy              =   -5887.16574175 Ry
     estimated scf accuracy    <       0.00000967 Ry

     iteration # 18     ecut=    80.00 Ry     beta= 0.30
     Davidson diagonalization with overlap
     ethr =  1.76E-09,  avg # of iterations =  2.8

     total cpu time spent up to now is       63.1 secs

     total energy              =   -5887.16574384 Ry
     estimated scf accuracy    <       0.00000897 Ry

     iteration # 19     ecut=    80.00 Ry     beta= 0.30
     Davidson diagonalization with overlap
     ethr =  1.76E-09,  avg # of iterations =  2.9

     total cpu time spent up to now is       65.4 secs

     total energy              =   -5887.16574097 Ry
     estimated scf accuracy    <       0.00001598 Ry

     iteration # 20     ecut=    80.00 Ry     beta= 0.30
     Davidson diagonalization with overlap
     ethr =  1.76E-09,  avg # of iterations =  1.2

     total cpu time spent up to now is       67.2 secs

     total energy              =   -5887.16574050 Ry
     estimated scf accuracy    <       0.00000643 Ry

     iteration # 21     ecut=    80.00 Ry     beta= 0.30
     Davidson diagonalization with overlap
     ethr =  1.76E-09,  avg # of iterations =  2.0

     total cpu time spent up to now is       69.2 secs

     total energy              =   -5887.16574031 Ry
     estimated scf accuracy    <       0.00000293 Ry

     iteration # 22     ecut=    80.00 Ry     beta= 0.30
     Davidson diagonalization with overlap
     ethr =  9.17E-10,  avg # of iterations =  2.0

     total cpu time spent up to now is       71.3 secs

     total energy              =   -5887.16574029 Ry
     estimated scf accuracy    <       0.00000110 Ry

     iteration # 23     ecut=    80.00 Ry     beta= 0.30
     Davidson diagonalization with overlap
     ethr =  3.45E-10,  avg # of iterations =  2.7

     total cpu time spent up to now is       73.5 secs

     total energy              =   -5887.16574051 Ry
     estimated scf accuracy    <       0.00000035 Ry

     iteration # 24     ecut=    80.00 Ry     beta= 0.30
     Davidson diagonalization with overlap
     ethr =  1.10E-10,  avg # of iterations =  4.2

     total cpu time spent up to now is       75.7 secs

     total energy              =   -5887.16574048 Ry
     estimated scf accuracy    <       0.00000052 Ry

     iteration # 25     ecut=    80.00 Ry     beta= 0.30
     Davidson diagonalization with overlap
     ethr =  1.10E-10,  avg # of iterations =  2.2

     total cpu time spent up to now is       77.8 secs

     total energy              =   -5887.16574052 Ry
     estimated scf accuracy    <       0.00000031 Ry

     iteration # 26     ecut=    80.00 Ry     beta= 0.30
     Davidson diagonalization with overlap
     ethr =  9.80E-11,  avg # of iterations =  1.8

     total cpu time spent up to now is       79.7 secs

     total energy              =   -5887.16574051 Ry
     estimated scf accuracy    <       0.00000031 Ry

     iteration # 27     ecut=    80.00 Ry     beta= 0.30
     Davidson diagonalization with overlap
     ethr =  9.57E-11,  avg # of iterations =  2.0

     total cpu time spent up to now is       81.6 secs

     total energy              =   -5887.16574046 Ry
     estimated scf accuracy    <       0.00000021 Ry

     iteration # 28     ecut=    80.00 Ry     beta= 0.30
     Davidson diagonalization with overlap
     ethr =  6.58E-11,  avg # of iterations =  2.7

     total cpu time spent up to now is       83.8 secs

     total energy              =   -5887.16574047 Ry
     estimated scf accuracy    <       0.00000007 Ry

     iteration # 29     ecut=    80.00 Ry     beta= 0.30
     Davidson diagonalization with overlap
     ethr =  2.12E-11,  avg # of iterations =  5.4

     total cpu time spent up to now is       86.2 secs

     total energy              =   -5887.16574047 Ry
     estimated scf accuracy    <       0.00000003 Ry

     iteration # 30     ecut=    80.00 Ry     beta= 0.30
     Davidson diagonalization with overlap
     ethr =  1.01E-11,  avg # of iterations =  5.8

     total cpu time spent up to now is       89.4 secs

     total energy              =   -5887.16574049 Ry
     estimated scf accuracy    <       0.00000003 Ry

     iteration # 31     ecut=    80.00 Ry     beta= 0.30
     Davidson diagonalization with overlap
     ethr =  1.01E-11,  avg # of iterations =  1.6

     total cpu time spent up to now is       91.2 secs

     total energy              =   -5887.16574048 Ry
     estimated scf accuracy    <       0.00000003 Ry

     iteration # 32     ecut=    80.00 Ry     beta= 0.30
     Davidson diagonalization with overlap
     ethr =  8.10E-12,  avg # of iterations =  2.0

     total cpu time spent up to now is       93.3 secs

     total energy              =   -5887.16574049 Ry
     estimated scf accuracy    <          5.2E-09 Ry

     iteration # 33     ecut=    80.00 Ry     beta= 0.30
     Davidson diagonalization with overlap
     ethr =  1.62E-12,  avg # of iterations =  5.4

     total cpu time spent up to now is       96.2 secs

     total energy              =   -5887.16574049 Ry
     estimated scf accuracy    <          9.2E-10 Ry

     iteration # 34     ecut=    80.00 Ry     beta= 0.30
     Davidson diagonalization with overlap
     ethr =  2.87E-13,  avg # of iterations =  5.8

     total cpu time spent up to now is       99.3 secs

     total energy              =   -5887.16574049 Ry
     estimated scf accuracy    <          1.3E-09 Ry

     iteration # 35     ecut=    80.00 Ry     beta= 0.30
     Davidson diagonalization with overlap
     ethr =  2.87E-13,  avg # of iterations =  2.0

     total cpu time spent up to now is      101.2 secs

     total energy              =   -5887.16574049 Ry
     estimated scf accuracy    <          1.5E-09 Ry

     iteration # 36     ecut=    80.00 Ry     beta= 0.30
     Davidson diagonalization with overlap
     ethr =  2.87E-13,  avg # of iterations =  4.4

     total cpu time spent up to now is      104.2 secs

     total energy              =   -5887.16574049 Ry
     estimated scf accuracy    <          8.7E-10 Ry

     iteration # 37     ecut=    80.00 Ry     beta= 0.30
     Davidson diagonalization with overlap
     ethr =  2.71E-13,  avg # of iterations =  2.6

     total cpu time spent up to now is      106.4 secs

     total energy              =   -5887.16574049 Ry
     estimated scf accuracy    <          5.6E-10 Ry

     iteration # 38     ecut=    80.00 Ry     beta= 0.30
     Davidson diagonalization with overlap
     ethr =  1.74E-13,  avg # of iterations =  2.0

     total cpu time spent up to now is      108.4 secs

     total energy              =   -5887.16574049 Ry
     estimated scf accuracy    <          7.5E-10 Ry

     iteration # 39     ecut=    80.00 Ry     beta= 0.30
     Davidson diagonalization with overlap
     ethr =  1.74E-13,  avg # of iterations =  4.7

     total cpu time spent up to now is      110.8 secs

     total energy              =   -5887.16574049 Ry
     estimated scf accuracy    <          8.3E-10 Ry

     iteration # 40     ecut=    80.00 Ry     beta= 0.30
     Davidson diagonalization with overlap
     ethr =  1.74E-13,  avg # of iterations =  3.8

     total cpu time spent up to now is      113.2 secs

     total energy              =   -5887.16574049 Ry
     estimated scf accuracy    <          1.3E-10 Ry

     iteration # 41     ecut=    80.00 Ry     beta= 0.30
     Davidson diagonalization with overlap
     ethr =  1.00E-13,  avg # of iterations =  4.7

     total cpu time spent up to now is      115.5 secs

     total energy              =   -5887.16574049 Ry
     estimated scf accuracy    <          1.1E-10 Ry

     iteration # 42     ecut=    80.00 Ry     beta= 0.30
     Davidson diagonalization with overlap
     ethr =  1.00E-13,  avg # of iterations =  1.7

     total cpu time spent up to now is      117.4 secs

     End of self-consistent calculation

          k = 0.0000 0.0000 0.0000 ( 42051 PWs)   bands (ev):

   -45.9800 -45.9791 -45.9789 -45.9789 -45.9780 -45.9780 -45.9779 -45.9770
   -22.4288 -22.4251 -22.4251 -22.4223 -22.3793 -22.3770 -22.3770 -22.3748
   -22.3737 -22.3737 -22.3703 -22.3703 -22.3700 -22.3700 -22.3675 -22.3675
   -22.3180 -22.3180 -22.3161 -22.3161 -22.3158 -22.3158 -22.3140 -22.3140
   -14.5426 -14.4278 -14.4182 -14.4182 -14.3472 -14.3472 -14.3391 -14.2768
    -6.8465  -6.8465  -6.7971  -6.5949  -6.3050  -6.1974  -6.1974  -5.9527
    -5.9527  -5.9507  -5.8892  -5.8892  -5.8590  -5.8253  -5.7978  -5.7978
    -5.7947  -5.7947  -5.7736  -5.7068  -5.6189  -5.6189  -5.5564  -5.5564
    -0.4728  -0.4728  -0.4103   0.2091   0.2091   0.2255   0.2255   0.2724
     0.2819   0.2820   0.2832   0.2832   0.4418   0.4418   0.4460   0.4460
     0.4643   0.4643   0.6608   0.6660   0.6660   0.6890   0.6890   0.7330
     5.7138   5.8849   5.9124   5.9124   6.0817   6.0817   6.1335   6.1597
     6.2305   6.2305   6.3955   6.3955   6.3966   6.4150   6.4313   7.3353
     7.3353   7.3917   7.3917   7.4389   7.4389   7.4394   7.4394   7.4460
     7.4460   7.5441   7.5441   7.7685   7.7685   7.7948   7.8899   7.9094
     7.9095   7.9215   7.9215   8.2185   8.2185   8.2643   8.2743   8.2810
     8.2810   8.3798   8.3798   8.4562   8.5255   8.5255   8.5428   8.5428
     8.8885   8.8885   9.0665   9.1896   9.1896   9.2299   9.2299   9.3234
     9.3234   9.3348   9.3348   9.3497   9.3497   9.5638   9.5638   9.8562
     9.9148   9.9148  10.0333  10.0333  10.1044  10.1044  10.1938  10.2653
    12.0411  12.1941  12.3659  12.3659  12.4879  12.4879  13.8049  13.8049
    13.8352  13.8352  13.8618  13.8618  13.8684  13.8684  13.8842  13.8842
    13.8861  13.8861  14.2236  14.2237  14.2528  14.3543  14.3550  14.4364
    14.4364  14.4818  14.4818  14.4882  14.5013  14.9690  15.0675  15.1813
    15.1813  15.2145  16.1729  16.1729  16.3741  16.6780  16.8759  16.8759

          k = 0.0000 0.0000 0.2473 ( 41979 PWs)   bands (ev):

   -45.9799 -45.9792 -45.9788 -45.9788 -45.9782 -45.9782 -45.9777 -45.9771
   -22.4216 -22.4181 -22.4181 -22.4154 -22.3866 -22.3841 -22.3841 -22.3818
   -22.3731 -22.3731 -22.3707 -22.3707 -22.3696 -22.3696 -22.3679 -22.3679
   -22.3177 -22.3177 -22.3163 -22.3163 -22.3156 -22.3156 -22.3143 -22.3143
   -14.5261 -14.4450 -14.4080 -14.4080 -14.3578 -14.3578 -14.3301 -14.2861
    -6.7716  -6.7716  -6.7482  -6.5953  -6.3360  -6.3360  -6.2318  -5.9508
    -5.9030  -5.9030  -5.8814  -5.8814  -5.8565  -5.8541  -5.8303  -5.7704
    -5.7704  -5.7686  -5.7621  -5.7621  -5.6463  -5.6463  -5.5914  -5.5914
    -0.3779  -0.3779  -0.2786   0.1033   0.1033   0.2873   0.2873   0.3003
     0.3004   0.3055   0.3055   0.3409   0.4159   0.4159   0.4175   0.4175
     0.4708   0.4923   0.4923   0.6151   0.6151   0.6348   0.6348   0.6662
     5.8000   5.8867   6.0210   6.0210   6.2023   6.2023   6.2435   6.2435
     6.3976   6.4087   6.4174   6.4289   6.5356   6.5356   6.5835   7.3462
     7.3462   7.3641   7.3641   7.3814   7.3814   7.3857   7.3857   7.5274
     7.5274   7.5292   7.5292   7.5758   7.6203   7.6596   7.6596   7.7498
     7.7498   7.8745   7.8745   8.0470   8.2493   8.2493   8.2719   8.2719
     8.3653   8.4346   8.4346   8.4496   8.5994   8.5994   8.7284   8.7284
     8.9282   9.0615   9.0615   9.0646   9.0646   9.1340   9.1340   9.1951
     9.1951   9.2182   9.2182   9.3115   9.3115   9.5323   9.6102   9.6102
     9.8607   9.8607   9.9300   9.9300   9.9421   9.9421  10.2041  10.2547
    12.0626  12.1708  12.6146  12.6146  12.7129  12.7129  13.6661  13.6661
    13.6913  13.6913  13.8099  13.8099  13.8311  13.8311  13.8730  13.8730
    13.9639  13.9639  14.1278  14.1278  14.2859  14.3534  14.3538  14.3788
    14.3788  14.4525  14.7011  14.7011  14.8787  15.1593  15.1593  15.3609
    15.4187  15.5066  16.1662  16.3638  16.3638  16.6617  16.7928  17.2037

          k = 0.0000 0.0000-0.4946 ( 41964 PWs)   bands (ev):

   -45.9796 -45.9796 -45.9785 -45.9785 -45.9785 -45.9785 -45.9774 -45.9774
   -22.4041 -22.4041 -22.4011 -22.4011 -22.4011 -22.4011 -22.3986 -22.3986
   -22.3720 -22.3720 -22.3719 -22.3719 -22.3688 -22.3688 -22.3687 -22.3687
   -22.3170 -22.3170 -22.3170 -22.3170 -22.3149 -22.3149 -22.3149 -22.3149
   -14.4860 -14.4859 -14.3831 -14.3831 -14.3830 -14.3830 -14.3082 -14.3081
    -6.6478  -6.6476  -6.5752  -6.5752  -6.5751  -6.5751  -6.0490  -6.0489
    -5.8904  -5.8903  -5.8739  -5.8739  -5.8738  -5.8738  -5.8423  -5.8422
    -5.7100  -5.7100  -5.7098  -5.7098  -5.6764  -5.6764  -5.6763  -5.6763
    -0.1427  -0.1427  -0.1426  -0.1426   0.0683   0.0685   0.3522   0.3523
     0.3523   0.3524   0.3605   0.3605   0.3606   0.3606   0.4452   0.4452
     0.4452   0.4452   0.5043   0.5044   0.5620   0.5620   0.5620   0.5620
     5.8759   5.8760   6.1377   6.1377   6.1378   6.1378   6.4231   6.4232
     6.7001   6.7001   6.7003   6.7003   6.9927   6.9928   7.0035   7.0035
     7.0037   7.0037   7.0189   7.0190   7.2213   7.2215   7.3684   7.3684
     7.3685   7.3685   7.6705   7.6705   7.6705   7.6705   7.7255   7.7255
     7.7256   7.7256   7.9470   7.9470   7.9471   7.9471   8.4478   8.4478
     8.4479   8.4479   8.6286   8.6287   8.8049   8.8049   8.8049   8.8049
     8.8184   8.8185   8.8185   8.8186   8.9255   8.9256   9.0399   9.0399
     9.0400   9.0400   9.5743   9.5743   9.5744   9.5744   9.6265   9.6265
     9.6265   9.6265   9.7307   9.7307   9.7308   9.7308  10.2291  10.2293
    12.1158  12.1159  13.1616  13.1616  13.1617  13.1617  13.2167  13.2167
    13.2168  13.2168  13.8209  13.8209  13.8210  13.8210  13.9583  13.9583
    13.9583  13.9583  14.1604  14.1604  14.1605  14.1605  14.3529  14.3530
    14.3680  14.3680  15.0370  15.0370  15.0371  15.0371  15.5977  15.5979
    16.0649  16.0651  16.2711  16.2713  16.2791  16.2792  16.9628  16.9629

          k = 0.0000 0.2500 0.0000 ( 41967 PWs)   bands (ev):

   -45.9799 -45.9791 -45.9790 -45.9788 -45.9782 -45.9780 -45.9779 -45.9771
   -22.4283 -22.4256 -22.4247 -22.4227 -22.3789 -22.3773 -22.3767 -22.3752
   -22.3731 -22.3705 -22.3699 -22.3679 -22.3655 -22.3624 -22.3621 -22.3597
   -22.3262 -22.3241 -22.3238 -22.3219 -22.3177 -22.3161 -22.3158 -22.3143
   -14.5248 -14.4369 -14.4162 -14.4068 -14.3592 -14.3509 -14.3371 -14.2873
    -6.7943  -6.7753  -6.7218  -6.6074  -6.3962  -6.3062  -6.1184  -5.9389
    -5.9275  -5.9179  -5.8951  -5.8707  -5.8489  -5.8120  -5.8025  -5.8003
    -5.7825  -5.7731  -5.7590  -5.7423  -5.7084  -5.6467  -5.6265  -5.5905
    -0.3760  -0.3505  -0.2969   0.1168   0.1720   0.2379   0.2505   0.2725
     0.2965   0.3085   0.3415   0.3441   0.4028   0.4114   0.4192   0.4364
     0.4652   0.4728   0.4831   0.6119   0.6288   0.6307   0.6311   0.6607
     5.8081   5.9115   5.9992   6.0095   6.1366   6.1974   6.2055   6.2999
     6.3649   6.3962   6.4030   6.4653   6.5552   6.5948   6.6037   7.2765
     7.3612   7.4149   7.4359   7.4400   7.4477   7.4487   7.4758   7.4942
     7.5269   7.5460   7.5466   7.5549   7.5605   7.6115   7.6566   7.7470
     7.7852   7.8539   7.8771   7.9907   8.0273   8.0846   8.1273   8.4064
     8.4126   8.4275   8.5113   8.5351   8.6299   8.6465   8.6649   8.7529
     8.8130   8.9729   9.0202   9.0870   9.1394   9.1527   9.1683   9.2681
     9.2710   9.3207   9.3585   9.3745   9.4039   9.4119   9.4430   9.5335
     9.7598   9.8671   9.9390   9.9476  10.0436  10.0772  10.0936  10.1080
    12.3358  12.4110  12.4666  12.4832  12.5230  12.6279  13.5850  13.6162
    13.6220  13.6419  13.8244  13.8401  13.8672  13.8702  13.8815  13.8816
    13.9177  13.9319  14.1106  14.1418  14.2615  14.3639  14.3697  14.4454
    14.4495  14.4570  14.6526  14.6966  14.8239  14.9970  15.1542  15.3739
    15.5158  15.6443  16.0148  16.4059  16.5673  16.7703  16.9129  17.1420

          k = 0.0000 0.2500 0.2473 ( 41974 PWs)   bands (ev):

   -45.9797 -45.9791 -45.9790 -45.9787 -45.9783 -45.9780 -45.9779 -45.9773
   -22.4211 -22.4186 -22.4177 -22.4158 -22.3862 -22.3844 -22.3837 -22.3822
   -22.3726 -22.3703 -22.3701 -22.3683 -22.3651 -22.3628 -22.3617 -22.3601
   -22.3259 -22.3244 -22.3235 -22.3222 -22.3174 -22.3160 -22.3159 -22.3146
   -14.5092 -14.4325 -14.4257 -14.3968 -14.3708 -14.3474 -14.3417 -14.2967
    -6.7266  -6.7003  -6.6817  -6.5934  -6.3788  -6.3221  -6.2634  -5.9464
    -5.9193  -5.9177  -5.8911  -5.8739  -5.8612  -5.8440  -5.8235  -5.7945
    -5.7794  -5.7589  -5.7453  -5.7428  -5.6980  -5.6634  -5.6561  -5.6162
    -0.3318  -0.2864  -0.1160   0.1129   0.1643   0.1713   0.1832   0.2544
     0.2762   0.3042   0.3316   0.3702   0.3756   0.3984   0.4286   0.4476
     0.4635   0.5055   0.5080   0.5332   0.5495   0.6011   0.6013   0.6337
     5.9082   5.9998   6.0185   6.1521   6.1744   6.3650   6.3683   6.4271
     6.4595   6.5035   6.5256   6.5373   6.5587   6.6403   6.6979   7.2316
     7.3296   7.3439   7.3620   7.3914   7.4063   7.4465   7.4498   7.4817
     7.4830   7.4887   7.5369   7.5907   7.6113   7.6588   7.6814   7.6876
     7.7130   7.7539   7.7540   7.8314   7.8421   8.1344   8.1587   8.2038
     8.2668   8.4092   8.5314   8.5435   8.5947   8.6332   8.7181   8.9702
     8.9812   8.9842   9.0100   9.0301   9.1366   9.1532   9.2156   9.2175
     9.2178   9.2807   9.2967   9.3263   9.3338   9.3430   9.4099   9.4246
     9.6940   9.7600   9.7833   9.8809   9.9136   9.9394  10.0944  10.1133
    12.3719  12.4639  12.6362  12.6942  12.7055  12.8346  13.5916  13.6063
    13.6400  13.6400  13.6698  13.6970  13.7428  13.7458  13.8401  13.8890
    13.9051  13.9510  13.9874  14.1644  14.1738  14.2437  14.3275  14.3496
    14.5925  14.6512  14.7059  15.0294  15.0775  15.1326  15.4468  15.6328
    15.6387  15.8014  16.2041  16.3562  16.5220  16.8455  16.9587  17.0490

          k = 0.0000 0.2500-0.4946 ( 41964 PWs)   bands (ev):

   -45.9794 -45.9794 -45.9787 -45.9787 -45.9783 -45.9783 -45.9776 -45.9776
   -22.4037 -22.4037 -22.4016 -22.4016 -22.4008 -22.4007 -22.3990 -22.3990
   -22.3715 -22.3715 -22.3692 -22.3692 -22.3640 -22.3640 -22.3609 -22.3609
   -22.3252 -22.3251 -22.3229 -22.3228 -22.3167 -22.3167 -22.3152 -22.3152
   -14.4713 -14.4712 -14.3985 -14.3984 -14.3723 -14.3722 -14.3194 -14.3193
    -6.6092  -6.6091  -6.5568  -6.5567  -6.5037  -6.5036  -6.1336  -6.1335
    -5.9094  -5.9093  -5.8960  -5.8960  -5.8492  -5.8491  -5.8293  -5.8292
    -5.7316  -5.7314  -5.7152  -5.7151  -5.7034  -5.7033  -5.6798  -5.6796
    -0.1444  -0.1443  -0.0633  -0.0632   0.1978   0.1979   0.2058   0.2058
     0.2984   0.2985   0.3076   0.3076   0.3521   0.3522   0.3885   0.3886
     0.5102   0.5102   0.5309   0.5309   0.5491   0.5491   0.5623   0.5623
     5.9894   5.9895   6.1228   6.1229   6.3321   6.3322   6.5657   6.5658
     6.7614   6.7614   6.8138   6.8139   6.9261   6.9262   6.9663   6.9664
     7.0150   7.0152   7.1116   7.1117   7.1677   7.1679   7.3975   7.3977
     7.4723   7.4724   7.5154   7.5155   7.6964   7.6965   7.7200   7.7201
     7.7661   7.7661   7.8082   7.8082   7.9506   7.9507   8.0144   8.0145
     8.3090   8.3091   8.3797   8.3797   8.7251   8.7252   8.8116   8.8117
     8.9140   8.9140   9.0709   9.0710   9.1213   9.1213   9.1325   9.1325
     9.1577   9.1578   9.4506   9.4506   9.5444   9.5445   9.5532   9.5533
     9.5961   9.5961   9.6096   9.6097   9.6542   9.6542  10.1012  10.1013
    12.4183  12.4183  13.1654  13.1654  13.1716  13.1717  13.2020  13.2021
    13.2993  13.2994  13.6080  13.6081  13.7639  13.7639  13.8736  13.8737
    13.9844  13.9844  13.9894  13.9895  14.1307  14.1307  14.2536  14.2536
    14.6416  14.6417  15.0205  15.0205  15.4885  15.4885  15.7780  15.7781
    16.2746  16.2748  16.3432  16.3434  16.5672  16.5674  16.7987  16.7988

          k = 0.0000-0.5000 0.0000 ( 41958 PWs)   bands (ev):

   -45.9795 -45.9795 -45.9786 -45.9786 -45.9784 -45.9784 -45.9775 -45.9775
   -22.4269 -22.4269 -22.4237 -22.4237 -22.3781 -22.3781 -22.3759 -22.3759
   -22.3718 -22.3718 -22.3689 -22.3689 -22.3460 -22.3460 -22.3433 -22.3433
   -22.3430 -22.3430 -22.3409 -22.3409 -22.3169 -22.3169 -22.3150 -22.3150
   -14.4813 -14.4813 -14.3880 -14.3880 -14.3791 -14.3791 -14.3123 -14.3123
    -6.6820  -6.6820  -6.5948  -6.5948  -6.5282  -6.5281  -5.9225  -5.9225
    -5.9121  -5.9121  -5.8630  -5.8630  -5.8315  -5.8315  -5.8301  -5.8301
    -5.7847  -5.7847  -5.7687  -5.7687  -5.7115  -5.7115  -5.6741  -5.6741
    -0.1355  -0.1355  -0.0862  -0.0862   0.0453   0.0453   0.3172   0.3172
     0.3198   0.3198   0.3566   0.3566   0.3712   0.3712   0.4354   0.4355
     0.4885   0.4886   0.4948   0.4948   0.5500   0.5500   0.5540   0.5540
     5.8948   5.8948   6.0886   6.0886   6.1255   6.1255   6.3994   6.3994
     6.6571   6.6572   6.7731   6.7732   6.9864   6.9865   7.0274   7.0274
     7.0478   7.0478   7.1177   7.1178   7.2043   7.2043   7.4311   7.4311
     7.4699   7.4700   7.6828   7.6829   7.7170   7.7170   7.7175   7.7175
     7.7258   7.7258   7.7763   7.7763   7.8273   7.8273   8.3052   8.3052
     8.5227   8.5227   8.6230   8.6230   8.7021   8.7021   8.7475   8.7475
     8.8042   8.8042   8.9655   8.9655   8.9924   8.9924   9.1406   9.1406
     9.1586   9.1586   9.4869   9.4869   9.6135   9.6135   9.6186   9.6186
     9.6334   9.6334   9.7266   9.7266   9.7527   9.7527  10.0692  10.0692
    12.4177  12.4177  13.0223  13.0223  13.0502  13.0502  13.0851  13.0851
    13.1033  13.1034  13.8696  13.8696  13.8754  13.8754  13.9162  13.9162
    13.9426  13.9426  14.1217  14.1217  14.1290  14.1290  14.3533  14.3533
    14.4603  14.4603  14.9602  14.9603  15.0140  15.0140  15.5294  15.5294
    16.1434  16.1434  16.2837  16.2837  16.4857  16.4857  17.0730  17.1171

          k = 0.0000-0.5000 0.2473 ( 41938 PWs)   bands (ev):

   -45.9794 -45.9794 -45.9787 -45.9787 -45.9783 -45.9783 -45.9776 -45.9776
   -22.4198 -22.4198 -22.4167 -22.4167 -22.3853 -22.3853 -22.3829 -22.3829
   -22.3714 -22.3714 -22.3693 -22.3693 -22.3456 -22.3456 -22.3437 -22.3437
   -22.3427 -22.3427 -22.3412 -22.3412 -22.3167 -22.3167 -22.3153 -22.3153
   -14.4679 -14.4679 -14.4019 -14.4019 -14.3694 -14.3694 -14.3222 -14.3222
    -6.6366  -6.6366  -6.5220  -6.5220  -6.5198  -6.5198  -6.0875  -6.0875
    -5.9190  -5.9190  -5.8818  -5.8818  -5.8157  -5.8156  -5.7961  -5.7961
    -5.7797  -5.7797  -5.7773  -5.7773  -5.7045  -5.7045  -5.6781  -5.6781
    -0.1183  -0.1183  -0.0578  -0.0578   0.1757   0.1757   0.2041   0.2041
     0.2892   0.2893   0.3057   0.3057   0.3455   0.3455   0.3962   0.3962
     0.5226   0.5226   0.5318   0.5318   0.5374   0.5374   0.5552   0.5552
     6.0016   6.0016   6.1148   6.1148   6.2919   6.2919   6.5434   6.5434
     6.7808   6.7808   6.8057   6.8057   6.9438   6.9438   6.9704   6.9704
     7.0393   7.0393   7.1668   7.1669   7.1965   7.1966   7.4274   7.4274
     7.5063   7.5063   7.5489   7.5489   7.7056   7.7056   7.7331   7.7331
     7.7464   7.7464   7.7649   7.7649   7.8280   7.8280   7.9784   7.9784
     8.3397   8.3397   8.3679   8.3679   8.7322   8.7322   8.8333   8.8333
     9.0286   9.0286   9.0349   9.0349   9.0435   9.0436   9.1201   9.1201
     9.1755   9.1755   9.3937   9.3937   9.4954   9.4954   9.5715   9.5715
     9.6476   9.6476   9.7012   9.7012   9.7312   9.7312   9.9474   9.9474
    12.6481  12.6481  13.0381  13.0381  13.0714  13.0715  13.1233  13.1233
    13.2555  13.2555  13.6801  13.6801  13.7421  13.7421  13.9164  13.9164
    13.9646  13.9646  13.9709  13.9709  14.1000  14.1001  14.2535  14.2535
    14.6958  14.6958  15.0006  15.0006  15.3910  15.3910  15.7155  15.7155
    16.3257  16.3257  16.5207  16.5207  16.5772  16.5773  16.9043  17.0797

          k = 0.0000-0.5000-0.4946 ( 41948 PWs)   bands (ev):

   -45.9790 -45.9790 -45.9790 -45.9790 -45.9780 -45.9780 -45.9780 -45.9780
   -22.4026 -22.4026 -22.4026 -22.4026 -22.3999 -22.3999 -22.3999 -22.3999
   -22.3704 -22.3704 -22.3703 -22.3703 -22.3446 -22.3446 -22.3446 -22.3446
   -22.3419 -22.3419 -22.3419 -22.3419 -22.3160 -22.3160 -22.3160 -22.3160
   -14.4352 -14.4352 -14.4351 -14.4351 -14.3460 -14.3460 -14.3460 -14.3459
    -6.5517  -6.5517  -6.5516  -6.5516  -6.3247  -6.3247  -6.3246  -6.3245
    -5.9279  -5.9278  -5.9278  -5.9278  -5.7893  -5.7893  -5.7892  -5.7892
    -5.7833  -5.7833  -5.7832  -5.7832  -5.6900  -5.6900  -5.6898  -5.6898
    -0.0285  -0.0285  -0.0285  -0.0285   0.1377   0.1377   0.1377   0.1378
     0.2684   0.2684   0.2684   0.2684   0.4301   0.4301   0.4301   0.4301
     0.4581   0.4581   0.4582   0.4582   0.5658   0.5658   0.5658   0.5658
     6.0884   6.0884   6.0885   6.0885   6.7139   6.7139   6.7140   6.7140
     6.8687   6.8687   6.8687   6.8688   7.0061   7.0061   7.0062   7.0062
     7.0801   7.0801   7.0801   7.0802   7.1571   7.1571   7.1572   7.1572
     7.5167   7.5167   7.5168   7.5168   7.6601   7.6601   7.6602   7.6602
     7.7204   7.7204   7.7205   7.7205   7.9469   7.9469   7.9470   7.9470
     8.0478   8.0478   8.0479   8.0479   8.7058   8.7058   8.7059   8.7059
     9.1545   9.1545   9.1545   9.1545   9.1970   9.1970   9.1971   9.1971
     9.2313   9.2314   9.2314   9.2314   9.5418   9.5418   9.5418   9.5418
     9.6529   9.6529   9.6530   9.6530   9.7172   9.7172   9.7173   9.7173
    13.0215  13.0216  13.0216  13.0216  13.2143  13.2143  13.2143  13.2143
    13.3827  13.3827  13.3827  13.3828  13.6074  13.6074  13.6075  13.6075
    14.0262  14.0262  14.0263  14.0263  14.0679  14.0679  14.0679  14.0679
    14.9308  14.9308  14.9308  14.9308  16.2014  16.2015  16.2015  16.2016
    16.3146  16.3147  16.3148  16.3148  16.7889  16.7889  16.7890  16.7891

          k = 0.2500 0.2500 0.0000 ( 41984 PWs)   bands (ev):

   -45.9797 -45.9789 -45.9789 -45.9788 -45.9782 -45.9780 -45.9780 -45.9773
   -22.4277 -22.4252 -22.4252 -22.4231 -22.3786 -22.3770 -22.3770 -22.3755
   -22.3650 -22.3650 -22.3628 -22.3624 -22.3620 -22.3620 -22.3602 -22.3600
   -22.3261 -22.3257 -22.3242 -22.3242 -22.3238 -22.3236 -22.3222 -22.3222
   -14.5079 -14.4246 -14.4245 -14.4048 -14.3637 -14.3489 -14.3488 -14.2980
    -6.7321  -6.7321  -6.6463  -6.6058  -6.4456  -6.2288  -6.2288  -5.9219
    -5.9009  -5.9009  -5.8764  -5.8764  -5.8507  -5.8280  -5.8098  -5.8052
    -5.7969  -5.7685  -5.7612  -5.7590  -5.7590  -5.6580  -5.6580  -5.6511
    -0.3546  -0.2333  -0.1364   0.1190   0.1190   0.2206   0.2377   0.2377
     0.2739   0.2894   0.3216   0.3615   0.3710   0.3710   0.4364   0.4513
     0.4514   0.5017   0.5017   0.5378   0.5837   0.5981   0.6038   0.6038
     5.9105   6.0119   6.0119   6.1217   6.1364   6.3782   6.3782   6.4216
     6.4216   6.4950   6.5163   6.6248   6.6248   6.6413   6.6469   7.1220
     7.3677   7.3907   7.3907   7.4321   7.4592   7.4690   7.4690   7.4862
     7.5032   7.5270   7.5270   7.6052   7.6052   7.6151   7.6782   7.6782
     7.7462   7.7502   7.7966   7.8248   7.8467   8.0688   8.0688   8.2587
     8.2588   8.4334   8.5193   8.5193   8.5419   8.5931   8.8483   8.8483
     8.9413   8.9508   8.9761   9.0444   9.0555   9.1158   9.1826   9.2596
     9.2596   9.2879   9.2879   9.3216   9.3619   9.3619   9.4568   9.4568
     9.7952   9.7993   9.8928   9.9274   9.9397   9.9397  10.0055  10.0255
    12.4531  12.5935  12.5998  12.6073  12.6073  12.7113  13.5785  13.6043
    13.6043  13.6311  13.6312  13.6980  13.7154  13.7154  13.8418  13.8745
    13.9207  13.9207  14.0067  14.1485  14.1485  14.2360  14.3237  14.3334
    14.6881  14.7145  14.7145  15.0048  15.0168  15.0301  15.6272  15.6272
    15.6806  15.7755  16.2375  16.2375  16.6931  17.0421  17.0904  17.0932

          k = 0.2500 0.2500 0.2473 ( 41946 PWs)   bands (ev):

   -45.9796 -45.9789 -45.9788 -45.9788 -45.9782 -45.9782 -45.9781 -45.9774
   -22.4206 -22.4182 -22.4182 -22.4162 -22.3858 -22.3841 -22.3841 -22.3825
   -22.3646 -22.3646 -22.3624 -22.3624 -22.3624 -22.3620 -22.3606 -22.3604
   -22.3258 -22.3254 -22.3242 -22.3239 -22.3239 -22.3239 -22.3225 -22.3225
   -14.4931 -14.4203 -14.4137 -14.4136 -14.3601 -14.3601 -14.3542 -14.3077
    -6.6634  -6.6634  -6.6143  -6.5809  -6.3725  -6.3066  -6.3066  -5.9726
    -5.9353  -5.8954  -5.8954  -5.8707  -5.8707  -5.8429  -5.8225  -5.8049
    -5.7837  -5.7543  -5.7521  -5.7450  -5.7450  -5.6798  -5.6797  -5.6748
    -0.2734  -0.2378   0.0459   0.1328   0.1587   0.1587   0.1923   0.2188
     0.2189   0.2767   0.2825   0.2876   0.3002   0.3002   0.3990   0.3991
     0.4177   0.5325   0.5546   0.5608   0.5608   0.6406   0.6407   0.6546
     6.0410   6.1382   6.1514   6.1514   6.3377   6.3859   6.3859   6.4829
     6.4829   6.6276   6.6310   6.6409   6.6451   6.7238   6.7238   7.1771
     7.2215   7.2215   7.3039   7.3173   7.4756   7.4756   7.4796   7.4860
     7.4860   7.5281   7.6106   7.6106   7.6309   7.6462   7.6766   7.6767
     7.6767   7.7153   7.7365   7.7461   7.8867   7.8868   7.9017   8.1918
     8.2877   8.2877   8.3261   8.3526   8.5659   8.5659   8.7963   8.9838
     9.0054   9.0332   9.0332   9.0713   9.1424   9.1424   9.1502   9.2312
     9.2312   9.2698   9.2867   9.3501   9.3501   9.3826   9.3999   9.3999
     9.6665   9.7168   9.7510   9.8097   9.8678   9.8679  10.0095  10.0174
    12.5666  12.6906  12.7281  12.7524  12.8137  12.8137  13.6252  13.6252
    13.6415  13.6634  13.6634  13.6794  13.6830  13.6830  13.6852  13.7503
    13.7503  13.7729  14.0265  14.0265  14.0399  14.1838  14.2052  14.2271
    15.0100  15.0254  15.0448  15.0448  15.0893  15.4655  15.6130  15.6130
    15.9116  16.0398  16.3476  16.3476  16.4742  16.9936  17.1299  17.2415

          k = 0.2500 0.2500-0.4946 ( 41938 PWs)   bands (ev):

   -45.9793 -45.9793 -45.9785 -45.9785 -45.9785 -45.9785 -45.9777 -45.9777
   -22.4033 -22.4033 -22.4012 -22.4012 -22.4012 -22.4012 -22.3994 -22.3994
   -22.3635 -22.3635 -22.3635 -22.3635 -22.3615 -22.3615 -22.3612 -22.3612
   -22.3250 -22.3250 -22.3246 -22.3246 -22.3232 -22.3232 -22.3232 -22.3232
   -14.4571 -14.4570 -14.3871 -14.3871 -14.3870 -14.3870 -14.3312 -14.3311
    -6.5669  -6.5667  -6.4906  -6.4906  -6.4905  -6.4905  -6.1864  -6.1863
    -5.9150  -5.9149  -5.8725  -5.8725  -5.8724  -5.8724  -5.8241  -5.8240
    -5.7430  -5.7429  -5.7305  -5.7304  -5.7203  -5.7203  -5.7202  -5.7202
    -0.0801  -0.0800  -0.0737  -0.0736   0.2101   0.2101   0.2101   0.2101
     0.2826   0.2827   0.2893   0.2893   0.2893   0.2894   0.3072   0.3072
     0.3401   0.3401   0.6365   0.6366   0.6366   0.6366   0.6404   0.6404
     6.1370   6.1371   6.3025   6.3025   6.3026   6.3026   6.6419   6.6420
     6.8217   6.8217   6.8218   6.8218   6.8454   6.8455   6.9208   6.9208
     7.1225   7.1225   7.1226   7.1226   7.2443   7.2444   7.3946   7.3947
     7.5058   7.5058   7.5059   7.5059   7.6052   7.6053   7.7017   7.7017
     7.7677   7.7677   7.8284   7.8284   7.8284   7.8284   8.0068   8.0069
     8.0616   8.0617   8.3489   8.3489   8.3489   8.3489   8.7622   8.7623
     9.0939   9.0939   9.0939   9.0939   9.1324   9.1325   9.2973   9.2973
     9.2974   9.2974   9.3979   9.3979   9.4968   9.4968   9.5409   9.5410
     9.5451   9.5451   9.6126   9.6127   9.6127   9.6127  10.0077  10.0079
    12.6381  12.6382  13.1784  13.1785  13.2054  13.2055  13.2777  13.2777
    13.2777  13.2778  13.6685  13.6685  13.6686  13.6686  13.8005  13.8005
    13.8005  13.8005  13.9358  13.9358  13.9693  13.9693  14.1223  14.1224
    15.0182  15.0182  15.4831  15.4831  15.4831  15.4831  15.8663  15.8664
    16.3837  16.3839  16.4854  16.4856  16.7647  16.7649  16.8112  16.8113

          k = 0.2500-0.5000 0.0000 ( 41940 PWs)   bands (ev):

   -45.9793 -45.9793 -45.9786 -45.9786 -45.9784 -45.9784 -45.9777 -45.9777
   -22.4265 -22.4265 -22.4242 -22.4242 -22.3778 -22.3778 -22.3763 -22.3763
   -22.3638 -22.3638 -22.3611 -22.3611 -22.3455 -22.3455 -22.3434 -22.3434
   -22.3429 -22.3429 -22.3412 -22.3412 -22.3250 -22.3250 -22.3230 -22.3230
   -14.4667 -14.4666 -14.3944 -14.3944 -14.3771 -14.3771 -14.3236 -14.3236
    -6.6465  -6.6465  -6.5837  -6.5836  -6.4518  -6.4518  -6.0338  -6.0338
    -5.8908  -5.8908  -5.8595  -5.8595  -5.8340  -5.8340  -5.8336  -5.8336
    -5.7917  -5.7916  -5.7669  -5.7669  -5.7255  -5.7255  -5.7020  -5.7020
    -0.1535  -0.1535  -0.0027  -0.0027   0.1694   0.1694   0.1912   0.1912
     0.2704   0.2704   0.3007   0.3007   0.3840   0.3840   0.4037   0.4038
     0.4881   0.4881   0.5350   0.5350   0.5455   0.5456   0.5510   0.5510
     5.9963   5.9963   6.0911   6.0911   6.3193   6.3193   6.5385   6.5385
     6.6741   6.6742   6.9247   6.9247   6.9279   6.9280   6.9626   6.9626
     7.0952   7.0952   7.1197   7.1198   7.1833   7.1833   7.4431   7.4431
     7.5252   7.5253   7.5478   7.5478   7.6991   7.6991   7.7148   7.7148
     7.7492   7.7492   7.8366   7.8366   7.8747   7.8747   8.0655   8.0655
     8.2896   8.2897   8.4404   8.4404   8.5372   8.5372   8.6584   8.6584
     8.9621   8.9621   8.9693   8.9693   9.0794   9.0794   9.1840   9.1841
     9.2366   9.2366   9.5318   9.5318   9.5939   9.5939   9.5947   9.5947
     9.6069   9.6069   9.6416   9.6416   9.7717   9.7717   9.9510   9.9510
    12.5551  12.5551  13.0618  13.0618  13.0830  13.0830  13.1043  13.1043
    13.2266  13.2266  13.6387  13.6387  13.7586  13.7586  13.8867  13.8867
    13.9543  13.9543  13.9594  13.9594  14.0949  14.0949  14.2385  14.2385
    14.7299  14.7299  14.9752  14.9752  15.4684  15.4684  15.7282  15.7282
    16.3964  16.3965  16.5154  16.5154  16.5297  16.5298  16.8829  16.8854

          k = 0.2500-0.5000 0.2473 ( 41944 PWs)   bands (ev):

   -45.9792 -45.9792 -45.9786 -45.9786 -45.9784 -45.9784 -45.9778 -45.9778
   -22.4194 -22.4194 -22.4172 -22.4172 -22.3850 -22.3850 -22.3833 -22.3833
   -22.3634 -22.3634 -22.3615 -22.3615 -22.3452 -22.3451 -22.3433 -22.3433
   -22.3431 -22.3431 -22.3415 -22.3415 -22.3247 -22.3247 -22.3233 -22.3233
   -14.4538 -14.4538 -14.3904 -14.3904 -14.3842 -14.3841 -14.3341 -14.3341
    -6.5969  -6.5969  -6.5128  -6.5127  -6.4520  -6.4520  -6.1323  -6.1323
    -5.8988  -5.8988  -5.8757  -5.8757  -5.8358  -5.8358  -5.8217  -5.8217
    -5.7966  -5.7966  -5.7697  -5.7697  -5.7309  -5.7309  -5.7104  -5.7104
    -0.0934  -0.0934  -0.0341  -0.0341   0.1848   0.1848   0.1860   0.1861
     0.2854   0.2854   0.2908   0.2908   0.2981   0.2981   0.3211   0.3211
     0.3407   0.3407   0.6289   0.6289   0.6364   0.6364   0.6376   0.6376
     6.1428   6.1428   6.2779   6.2779   6.2950   6.2950   6.6062   6.6062
     6.7639   6.7639   6.8699   6.8699   6.8902   6.8903   6.9166   6.9166
     7.1251   7.1251   7.1867   7.1867   7.2364   7.2364   7.4254   7.4254
     7.5319   7.5320   7.5355   7.5355   7.6033   7.6033   7.7082   7.7082
     7.7870   7.7870   7.7895   7.7895   7.8189   7.8190   8.0233   8.0233
     8.0741   8.0741   8.2499   8.2499   8.4565   8.4565   8.5788   8.5788
     9.0984   9.0984   9.1063   9.1063   9.1370   9.1370   9.2025   9.2025
     9.3174   9.3174   9.4622   9.4622   9.4633   9.4633   9.5674   9.5674
     9.6092   9.6092   9.6558   9.6558   9.7413   9.7413   9.8645   9.8645
    12.7582  12.7582  13.1133  13.1133  13.1606  13.1606  13.2051  13.2051
    13.2313  13.2314  13.6963  13.6963  13.6978  13.6978  13.7839  13.7839
    13.7910  13.7910  13.9089  13.9089  13.9548  13.9548  14.1186  14.1186
    15.0649  15.0649  15.4069  15.4069  15.4650  15.4650  15.8131  15.8132
    16.5375  16.5375  16.5653  16.5654  16.7373  16.7373  16.9075  16.9082

          k = 0.2500-0.5000-0.4946 ( 41940 PWs)   bands (ev):

   -45.9789 -45.9789 -45.9789 -45.9789 -45.9781 -45.9781 -45.9781 -45.9781
   -22.4022 -22.4022 -22.4022 -22.4022 -22.4003 -22.4003 -22.4003 -22.4003
   -22.3624 -22.3624 -22.3624 -22.3624 -22.3442 -22.3442 -22.3442 -22.3442
   -22.3423 -22.3423 -22.3423 -22.3423 -22.3240 -22.3240 -22.3240 -22.3240
   -14.4224 -14.4224 -14.4223 -14.4223 -14.3593 -14.3593 -14.3593 -14.3592
    -6.4984  -6.4984  -6.4983  -6.4982  -6.3329  -6.3329  -6.3328  -6.3327
    -5.9137  -5.9137  -5.9136  -5.9136  -5.8116  -5.8116  -5.8115  -5.8115
    -5.7870  -5.7870  -5.7869  -5.7869  -5.7306  -5.7306  -5.7305  -5.7305
     0.0142   0.0142   0.0143   0.0143   0.0896   0.0896   0.0896   0.0896
     0.2229   0.2229   0.2229   0.2229   0.2708   0.2708   0.2708   0.2708
     0.5495   0.5495   0.5495   0.5495   0.6938   0.6938   0.6938   0.6938
     6.2559   6.2559   6.2560   6.2560   6.6204   6.6204   6.6205   6.6205
     6.8274   6.8274   6.8274   6.8274   7.0805   7.0805   7.0806   7.0806
     7.0967   7.0967   7.0967   7.0967   7.3076   7.3076   7.3076   7.3076
     7.3928   7.3928   7.3928   7.3928   7.7285   7.7286   7.7286   7.7286
     7.7366   7.7366   7.7366   7.7366   7.8795   7.8795   7.8795   7.8795
     7.9386   7.9386   7.9387   7.9387   8.3791   8.3791   8.3792   8.3792
     9.2183   9.2183   9.2184   9.2184   9.2856   9.2856   9.2856   9.2856
     9.3817   9.3817   9.3818   9.3818   9.5335   9.5335   9.5335   9.5335
     9.5913   9.5913   9.5913   9.5913   9.7104   9.7104   9.7106   9.7106
    13.1282  13.1282  13.1283  13.1283  13.2700  13.2700  13.2701  13.2701
    13.4232  13.4232  13.4233  13.4233  13.5757  13.5757  13.5757  13.5757
    13.8453  13.8453  13.8453  13.8454  13.8946  13.8946  13.8946  13.8946
    15.4082  15.4082  15.4082  15.4082  16.2295  16.2295  16.2296  16.2296
    16.3067  16.3068  16.3069  16.3069  16.9858  16.9858  16.9859  16.9860

          k =-0.5000-0.5000 0.0000 ( 41836 PWs)   bands (ev):

   -45.9789 -45.9789 -45.9789 -45.9789 -45.9780 -45.9780 -45.9780 -45.9780
   -22.4253 -22.4253 -22.4253 -22.4253 -22.3770 -22.3770 -22.3770 -22.3770
   -22.3449 -22.3449 -22.3449 -22.3449 -22.3441 -22.3441 -22.3441 -22.3441
   -22.3423 -22.3423 -22.3423 -22.3423 -22.3418 -22.3418 -22.3418 -22.3418
   -14.4309 -14.4308 -14.4308 -14.4308 -14.3505 -14.3505 -14.3505 -14.3505
    -6.5903  -6.5903  -6.5903  -6.5903  -6.2565  -6.2564  -6.2564  -6.2564
    -5.8450  -5.8450  -5.8450  -5.8450  -5.8291  -5.8290  -5.8290  -5.8290
    -5.8214  -5.8214  -5.8214  -5.8214  -5.7259  -5.7259  -5.7259  -5.7259
    -0.0494  -0.0494  -0.0494  -0.0494   0.1946   0.1947   0.1947   0.1947
     0.2483   0.2483   0.2484   0.2484   0.4198   0.4198   0.4198   0.4198
     0.4478   0.4478   0.4478   0.4478   0.5662   0.5662   0.5662   0.5662
     6.0783   6.0783   6.0783   6.0783   6.7053   6.7053   6.7053   6.7053
     6.7188   6.7188   6.7188   6.7188   7.1351   7.1351   7.1351   7.1351
     7.1407   7.1407   7.1407   7.1407   7.2058   7.2058   7.2058   7.2058
     7.5057   7.5057   7.5057   7.5057   7.6748   7.6748   7.6748   7.6748
     7.7414   7.7414   7.7414   7.7414   8.0497   8.0497   8.0497   8.0497
     8.0606   8.0607   8.0607   8.0607   8.3548   8.3548   8.3548   8.3548
     9.0992   9.0992   9.0992   9.0992   9.3314   9.3314   9.3314   9.3314
     9.3599   9.3599   9.3599   9.3599   9.5353   9.5353   9.5353   9.5353
     9.6236   9.6236   9.6236   9.6236   9.7521   9.7521   9.7521   9.7521
    12.9593  12.9593  12.9593  12.9593  13.1870  13.1870  13.1870  13.1871
    13.3753  13.3753  13.3753  13.3754  13.5832  13.5832  13.5832  13.5833
    14.0055  14.0055  14.0055  14.0055  14.0419  14.0419  14.0419  14.0419
    14.9484  14.9484  14.9484  14.9484  16.2514  16.2514  16.2514  16.2514
    16.3385  16.3385  16.3385  16.3385  16.9001  16.9002  16.9002  16.9002

          k =-0.5000-0.5000 0.2473 ( 41952 PWs)   bands (ev):

   -45.9788 -45.9788 -45.9788 -45.9788 -45.9782 -45.9782 -45.9782 -45.9782
   -22.4183 -22.4183 -22.4183 -22.4183 -22.3842 -22.3842 -22.3842 -22.3842
   -22.3445 -22.3445 -22.3445 -22.3445 -22.3437 -22.3437 -22.3437 -22.3437
   -22.3427 -22.3427 -22.3427 -22.3427 -22.3422 -22.3422 -22.3422 -22.3422
   -14.4193 -14.4193 -14.4192 -14.4192 -14.3625 -14.3625 -14.3624 -14.3624
    -6.5298  -6.5298  -6.5298  -6.5298  -6.2834  -6.2834  -6.2834  -6.2834
    -5.8664  -5.8664  -5.8664  -5.8664  -5.8390  -5.8390  -5.8390  -5.8389
    -5.8144  -5.8144  -5.8144  -5.8144  -5.7415  -5.7415  -5.7415  -5.7415
    -0.0055  -0.0055  -0.0055  -0.0055   0.1264   0.1264   0.1264   0.1264
     0.2050   0.2050   0.2050   0.2050   0.2729   0.2729   0.2729   0.2729
     0.5512   0.5512   0.5512   0.5512   0.6887   0.6887   0.6888   0.6888
     6.2500   6.2500   6.2500   6.2500   6.6165   6.6165   6.6165   6.6165
     6.7391   6.7391   6.7391   6.7391   7.1412   7.1412   7.1412   7.1412
     7.1927   7.1928   7.1928   7.1928   7.3035   7.3035   7.3035   7.3036
     7.3666   7.3666   7.3667   7.3667   7.7481   7.7481   7.7481   7.7481
     7.7549   7.7549   7.7549   7.7549   7.9553   7.9554   7.9554   7.9554
     7.9590   7.9590   7.9590   7.9590   8.1732   8.1732   8.1732   8.1732
     9.2525   9.2525   9.2525   9.2525   9.2908   9.2908   9.2908   9.2908
     9.3949   9.3949   9.3949   9.3949   9.5269   9.5269   9.5269   9.5269
     9.6272   9.6272   9.6272   9.6272   9.7008   9.7008   9.7008   9.7008
    13.1152  13.1153  13.1153  13.1153  13.2671  13.2671  13.2671  13.2671
    13.4120  13.4120  13.4120  13.4120  13.5507  13.5507  13.5507  13.5507
    13.8401  13.8401  13.8401  13.8401  13.8820  13.8820  13.8820  13.8820
    15.3827  15.3827  15.3827  15.3827  16.2709  16.2709  16.2709  16.2709
    16.3305  16.3305  16.3305  16.3306  17.0796  17.0796  17.0797  17.0797

          k =-0.5000-0.5000-0.4946 ( 41912 PWs)   bands (ev):

   -45.9785 -45.9785 -45.9785 -45.9785 -45.9785 -45.9785 -45.9785 -45.9785
   -22.4013 -22.4013 -22.4013 -22.4013 -22.4013 -22.4013 -22.4013 -22.4013
   -22.3436 -22.3436 -22.3436 -22.3436 -22.3436 -22.3436 -22.3436 -22.3436
   -22.3430 -22.3430 -22.3430 -22.3430 -22.3429 -22.3429 -22.3429 -22.3429
   -14.3911 -14.3911 -14.3911 -14.3911 -14.3911 -14.3910 -14.3910 -14.3910
    -6.3915  -6.3915  -6.3915  -6.3915  -6.3914  -6.3913  -6.3913  -6.3913
    -5.8707  -5.8707  -5.8707  -5.8707  -5.8706  -5.8706  -5.8706  -5.8706
    -5.7785  -5.7785  -5.7785  -5.7785  -5.7784  -5.7783  -5.7783  -5.7783
     0.0999   0.0999   0.1000   0.1000   0.1000   0.1000   0.1000   0.1000
     0.1291   0.1291   0.1291   0.1291   0.1291   0.1291   0.1291   0.1292
     0.6959   0.6959   0.6959   0.6959   0.6959   0.6959   0.6959   0.6959
     6.4561   6.4561   6.4561   6.4561   6.4562   6.4562   6.4562   6.4562
     7.0748   7.0748   7.0748   7.0748   7.0749   7.0749   7.0749   7.0749
     7.1633   7.1633   7.1633   7.1633   7.1633   7.1634   7.1634   7.1634
     7.6690   7.6690   7.6690   7.6690   7.6690   7.6690   7.6690   7.6691
     7.8072   7.8072   7.8072   7.8072   7.8073   7.8073   7.8073   7.8073
     7.8174   7.8174   7.8174   7.8174   7.8175   7.8175   7.8175   7.8175
     9.4264   9.4264   9.4264   9.4264   9.4264   9.4264   9.4264   9.4264
     9.4302   9.4302   9.4302   9.4302   9.4303   9.4303   9.4303   9.4303
     9.6203   9.6203   9.6203   9.6203   9.6204   9.6204   9.6204   9.6204
    13.4369  13.4369  13.4369  13.4369  13.4369  13.4369  13.4369  13.4369
    13.5110  13.5110  13.5110  13.5110  13.5111  13.5111  13.5111  13.5111
    13.5417  13.5417  13.5417  13.5417  13.5418  13.5418  13.5418  13.5418
    16.2693  16.2693  16.2693  16.2694  16.2695  16.2695  16.2695  16.2695
    16.3059  16.3059  16.3059  16.3059  16.3059  16.3060  16.3060  16.3060

     highest occupied, lowest unoccupied level (ev):    10.2653   12.0411

!    total energy              =   -5887.16574049 Ry
     total all-electron energy =   -147371.619313 Ry
     estimated scf accuracy    <          3.1E-11 Ry

     The total energy is the sum of the following terms:
     one-electron contribution =    -548.23189753 Ry
     hartree contribution      =     480.68411827 Ry
     xc contribution           =    -485.47023369 Ry
     ewald contribution        =   -1653.96634398 Ry
     one-center paw contrib.   =   -3680.18138356 Ry

     convergence has been achieved in  42 iterations

     Forces acting on atoms (cartesian axes, Ry/au):

     atom    1 type  1   force =     0.00000000    0.00000000   -0.00147831
     atom    2 type  1   force =     0.00000000    0.00000000   -0.00144892
     atom    3 type  1   force =     0.00000000    0.00000000   -0.00146774
     atom    4 type  1   force =     0.00000000    0.00000000   -0.00145458
     atom    5 type  1   force =     0.00000000    0.00000000   -0.00146774
     atom    6 type  1   force =     0.00000000    0.00000000   -0.00145458
     atom    7 type  1   force =     0.00000000    0.00000000   -0.00148213
     atom    8 type  1   force =     0.00000000    0.00000000   -0.00144680
     atom    9 type  2   force =     0.00000015    0.00000015   -0.00141845
     atom   10 type  2   force =    -0.00000041   -0.00000041   -0.00140966
     atom   11 type  2   force =     0.00000015   -0.00000015   -0.00141845
     atom   12 type  2   force =    -0.00000041    0.00000041   -0.00140966
     atom   13 type  2   force =    -0.00000015    0.00000015   -0.00141845
     atom   14 type  2   force =     0.00000041   -0.00000041   -0.00140966
     atom   15 type  2   force =    -0.00000015   -0.00000015   -0.00141845
     atom   16 type  2   force =     0.00000041    0.00000041   -0.00140966
     atom   17 type  3   force =    -0.00000139   -0.00000139    0.00265340
     atom   18 type  3   force =    -0.00000228   -0.00000228    0.00266129
     atom   19 type  3   force =    -0.00000139    0.00000139    0.00265340
     atom   20 type  3   force =    -0.00000228    0.00000228    0.00266129
     atom   21 type  3   force =     0.00000139   -0.00000139    0.00265340
     atom   22 type  3   force =     0.00000228   -0.00000228    0.00266129
     atom   23 type  3   force =     0.00000139    0.00000139    0.00265340
     atom   24 type  3   force =     0.00000228    0.00000228    0.00266129
     atom   25 type  3   force =    -0.00000199    0.00000000    0.00010406
     atom   26 type  3   force =    -0.00000527    0.00000000    0.00010852
     atom   27 type  3   force =     0.00000088    0.00000000    0.00010842
     atom   28 type  3   force =     0.00000280    0.00000000    0.00011762
     atom   29 type  3   force =     0.00000199    0.00000000    0.00010406
     atom   30 type  3   force =     0.00000527    0.00000000    0.00010852
     atom   31 type  3   force =    -0.00000088    0.00000000    0.00010842
     atom   32 type  3   force =    -0.00000280    0.00000000    0.00011762
     atom   33 type  3   force =     0.00000000   -0.00000199    0.00010406
     atom   34 type  3   force =     0.00000000   -0.00000527    0.00010852
     atom   35 type  3   force =     0.00000000    0.00000199    0.00010406
     atom   36 type  3   force =     0.00000000    0.00000527    0.00010852
     atom   37 type  3   force =    -0.00000000    0.00000088    0.00010842
     atom   38 type  3   force =    -0.00000000    0.00000280    0.00011762
     atom   39 type  3   force =     0.00000000   -0.00000088    0.00010842
     atom   40 type  3   force =     0.00000000   -0.00000280    0.00011762

     Total force =     0.009476     Total SCF correction =     0.000004


     Computing stress (Cartesian axis) and pressure

          total   stress  (Ry/bohr**3)                   (kbar)     P=      -19.83
  -0.00016534   0.00000000   0.00000000          -24.32        0.00        0.00
   0.00000000  -0.00016534   0.00000000            0.00      -24.32        0.00
   0.00000000   0.00000000  -0.00007379            0.00        0.00      -10.86


     Writing all to output data dir ./tmp/80_ecut_4_kmesh_PBE.save/ :
     XML data file, charge density, pseudopotentials, collected wavefunctions

     init_run     :      1.98s CPU      2.14s WALL (       1 calls)
     electrons    :    111.06s CPU    114.10s WALL (       1 calls)
     forces       :      0.61s CPU      0.65s WALL (       1 calls)
     stress       :      1.38s CPU      1.41s WALL (       1 calls)

     Called by init_run:
     wfcinit      :      0.91s CPU      0.99s WALL (       1 calls)
     potinit      :      0.54s CPU      0.57s WALL (       1 calls)
     hinit0       :      0.14s CPU      0.17s WALL (       1 calls)

     Called by electrons:
     c_bands      :     94.84s CPU     96.95s WALL (      42 calls)
     sum_band     :     10.78s CPU     11.22s WALL (      42 calls)
     v_of_rho     :      1.51s CPU      1.76s WALL (      43 calls)
     newd         :      1.20s CPU      1.25s WALL (      43 calls)
     PAW_pot      :      2.09s CPU      2.15s WALL (      43 calls)
     mix_rho      :      0.24s CPU      0.26s WALL (      42 calls)

     Called by c_bands:
     init_us_2    :      2.02s CPU      2.04s WALL (     261 calls)
     cegterg      :     85.20s CPU     87.17s WALL (     129 calls)

     Called by *egterg:
     cdiaghg      :     12.24s CPU     12.81s WALL (     750 calls)
     h_psi        :     41.67s CPU     42.45s WALL (     756 calls)
     s_psi        :      6.58s CPU      6.64s WALL (     756 calls)
     g_psi        :      0.11s CPU      0.11s WALL (     624 calls)

     Called by h_psi:
     h_psi:calbec :      8.20s CPU      8.43s WALL (     756 calls)
     vloc_psi     :     26.55s CPU     26.86s WALL (     756 calls)
                                        0.00s GPU  (     756 calls)
     add_vuspsi   :      6.65s CPU      6.69s WALL (     756 calls)

     General routines
     calbec       :     12.17s CPU     12.51s WALL (     933 calls)
     fft          :      0.98s CPU      1.37s WALL (     582 calls)
     ffts         :      0.44s CPU      0.48s WALL (      85 calls)
     fftw         :     29.32s CPU     29.68s WALL (  162030 calls)
     interpolate  :      0.53s CPU      0.57s WALL (      43 calls)

     Parallel routines

     PWSCF        :    116.30s CPU    121.14s WALL


   This run was terminated on:   4: 4: 7  21May2026            

=------------------------------------------------------------------------------=
   JOB DONE.
=------------------------------------------------------------------------------=
