
     Program PWSCF v.7.5 starts on 21May2026 at  3:55:23 

     This program is part of the open-source Quantum ESPRESSO suite
     for quantum simulation of materials; please cite
         "P. Giannozzi et al., J. Phys.:Condens. Matter 21 395502 (2009);
         "P. Giannozzi et al., J. Phys.:Condens. Matter 29 465901 (2017);
         "P. Giannozzi et al., J. Chem. Phys. 152 154105 (2020);
          URL http://www.quantum-espresso.org", 
     in publications or presentations arising from this work. More details at
     http://www.quantum-espresso.org/quote

     Parallel version (MPI & OpenMP), running on     192 processor cores
     Number of MPI processes:               192
     Threads/MPI process:                     1

     MPI processes distributed on     1 nodes
     747401 MiB available memory on the printing compute node when the environment starts

     Waiting for input...
     Reading input from standard input

     Current dimensions of program PWSCF are:
     Max number of different atomic species (ntypx) = 10
     Max number of k-points (npk) =  40000
     Max angular momentum in pseudopotentials (lmaxx) =  4
     file Ba.pbe-spn-kjpaw_psl.1.0.0.UPF: wavefunction(s)  5S 6S renormalized
     file Ti.pbe-spn-kjpaw_psl.1.0.0.UPF: wavefunction(s)  3S 3P 3D renormalized
     file O.pbe-n-kjpaw_psl.1.0.0.UPF: wavefunction(s)  2S 2P renormalized

     IMPORTANT: XC functional enforced from input :
     Exchange-correlation= PBESOL
                           (   1   4  10   8   0   0   0)
     Any further DFT definition will be discarded
     Please, verify this is what you really want

     Found identity + ( -0.5000 -0.5000  0.0000) symmetry
     This is a supercell, fractional translations are disabled

     K-points division:     npool     =       8
     R & G space division:  proc/nbgrp/npool/nimage =      24
     Subspace diagonalization in iterative solution of the eigenvalue problem:
     one sub-group per band group will be used
     ELPA distributed-memory algorithm (size of sub-group:  2*  2 procs)


     Parallelization info
     --------------------
     sticks:   dense  smooth     PW     G-vecs:    dense   smooth      PW
     Min         240     120     33                13981     4944     727
     Max         242     122     34                13987     4947     732
     Sum        5785    2893    805               335575   118681   17493

     Using Slab Decomposition



     bravais-lattice index     =            6
     lattice parameter (alat)  =      15.0876  a.u.
     unit-cell volume          =    3472.3239 (a.u.)^3
     number of atoms/cell      =           40
     number of atomic types    =            3
     number of electrons       =       320.00
     number of Kohn-Sham states=          200
     kinetic-energy cutoff     =      40.0000  Ry
     charge density cutoff     =     320.0000  Ry
     scf convergence threshold =      1.0E-10
     mixing beta               =       0.3000
     number of iterations used =           16  plain     mixing
     Exchange-correlation= PBESOL
                           (   1   4  10   8   0   0   0)

     celldm(1)=  15.087600  celldm(2)=   0.000000  celldm(3)=   1.011020
     celldm(4)=   0.000000  celldm(5)=   0.000000  celldm(6)=   0.000000

     crystal axes: (cart. coord. in units of alat)
               a(1) = (   1.000000   0.000000   0.000000 )  
               a(2) = (   0.000000   1.000000   0.000000 )  
               a(3) = (   0.000000   0.000000   1.011020 )  

     reciprocal axes: (cart. coord. in units 2 pi/alat)
               b(1) = (  1.000000  0.000000  0.000000 )  
               b(2) = (  0.000000  1.000000  0.000000 )  
               b(3) = (  0.000000  0.000000  0.989100 )  


     PseudoPot. # 1 for Ba read from file:
     /home/kylay/scratch/BTO/pseuds/Ba.pbe-spn-kjpaw_psl.1.0.0.UPF
     MD5 check sum: 7cfe25f1fe7574a4710541d5a11d6531
     Pseudo is Projector augmented-wave + core cor, Zval = 10.0
     Generated using &quot;atomic&quot; code by A. Dal Corso  v.6.2.2
     Shape of augmentation charge: PSQ
     Using radial grid of 1251 points,  7 beta functions with: 
                l(1) =   0
                l(2) =   0
                l(3) =   0
                l(4) =   1
                l(5) =   1
                l(6) =   2
                l(7) =   2
     Q(r) pseudized with 0 coefficients 


     PseudoPot. # 2 for Ti read from file:
     /home/kylay/scratch/BTO/pseuds/Ti.pbe-spn-kjpaw_psl.1.0.0.UPF
     MD5 check sum: 01f69b0d8ba4438b2e03ac6ea4af1c0b
     Pseudo is Projector augmented-wave + core cor, Zval = 12.0
     Generated using &quot;atomic&quot; code by A. Dal Corso  v.6.2.2
     Shape of augmentation charge: PSQ
     Using radial grid of 1177 points,  6 beta functions with: 
                l(1) =   0
                l(2) =   0
                l(3) =   1
                l(4) =   1
                l(5) =   2
                l(6) =   2
     Q(r) pseudized with 0 coefficients 


     PseudoPot. # 3 for O  read from file:
     /home/kylay/scratch/BTO/pseuds/O.pbe-n-kjpaw_psl.1.0.0.UPF
     MD5 check sum: e99d9cef9b487d1ca56f5b95ecd0fd7a
     Pseudo is Projector augmented-wave + core cor, Zval =  6.0
     Generated using &quot;atomic&quot; code by A. Dal Corso  v.6.3
     Shape of augmentation charge: PSQ
     Using radial grid of 1095 points,  4 beta functions with: 
                l(1) =   0
                l(2) =   0
                l(3) =   1
                l(4) =   1
     Q(r) pseudized with 0 coefficients 


     atomic species   valence    mass     pseudopotential
     Ba               10.00   137.32700     Ba( 1.00)
     Ti               12.00    47.86700     Ti( 1.00)
     O                 6.00    15.99900     O ( 1.00)

      8 Sym. Ops. (no inversion) found



   Cartesian axes

     site n.     atom                  positions (alat units)
         1        Ba     tau(   1) = (   0.0000000   0.0000000  -0.0010787  )
         2        Ba     tau(   2) = (   0.0000000   0.0000000   0.5044220  )
         3        Ba     tau(   3) = (   0.0000000   0.5000000  -0.0010832  )
         4        Ba     tau(   4) = (   0.0000000   0.5000000   0.5044235  )
         5        Ba     tau(   5) = (   0.5000000   0.0000000  -0.0010832  )
         6        Ba     tau(   6) = (   0.5000000   0.0000000   0.5044235  )
         7        Ba     tau(   7) = (   0.5000000   0.5000000  -0.0010766  )
         8        Ba     tau(   8) = (   0.5000000   0.5000000   0.5044202  )
         9        Ti     tau(   9) = (   0.2500002   0.2500002   0.2436990  )
        10        Ti     tau(  10) = (   0.2500007   0.2500007   0.7492042  )
        11        Ti     tau(  11) = (   0.2500002   0.7499998   0.2436990  )
        12        Ti     tau(  12) = (   0.2500007   0.7499993   0.7492042  )
        13        Ti     tau(  13) = (   0.7499998   0.2500002   0.2436990  )
        14        Ti     tau(  14) = (   0.7499993   0.2500007   0.7492042  )
        15        Ti     tau(  15) = (   0.7499998   0.7499998   0.2436990  )
        16        Ti     tau(  16) = (   0.7499993   0.7499993   0.7492042  )
        17        O      tau(  17) = (   0.2500011   0.2500011   0.0113903  )
        18        O      tau(  18) = (   0.2500007   0.2500007   0.5168954  )
        19        O      tau(  19) = (   0.2500011   0.7499989   0.0113903  )
        20        O      tau(  20) = (   0.2500007   0.7499993   0.5168954  )
        21        O      tau(  21) = (   0.7499989   0.2500011   0.0113903  )
        22        O      tau(  22) = (   0.7499993   0.2500007   0.5168954  )
        23        O      tau(  23) = (   0.7499989   0.7499989   0.0113903  )
        24        O      tau(  24) = (   0.7499993   0.7499993   0.5168954  )
        25        O      tau(  25) = (   0.2500005   0.0000000   0.2592128  )
        26        O      tau(  26) = (   0.2500020   0.0000000   0.7647195  )
        27        O      tau(  27) = (   0.2499999   0.5000000   0.2592107  )
        28        O      tau(  28) = (   0.2499998   0.5000000   0.7647148  )
        29        O      tau(  29) = (   0.7499995   0.0000000   0.2592128  )
        30        O      tau(  30) = (   0.7499980   0.0000000   0.7647195  )
        31        O      tau(  31) = (   0.7500001   0.5000000   0.2592107  )
        32        O      tau(  32) = (   0.7500002   0.5000000   0.7647148  )
        33        O      tau(  33) = (   0.0000000   0.2500005   0.2592128  )
        34        O      tau(  34) = (   0.0000000   0.2500020   0.7647195  )
        35        O      tau(  35) = (   0.0000000   0.7499995   0.2592128  )
        36        O      tau(  36) = (   0.0000000   0.7499980   0.7647195  )
        37        O      tau(  37) = (   0.5000000   0.2499999   0.2592107  )
        38        O      tau(  38) = (   0.5000000   0.2499998   0.7647148  )
        39        O      tau(  39) = (   0.5000000   0.7500001   0.2592107  )
        40        O      tau(  40) = (   0.5000000   0.7500002   0.7647148  )

     number of k points=    75
                       cart. coord. in units 2pi/alat
        k(    1) = (   0.0000000   0.0000000   0.0000000), wk =   0.0039062
        k(    2) = (   0.0000000   0.0000000   0.1236375), wk =   0.0078125
        k(    3) = (   0.0000000   0.0000000   0.2472750), wk =   0.0078125
        k(    4) = (   0.0000000   0.0000000   0.3709125), wk =   0.0078125
        k(    5) = (   0.0000000   0.0000000  -0.4945501), wk =   0.0039062
        k(    6) = (   0.0000000   0.1250000   0.0000000), wk =   0.0156250
        k(    7) = (   0.0000000   0.1250000   0.1236375), wk =   0.0312500
        k(    8) = (   0.0000000   0.1250000   0.2472750), wk =   0.0312500
        k(    9) = (   0.0000000   0.1250000   0.3709125), wk =   0.0312500
        k(   10) = (   0.0000000   0.1250000  -0.4945501), wk =   0.0156250
        k(   11) = (   0.0000000   0.2500000   0.0000000), wk =   0.0156250
        k(   12) = (   0.0000000   0.2500000   0.1236375), wk =   0.0312500
        k(   13) = (   0.0000000   0.2500000   0.2472750), wk =   0.0312500
        k(   14) = (   0.0000000   0.2500000   0.3709125), wk =   0.0312500
        k(   15) = (   0.0000000   0.2500000  -0.4945501), wk =   0.0156250
        k(   16) = (   0.0000000   0.3750000   0.0000000), wk =   0.0156250
        k(   17) = (   0.0000000   0.3750000   0.1236375), wk =   0.0312500
        k(   18) = (   0.0000000   0.3750000   0.2472750), wk =   0.0312500
        k(   19) = (   0.0000000   0.3750000   0.3709125), wk =   0.0312500
        k(   20) = (   0.0000000   0.3750000  -0.4945501), wk =   0.0156250
        k(   21) = (   0.0000000  -0.5000000   0.0000000), wk =   0.0078125
        k(   22) = (   0.0000000  -0.5000000   0.1236375), wk =   0.0156250
        k(   23) = (   0.0000000  -0.5000000   0.2472750), wk =   0.0156250
        k(   24) = (   0.0000000  -0.5000000   0.3709125), wk =   0.0156250
        k(   25) = (   0.0000000  -0.5000000  -0.4945501), wk =   0.0078125
        k(   26) = (   0.1250000   0.1250000   0.0000000), wk =   0.0156250
        k(   27) = (   0.1250000   0.1250000   0.1236375), wk =   0.0312500
        k(   28) = (   0.1250000   0.1250000   0.2472750), wk =   0.0312500
        k(   29) = (   0.1250000   0.1250000   0.3709125), wk =   0.0312500
        k(   30) = (   0.1250000   0.1250000  -0.4945501), wk =   0.0156250
        k(   31) = (   0.1250000   0.2500000   0.0000000), wk =   0.0312500
        k(   32) = (   0.1250000   0.2500000   0.1236375), wk =   0.0625000
        k(   33) = (   0.1250000   0.2500000   0.2472750), wk =   0.0625000
        k(   34) = (   0.1250000   0.2500000   0.3709125), wk =   0.0625000
        k(   35) = (   0.1250000   0.2500000  -0.4945501), wk =   0.0312500
        k(   36) = (   0.1250000   0.3750000   0.0000000), wk =   0.0312500
        k(   37) = (   0.1250000   0.3750000   0.1236375), wk =   0.0625000
        k(   38) = (   0.1250000   0.3750000   0.2472750), wk =   0.0625000
        k(   39) = (   0.1250000   0.3750000   0.3709125), wk =   0.0625000
        k(   40) = (   0.1250000   0.3750000  -0.4945501), wk =   0.0312500
        k(   41) = (   0.1250000  -0.5000000   0.0000000), wk =   0.0156250
        k(   42) = (   0.1250000  -0.5000000   0.1236375), wk =   0.0312500
        k(   43) = (   0.1250000  -0.5000000   0.2472750), wk =   0.0312500
        k(   44) = (   0.1250000  -0.5000000   0.3709125), wk =   0.0312500
        k(   45) = (   0.1250000  -0.5000000  -0.4945501), wk =   0.0156250
        k(   46) = (   0.2500000   0.2500000   0.0000000), wk =   0.0156250
        k(   47) = (   0.2500000   0.2500000   0.1236375), wk =   0.0312500
        k(   48) = (   0.2500000   0.2500000   0.2472750), wk =   0.0312500
        k(   49) = (   0.2500000   0.2500000   0.3709125), wk =   0.0312500
        k(   50) = (   0.2500000   0.2500000  -0.4945501), wk =   0.0156250
        k(   51) = (   0.2500000   0.3750000   0.0000000), wk =   0.0312500
        k(   52) = (   0.2500000   0.3750000   0.1236375), wk =   0.0625000
        k(   53) = (   0.2500000   0.3750000   0.2472750), wk =   0.0625000
        k(   54) = (   0.2500000   0.3750000   0.3709125), wk =   0.0625000
        k(   55) = (   0.2500000   0.3750000  -0.4945501), wk =   0.0312500
        k(   56) = (   0.2500000  -0.5000000   0.0000000), wk =   0.0156250
        k(   57) = (   0.2500000  -0.5000000   0.1236375), wk =   0.0312500
        k(   58) = (   0.2500000  -0.5000000   0.2472750), wk =   0.0312500
        k(   59) = (   0.2500000  -0.5000000   0.3709125), wk =   0.0312500
        k(   60) = (   0.2500000  -0.5000000  -0.4945501), wk =   0.0156250
        k(   61) = (   0.3750000   0.3750000   0.0000000), wk =   0.0156250
        k(   62) = (   0.3750000   0.3750000   0.1236375), wk =   0.0312500
        k(   63) = (   0.3750000   0.3750000   0.2472750), wk =   0.0312500
        k(   64) = (   0.3750000   0.3750000   0.3709125), wk =   0.0312500
        k(   65) = (   0.3750000   0.3750000  -0.4945501), wk =   0.0156250
        k(   66) = (   0.3750000  -0.5000000   0.0000000), wk =   0.0156250
        k(   67) = (   0.3750000  -0.5000000   0.1236375), wk =   0.0312500
        k(   68) = (   0.3750000  -0.5000000   0.2472750), wk =   0.0312500
        k(   69) = (   0.3750000  -0.5000000   0.3709125), wk =   0.0312500
        k(   70) = (   0.3750000  -0.5000000  -0.4945501), wk =   0.0156250
        k(   71) = (  -0.5000000  -0.5000000   0.0000000), wk =   0.0039062
        k(   72) = (  -0.5000000  -0.5000000   0.1236375), wk =   0.0078125
        k(   73) = (  -0.5000000  -0.5000000   0.2472750), wk =   0.0078125
        k(   74) = (  -0.5000000  -0.5000000   0.3709125), wk =   0.0078125
        k(   75) = (  -0.5000000  -0.5000000  -0.4945501), wk =   0.0039062

     Dense  grid:   335575 G-vectors     FFT dimensions: (  90,  90,  90)

     Smooth grid:   118681 G-vectors     FFT dimensions: (  64,  64,  64)

     Estimated max dynamical RAM per process >      57.96 MB

     Estimated total dynamical RAM >       9.75 GB

     Check: negative core charge=   -0.000007
     Cannot read rho : file not found

     Initial potential from superposition of free atoms

     starting charge     319.8521, renormalised to     320.0000
     Message from routine qexsd_readschema :
     xml data file ./tmp/40_ecut_8_kmesh_PBE.save/data-file-schema.xml not found
     Cannot read wfcs: file not found
     Starting wfcs are  216 randomized atomic wfcs
     Checking if some PAW data can be deallocated... 

     total cpu time spent up to now is        3.5 secs

     per-process dynamical memory:   133.6 Mb

     Self-consistent Calculation

     iteration #  1     ecut=    40.00 Ry     beta= 0.30
     Davidson diagonalization with overlap
     c_bands:  5 eigenvalues not converged
     c_bands:  5 eigenvalues not converged
     c_bands:  2 eigenvalues not converged
     c_bands:  2 eigenvalues not converged
     c_bands:  1 eigenvalues not converged
     c_bands:  1 eigenvalues not converged
     ethr =  1.00E-05,  avg # of iterations = 38.1

     total cpu time spent up to now is       23.7 secs

     total energy              =   -5884.23500873 Ry
     estimated scf accuracy    <      13.66259168 Ry

     iteration #  2     ecut=    40.00 Ry     beta= 0.30
     Davidson diagonalization with overlap
     ethr =  4.27E-03,  avg # of iterations =  2.0

     total cpu time spent up to now is       26.6 secs

     total energy              =   -5886.12705659 Ry
     estimated scf accuracy    <       0.50931441 Ry

     iteration #  3     ecut=    40.00 Ry     beta= 0.30
     Davidson diagonalization with overlap
     ethr =  1.59E-04,  avg # of iterations = 13.2

     total cpu time spent up to now is       35.1 secs

     total energy              =   -5886.89205871 Ry
     estimated scf accuracy    <       0.79450921 Ry

     iteration #  4     ecut=    40.00 Ry     beta= 0.30
     Davidson diagonalization with overlap
     ethr =  1.59E-04,  avg # of iterations =  2.1

     total cpu time spent up to now is       38.0 secs

     total energy              =   -5886.96370792 Ry
     estimated scf accuracy    <       0.12900186 Ry

     iteration #  5     ecut=    40.00 Ry     beta= 0.30
     Davidson diagonalization with overlap
     c_bands:  1 eigenvalues not converged
     c_bands:  2 eigenvalues not converged
     ethr =  4.03E-05,  avg # of iterations = 12.1

     total cpu time spent up to now is       44.5 secs

     total energy              =   -5886.89609669 Ry
     estimated scf accuracy    <       0.59191702 Ry

     iteration #  6     ecut=    40.00 Ry     beta= 0.30
     Davidson diagonalization with overlap
     ethr =  4.03E-05,  avg # of iterations =  5.2

     total cpu time spent up to now is       49.2 secs

     total energy              =   -5886.97900146 Ry
     estimated scf accuracy    <       0.09153917 Ry

     iteration #  7     ecut=    40.00 Ry     beta= 0.30
     Davidson diagonalization with overlap
     ethr =  2.86E-05,  avg # of iterations =  3.4

     total cpu time spent up to now is       52.9 secs

     total energy              =   -5886.99245997 Ry
     estimated scf accuracy    <       0.01474167 Ry

     iteration #  8     ecut=    40.00 Ry     beta= 0.30
     Davidson diagonalization with overlap
     c_bands:  1 eigenvalues not converged
     ethr =  4.61E-06,  avg # of iterations = 11.7

     total cpu time spent up to now is       59.1 secs

     total energy              =   -5886.99551337 Ry
     estimated scf accuracy    <       0.01862977 Ry

     iteration #  9     ecut=    40.00 Ry     beta= 0.30
     Davidson diagonalization with overlap
     ethr =  4.61E-06,  avg # of iterations =  2.5

     total cpu time spent up to now is       62.5 secs

     total energy              =   -5886.99741263 Ry
     estimated scf accuracy    <       0.00179284 Ry

     iteration # 10     ecut=    40.00 Ry     beta= 0.30
     Davidson diagonalization with overlap
     ethr =  5.60E-07,  avg # of iterations =  5.9

     total cpu time spent up to now is       68.0 secs

     total energy              =   -5886.99878822 Ry
     estimated scf accuracy    <       0.00023703 Ry

     iteration # 11     ecut=    40.00 Ry     beta= 0.30
     Davidson diagonalization with overlap
     c_bands:  1 eigenvalues not converged
     ethr =  7.41E-08,  avg # of iterations =  5.1

     total cpu time spent up to now is       72.9 secs

     total energy              =   -5886.99884415 Ry
     estimated scf accuracy    <       0.00050043 Ry

     iteration # 12     ecut=    40.00 Ry     beta= 0.30
     Davidson diagonalization with overlap
     ethr =  7.41E-08,  avg # of iterations =  2.1

     total cpu time spent up to now is       76.0 secs

     total energy              =   -5886.99874804 Ry
     estimated scf accuracy    <       0.00029031 Ry

     iteration # 13     ecut=    40.00 Ry     beta= 0.30
     Davidson diagonalization with overlap
     ethr =  7.41E-08,  avg # of iterations =  6.0

     total cpu time spent up to now is       80.0 secs

     total energy              =   -5886.99882023 Ry
     estimated scf accuracy    <       0.00003194 Ry

     iteration # 14     ecut=    40.00 Ry     beta= 0.30
     Davidson diagonalization with overlap
     ethr =  9.98E-09,  avg # of iterations =  6.9

     total cpu time spent up to now is       84.5 secs

     total energy              =   -5886.99881690 Ry
     estimated scf accuracy    <       0.00003237 Ry

     iteration # 15     ecut=    40.00 Ry     beta= 0.30
     Davidson diagonalization with overlap
     ethr =  9.98E-09,  avg # of iterations =  1.3

     total cpu time spent up to now is       87.2 secs

     total energy              =   -5886.99881453 Ry
     estimated scf accuracy    <       0.00000969 Ry

     iteration # 16     ecut=    40.00 Ry     beta= 0.30
     Davidson diagonalization with overlap
     ethr =  3.03E-09,  avg # of iterations =  5.3

     total cpu time spent up to now is       91.3 secs

     total energy              =   -5886.99881774 Ry
     estimated scf accuracy    <       0.00000106 Ry

     iteration # 17     ecut=    40.00 Ry     beta= 0.30
     Davidson diagonalization with overlap
     ethr =  3.33E-10,  avg # of iterations =  4.8

     total cpu time spent up to now is       95.4 secs

     total energy              =   -5886.99881810 Ry
     estimated scf accuracy    <       0.00000096 Ry

     iteration # 18     ecut=    40.00 Ry     beta= 0.30
     Davidson diagonalization with overlap
     ethr =  2.99E-10,  avg # of iterations =  1.9

     total cpu time spent up to now is       98.3 secs

     total energy              =   -5886.99881768 Ry
     estimated scf accuracy    <       0.00000100 Ry

     iteration # 19     ecut=    40.00 Ry     beta= 0.30
     Davidson diagonalization with overlap
     ethr =  2.99E-10,  avg # of iterations =  2.0

     total cpu time spent up to now is      101.3 secs

     total energy              =   -5886.99881774 Ry
     estimated scf accuracy    <       0.00000017 Ry

     iteration # 20     ecut=    40.00 Ry     beta= 0.30
     Davidson diagonalization with overlap
     ethr =  5.25E-11,  avg # of iterations =  5.7

     total cpu time spent up to now is      106.8 secs

     total energy              =   -5886.99881782 Ry
     estimated scf accuracy    <          7.7E-09 Ry

     iteration # 21     ecut=    40.00 Ry     beta= 0.30
     Davidson diagonalization with overlap
     ethr =  2.42E-12,  avg # of iterations =  6.0

     total cpu time spent up to now is      112.4 secs

     total energy              =   -5886.99881782 Ry
     estimated scf accuracy    <       0.00000008 Ry

     iteration # 22     ecut=    40.00 Ry     beta= 0.30
     Davidson diagonalization with overlap
     ethr =  2.42E-12,  avg # of iterations =  1.7

     total cpu time spent up to now is      115.2 secs

     total energy              =   -5886.99881779 Ry
     estimated scf accuracy    <       0.00000006 Ry

     iteration # 23     ecut=    40.00 Ry     beta= 0.30
     Davidson diagonalization with overlap
     ethr =  2.42E-12,  avg # of iterations =  6.0

     total cpu time spent up to now is      120.8 secs

     total energy              =   -5886.99881781 Ry
     estimated scf accuracy    <          8.3E-09 Ry

     iteration # 24     ecut=    40.00 Ry     beta= 0.30
     Davidson diagonalization with overlap
     ethr =  2.42E-12,  avg # of iterations =  2.0

     total cpu time spent up to now is      123.9 secs

     total energy              =   -5886.99881781 Ry
     estimated scf accuracy    <          7.5E-10 Ry

     iteration # 25     ecut=    40.00 Ry     beta= 0.30
     Davidson diagonalization with overlap
     ethr =  2.34E-13,  avg # of iterations =  5.5

     total cpu time spent up to now is      129.6 secs

     total energy              =   -5886.99881781 Ry
     estimated scf accuracy    <          4.4E-09 Ry

     iteration # 26     ecut=    40.00 Ry     beta= 0.30
     Davidson diagonalization with overlap
     ethr =  2.34E-13,  avg # of iterations =  1.4

     total cpu time spent up to now is      132.4 secs

     total energy              =   -5886.99881781 Ry
     estimated scf accuracy    <          2.9E-09 Ry

     iteration # 27     ecut=    40.00 Ry     beta= 0.30
     Davidson diagonalization with overlap
     ethr =  2.34E-13,  avg # of iterations =  2.0

     total cpu time spent up to now is      135.4 secs

     total energy              =   -5886.99881781 Ry
     estimated scf accuracy    <          1.9E-09 Ry

     iteration # 28     ecut=    40.00 Ry     beta= 0.30
     Davidson diagonalization with overlap
     ethr =  2.34E-13,  avg # of iterations =  1.4

     total cpu time spent up to now is      138.2 secs

     total energy              =   -5886.99881781 Ry
     estimated scf accuracy    <          1.4E-09 Ry

     iteration # 29     ecut=    40.00 Ry     beta= 0.30
     Davidson diagonalization with overlap
     ethr =  2.34E-13,  avg # of iterations =  2.3

     total cpu time spent up to now is      141.5 secs

     total energy              =   -5886.99881781 Ry
     estimated scf accuracy    <          3.3E-10 Ry

     iteration # 30     ecut=    40.00 Ry     beta= 0.30
     Davidson diagonalization with overlap
     ethr =  1.02E-13,  avg # of iterations =  4.5

     total cpu time spent up to now is      145.5 secs

     End of self-consistent calculation

          k = 0.0000 0.0000 0.0000 ( 14883 PWs)   bands (ev):

   -46.0192 -46.0183 -46.0181 -46.0181 -46.0172 -46.0172 -46.0169 -46.0161
   -22.4624 -22.4587 -22.4587 -22.4560 -22.4129 -22.4106 -22.4106 -22.4086
   -22.4067 -22.4067 -22.4034 -22.4034 -22.4031 -22.4031 -22.4006 -22.4006
   -22.3514 -22.3514 -22.3494 -22.3494 -22.3492 -22.3492 -22.3475 -22.3475
   -14.5358 -14.4209 -14.4113 -14.4113 -14.3402 -14.3402 -14.3320 -14.2698
    -6.8518  -6.8518  -6.8020  -6.6006  -6.3115  -6.2031  -6.2031  -5.9593
    -5.9593  -5.9568  -5.8953  -5.8953  -5.8646  -5.8310  -5.8039  -5.8039
    -5.8007  -5.8007  -5.7809  -5.7139  -5.6255  -5.6255  -5.5629  -5.5629
    -0.4669  -0.4669  -0.4043   0.2147   0.2147   0.2310   0.2310   0.2787
     0.2876   0.2876   0.2895   0.2895   0.4483   0.4483   0.4525   0.4525
     0.4708   0.4708   0.6675   0.6726   0.6726   0.6945   0.6945   0.7386
     5.7130   5.8889   5.9137   5.9137   6.0855   6.0855   6.1369   6.1624
     6.2377   6.2377   6.4001   6.4007   6.4007   6.4247   6.4423   7.3387
     7.3387   7.3934   7.3934   7.4407   7.4407   7.4412   7.4412   7.4505
     7.4505   7.5484   7.5484   7.7732   7.7732   7.7995   7.8906   7.9146
     7.9146   7.9224   7.9224   8.2250   8.2250   8.2706   8.2783   8.2865
     8.2865   8.3865   8.3865   8.4571   8.5262   8.5262   8.5495   8.5495
     8.8954   8.8954   9.0716   9.1960   9.1960   9.2363   9.2363   9.3291
     9.3291   9.3383   9.3383   9.3562   9.3563   9.5700   9.5700   9.8636
     9.9267   9.9267  10.0402  10.0402  10.1091  10.1091  10.2020  10.2708
    12.0620  12.2187  12.3838  12.3838  12.5076  12.5076  13.8263  13.8263
    13.8584  13.8584  13.8857  13.8857  13.8921  13.8921  13.9074  13.9074
    13.9152  13.9152  14.2548  14.2548  14.2868  14.3761  14.3819  14.4577
    14.4577  14.5041  14.5041  14.5094  14.5315  14.9884  15.0725  15.1995
    15.1995  15.2194  16.2017  16.2017  16.4063  16.6835  16.8793  16.8794

          k = 0.0000 0.0000 0.1236 ( 14867 PWs)   bands (ev):

   -46.0192 -46.0183 -46.0181 -46.0181 -46.0172 -46.0172 -46.0169 -46.0161
   -22.4605 -22.4569 -22.4569 -22.4541 -22.4148 -22.4125 -22.4125 -22.4104
   -22.4066 -22.4066 -22.4035 -22.4035 -22.4030 -22.4030 -22.4007 -22.4007
   -22.3513 -22.3513 -22.3495 -22.3495 -22.3491 -22.3491 -22.3476 -22.3476
   -14.5315 -14.4254 -14.4087 -14.4086 -14.3429 -14.3429 -14.3297 -14.2722
    -6.8326  -6.8326  -6.7890  -6.5994  -6.2926  -6.2449  -6.2449  -5.9584
    -5.9406  -5.9406  -5.8931  -5.8931  -5.8634  -5.8322  -5.8025  -5.7946
    -5.7946  -5.7945  -5.7945  -5.7305  -5.6326  -5.6326  -5.5720  -5.5720
    -0.4424  -0.4424  -0.3706   0.1869   0.1869   0.2469   0.2469   0.2922
     0.2923   0.2953   0.2953   0.2965   0.4419   0.4419   0.4444   0.4444
     0.4780   0.4780   0.6164   0.6645   0.6645   0.6751   0.6751   0.7213
     5.7410   5.8896   5.9479   5.9479   6.1269   6.1269   6.2110   6.2240
     6.2299   6.2299   6.4253   6.4323   6.4323   6.4418   6.4436   7.3420
     7.3421   7.3919   7.3920   7.4323   7.4323   7.4644   7.4644   7.4728
     7.4728   7.5794   7.5794   7.7165   7.7165   7.7431   7.7694   7.7694
     7.8200   7.9109   7.9109   8.2379   8.2379   8.2953   8.3226   8.3226
     8.3242   8.3452   8.3519   8.3519   8.5454   8.5455   8.7454   8.7454
     8.8501   8.8501   9.0356   9.1613   9.1613   9.2564   9.2564   9.2755
     9.2755   9.3010   9.3010   9.3167   9.3168   9.5822   9.5822   9.7712
     9.9118   9.9118  10.0193  10.0193  10.0628  10.0628  10.2044  10.2681
    12.0677  12.2126  12.4496  12.4496  12.5675  12.5676  13.8276  13.8276
    13.8386  13.8386  13.8577  13.8577  13.8594  13.8594  13.8862  13.8862
    13.9332  13.9332  14.2295  14.2295  14.2962  14.3758  14.3789  14.4770
    14.4770  14.5002  14.5362  14.5362  14.6307  15.1106  15.1493  15.1969
    15.1969  15.2942  16.2468  16.2468  16.3569  16.6867  16.9778  17.0313

          k = 0.0000 0.0000 0.2473 ( 14835 PWs)   bands (ev):

   -46.0191 -46.0184 -46.0180 -46.0180 -46.0173 -46.0173 -46.0167 -46.0162
   -22.4552 -22.4517 -22.4517 -22.4490 -22.4202 -22.4177 -22.4177 -22.4155
   -22.4062 -22.4062 -22.4039 -22.4039 -22.4027 -22.4027 -22.4010 -22.4010
   -22.3511 -22.3511 -22.3497 -22.3497 -22.3490 -22.3490 -22.3477 -22.3477
   -14.5194 -14.4381 -14.4011 -14.4010 -14.3508 -14.3507 -14.3230 -14.2790
    -6.7769  -6.7769  -6.7532  -6.6009  -6.3417  -6.3417  -6.2383  -5.9571
    -5.9095  -5.9095  -5.8875  -5.8875  -5.8636  -5.8597  -5.8359  -5.7765
    -5.7765  -5.7756  -5.7682  -5.7682  -5.6528  -5.6528  -5.5978  -5.5978
    -0.3720  -0.3720  -0.2725   0.1089   0.1089   0.2929   0.2929   0.3061
     0.3061   0.3118   0.3118   0.3470   0.4222   0.4223   0.4240   0.4240
     0.4774   0.4988   0.4988   0.6206   0.6206   0.6415   0.6415   0.6719
     5.8010   5.8910   6.0244   6.0244   6.2088   6.2088   6.2479   6.2479
     6.3996   6.4134   6.4307   6.4402   6.5407   6.5407   6.5868   7.3506
     7.3506   7.3691   7.3691   7.3832   7.3832   7.3883   7.3883   7.5314
     7.5314   7.5332   7.5332   7.5805   7.6224   7.6658   7.6658   7.7551
     7.7551   7.8756   7.8756   8.0486   8.2552   8.2552   8.2781   8.2781
     8.3712   8.4402   8.4402   8.4540   8.6021   8.6021   8.7350   8.7350
     8.9342   9.0659   9.0659   9.0713   9.0713   9.1382   9.1382   9.2017
     9.2017   9.2245   9.2245   9.3191   9.3191   9.5367   9.6154   9.6154
     9.8694   9.8694   9.9353   9.9353   9.9492   9.9492  10.2135  10.2604
    12.0832  12.1934  12.6333  12.6333  12.7334  12.7334  13.6892  13.6892
    13.7175  13.7175  13.8336  13.8336  13.8589  13.8589  13.8979  13.8979
    13.9931  13.9931  14.1568  14.1568  14.3193  14.3776  14.3783  14.4024
    14.4024  14.4740  14.7224  14.7224  14.9057  15.1822  15.1822  15.3663
    15.4453  15.5117  16.2012  16.3913  16.3913  16.6722  16.8010  17.2096

          k = 0.0000 0.0000 0.3709 ( 14798 PWs)   bands (ev):

   -46.0189 -46.0186 -46.0178 -46.0178 -46.0174 -46.0174 -46.0166 -46.0163
   -22.4473 -22.4439 -22.4439 -22.4413 -22.4282 -22.4256 -22.4256 -22.4232
   -22.4057 -22.4057 -22.4044 -22.4044 -22.4023 -22.4023 -22.4014 -22.4014
   -22.3508 -22.3508 -22.3501 -22.3501 -22.3487 -22.3487 -22.3480 -22.3480
   -14.5010 -14.4570 -14.3897 -14.3896 -14.3624 -14.3624 -14.3130 -14.2892
    -6.7033  -6.6901  -6.6901  -6.6167  -6.4599  -6.4599  -6.1557  -5.9531
    -5.9393  -5.8882  -5.8882  -5.8817  -5.8817  -5.8542  -5.8414  -5.8369
    -5.7492  -5.7492  -5.7289  -5.7288  -5.6823  -5.6823  -5.6366  -5.6366
    -0.2653  -0.2653  -0.1188  -0.0054  -0.0054   0.2841   0.3287   0.3288
     0.3369   0.3369   0.3638   0.3638   0.3914   0.3914   0.3976   0.3976
     0.4222   0.5305   0.5305   0.5412   0.5412   0.5979   0.6076   0.6076
     5.8525   5.8896   6.0960   6.0960   6.1796   6.1796   6.4334   6.4390
     6.4443   6.4443   6.6675   6.7019   6.7445   6.7445   6.8540   7.0196
     7.0196   7.2416   7.2416   7.3311   7.3312   7.3617   7.3617   7.3813
     7.3813   7.6085   7.6085   7.6261   7.6261   7.6469   7.7266   7.7266
     7.7966   7.7966   7.8158   7.8158   8.1142   8.1142   8.3484   8.3484
     8.4864   8.5907   8.5907   8.6167   8.6168   8.6613   8.6916   8.6916
     8.7926   8.9398   8.9398   9.0297   9.0297   9.0410   9.0410   9.1249
     9.1249   9.2353   9.3783   9.3783   9.4283   9.4283   9.6694   9.6694
     9.7632   9.7632   9.8087   9.8087   9.8234   9.8234  10.2251  10.2501
    12.1113  12.1674  12.8959  12.8959  12.9704  12.9704  13.4584  13.4584
    13.5006  13.5006  13.8387  13.8387  13.8532  13.8532  13.9239  13.9239
    14.0662  14.0662  14.0823  14.0823  14.3054  14.3054  14.3560  14.3776
    14.3820  14.4381  14.9192  14.9192  15.1433  15.1433  15.2630  15.6893
    15.8526  15.8800  15.9444  16.4601  16.5710  16.6490  16.6490  16.7596

          k = 0.0000 0.0000-0.4946 ( 14774 PWs)   bands (ev):

   -46.0188 -46.0188 -46.0176 -46.0176 -46.0176 -46.0176 -46.0164 -46.0164
   -22.4378 -22.4378 -22.4347 -22.4347 -22.4347 -22.4347 -22.4323 -22.4323
   -22.4050 -22.4050 -22.4050 -22.4050 -22.4019 -22.4019 -22.4018 -22.4018
   -22.3504 -22.3504 -22.3504 -22.3504 -22.3483 -22.3483 -22.3483 -22.3483
   -14.4792 -14.4791 -14.3761 -14.3761 -14.3761 -14.3760 -14.3012 -14.3011
    -6.6530  -6.6529  -6.5808  -6.5808  -6.5806  -6.5806  -6.0558  -6.0557
    -5.8971  -5.8970  -5.8802  -5.8802  -5.8801  -5.8801  -5.8479  -5.8478
    -5.7163  -5.7163  -5.7161  -5.7161  -5.6827  -5.6827  -5.6826  -5.6825
    -0.1370  -0.1370  -0.1369  -0.1369   0.0746   0.0748   0.3583   0.3583
     0.3584   0.3584   0.3669   0.3669   0.3669   0.3669   0.4507   0.4507
     0.4508   0.4508   0.5102   0.5103   0.5686   0.5686   0.5686   0.5686
     5.8796   5.8797   6.1447   6.1447   6.1448   6.1448   6.4361   6.4362
     6.7056   6.7056   6.7058   6.7058   6.9945   6.9946   7.0063   7.0063
     7.0064   7.0064   7.0245   7.0246   7.2239   7.2241   7.3724   7.3724
     7.3725   7.3725   7.6770   7.6770   7.6770   7.6770   7.7277   7.7277
     7.7278   7.7278   7.9538   7.9538   7.9539   7.9539   8.4542   8.4542
     8.4543   8.4543   8.6325   8.6326   8.8086   8.8087   8.8087   8.8087
     8.8246   8.8247   8.8247   8.8247   8.9309   8.9310   9.0462   9.0462
     9.0463   9.0463   9.5820   9.5820   9.5820   9.5820   9.6341   9.6341
     9.6341   9.6341   9.7372   9.7372   9.7373   9.7373  10.2372  10.2373
    12.1379  12.1380  13.1846  13.1846  13.1847  13.1847  13.2399  13.2399
    13.2400  13.2400  13.8469  13.8469  13.8470  13.8470  13.9853  13.9853
    13.9853  13.9853  14.1883  14.1883  14.1883  14.1883  14.3798  14.3798
    14.3969  14.3970  15.0635  15.0635  15.0636  15.0636  15.6234  15.6235
    16.0708  16.0710  16.2845  16.2847  16.2957  16.2959  16.9974  16.9975

          k = 0.0000 0.1250 0.0000 ( 14863 PWs)   bands (ev):

   -46.0192 -46.0183 -46.0181 -46.0181 -46.0172 -46.0171 -46.0170 -46.0161
   -22.4623 -22.4588 -22.4586 -22.4560 -22.4128 -22.4107 -22.4106 -22.4087
   -22.4066 -22.4046 -22.4033 -22.4032 -22.4013 -22.4011 -22.4008 -22.3986
   -22.3535 -22.3515 -22.3513 -22.3513 -22.3495 -22.3494 -22.3493 -22.3476
   -14.5312 -14.4179 -14.4162 -14.4083 -14.3433 -14.3375 -14.3351 -14.2725
    -6.8380  -6.8335  -6.7827  -6.6026  -6.3358  -6.2329  -6.1827  -5.9541
    -5.9529  -5.9506  -5.8968  -5.8904  -5.8632  -5.8274  -5.8016  -5.7981
    -5.7975  -5.7914  -5.7883  -5.7232  -5.6490  -5.6328  -5.5816  -5.5717
    -0.4419  -0.4345  -0.3762   0.2026   0.2220   0.2309   0.2374   0.2588
     0.2848   0.2960   0.3029   0.3054   0.4378   0.4455   0.4476   0.4563
     0.4635   0.4711   0.6185   0.6591   0.6635   0.6743   0.6794   0.7196
     5.7427   5.9142   5.9233   5.9453   6.1140   6.1559   6.1616   6.1792
     6.2285   6.2986   6.4025   6.4068   6.4509   6.4561   6.4795   7.3633
     7.3674   7.3884   7.4195   7.4210   7.4433   7.4478   7.4501   7.4642
     7.4796   7.5472   7.5689   7.7147   7.7689   7.7995   7.8466   7.8492
     7.8583   7.8872   7.9119   7.9458   8.0114   8.1890   8.3148   8.3206
     8.3931   8.4173   8.4781   8.5164   8.5586   8.5692   8.6507   8.7655
     8.8268   8.8573   9.0399   9.0522   9.1989   9.2128   9.2162   9.2867
     9.3366   9.3513   9.3584   9.3804   9.3959   9.4934   9.5118   9.7526
     9.8819   9.9384  10.0184  10.0446  10.0675  10.1061  10.1768  10.2254
    12.1491  12.2931  12.3896  12.4156  12.5019  12.5369  13.7704  13.8064
    13.8199  13.8339  13.8424  13.8801  13.8878  13.8881  13.8925  13.9071
    13.9095  13.9200  14.2215  14.2518  14.2678  14.4493  14.4631  14.4678
    14.4730  14.4759  14.4962  14.5398  14.5810  14.9969  15.1514  15.1970
    15.2977  15.3327  16.1608  16.2574  16.4529  16.7235  16.9411  17.1628

          k = 0.0000 0.1250 0.1236 ( 14852 PWs)   bands (ev):

   -46.0192 -46.0183 -46.0181 -46.0180 -46.0172 -46.0171 -46.0169 -46.0161
   -22.4604 -22.4570 -22.4568 -22.4542 -22.4147 -22.4126 -22.4124 -22.4105
   -22.4065 -22.4045 -22.4034 -22.4031 -22.4014 -22.4010 -22.4008 -22.3987
   -22.3534 -22.3516 -22.3512 -22.3512 -22.3495 -22.3494 -22.3492 -22.3476
   -14.5270 -14.4223 -14.4135 -14.4057 -14.3461 -14.3403 -14.3328 -14.2749
    -6.8193  -6.8143  -6.7702  -6.6005  -6.3169  -6.2667  -6.2254  -5.9562
    -5.9392  -5.9335  -5.8948  -5.8881  -5.8619  -5.8288  -5.8129  -5.7956
    -5.7893  -5.7887  -5.7857  -5.7394  -5.6530  -5.6392  -5.5904  -5.5801
    -0.4210  -0.4177  -0.3332   0.1926   0.2035   0.2187   0.2465   0.2613
     0.2833   0.3018   0.3130   0.3287   0.4196   0.4307   0.4362   0.4499
     0.4707   0.4958   0.6131   0.6160   0.6545   0.6554   0.6634   0.7053
     5.7719   5.9245   5.9483   5.9815   6.1563   6.1976   6.2170   6.2210
     6.2477   6.2901   6.4337   6.4426   6.4580   6.4794   6.4820   7.3652
     7.3709   7.3821   7.4198   7.4384   7.4477   7.4479   7.4671   7.4691
     7.5010   7.5765   7.5957   7.6751   7.6752   7.7558   7.7664   7.7818
     7.7857   7.8682   7.8912   7.9013   8.0049   8.2023   8.3456   8.3564
     8.3580   8.3689   8.4353   8.5771   8.6617   8.6685   8.7548   8.7633
     8.8020   8.8123   8.9964   9.0445   9.1823   9.2223   9.2290   9.2325
     9.3002   9.3232   9.3317   9.3406   9.3432   9.5082   9.5246   9.6855
     9.8650   9.9007   9.9986  10.0212  10.0218  10.0583  10.1799  10.2265
    12.1539  12.2892  12.4549  12.4763  12.5635  12.5959  13.7729  13.8047
    13.8210  13.8250  13.8349  13.8414  13.8604  13.8689  13.8711  13.8830
    13.8887  13.9309  14.1943  14.2391  14.2630  14.4449  14.4575  14.4627
    14.4683  14.4747  14.5417  14.6231  14.6713  15.1207  15.1918  15.2264
    15.3285  15.3717  16.2057  16.2970  16.4037  16.7402  17.0211  17.0773

          k = 0.0000 0.1250 0.2473 ( 14831 PWs)   bands (ev):

   -46.0191 -46.0184 -46.0180 -46.0179 -46.0173 -46.0172 -46.0168 -46.0162
   -22.4551 -22.4518 -22.4516 -22.4491 -22.4201 -22.4178 -22.4176 -22.4156
   -22.4061 -22.4042 -22.4038 -22.4029 -22.4018 -22.4011 -22.4007 -22.3990
   -22.3532 -22.3518 -22.3510 -22.3510 -22.3498 -22.3497 -22.3491 -22.3478
   -14.5150 -14.4349 -14.4057 -14.3981 -14.3542 -14.3481 -14.3260 -14.2818
    -6.7650  -6.7586  -6.7360  -6.5992  -6.3513  -6.3229  -6.2624  -5.9564
    -5.9162  -5.9020  -5.8900  -5.8822  -5.8793  -5.8580  -5.8329  -5.7837
    -5.7783  -5.7693  -5.7661  -5.7639  -5.6670  -5.6572  -5.6152  -5.6042
    -0.3664  -0.3484  -0.2244   0.1104   0.1264   0.2655   0.2697   0.2700
     0.2938   0.3185   0.3457   0.3802   0.3809   0.4107   0.4109   0.4318
     0.4873   0.4913   0.5258   0.5991   0.6083   0.6180   0.6326   0.6642
     5.8350   5.9262   6.0243   6.0632   6.2015   6.2674   6.2807   6.3053
     6.3905   6.4365   6.4606   6.4705   6.5413   6.5782   6.5927   7.3455
     7.3475   7.3561   7.3700   7.3785   7.4154   7.4261   7.4588   7.4933
     7.5194   7.5328   7.5332   7.5566   7.5932   7.6622   7.6730   7.7577
     7.7581   7.8272   7.8691   7.9818   8.0189   8.0807   8.2417   8.2588
     8.4365   8.4685   8.4879   8.6182   8.6325   8.6975   8.7223   8.7257
     8.8860   8.9944   9.0226   9.0653   9.0894   9.1058   9.2132   9.2201
     9.2398   9.2478   9.2777   9.2919   9.2930   9.4881   9.5494   9.5601
     9.8211   9.8360   9.8973   9.9330   9.9353   9.9483  10.1859  10.2243
    12.1689  12.2721  12.6384  12.6486  12.7277  12.7605  13.6734  13.6884
    13.7130  13.7271  13.7760  13.8048  13.8333  13.8413  13.8764  13.9025
    13.9343  13.9894  14.1187  14.1658  14.2865  14.3705  14.3950  14.4478
    14.4657  14.4678  14.7236  14.8248  14.9416  15.1751  15.3131  15.4380
    15.4547  15.5877  16.2459  16.3510  16.4287  16.7335  16.8444  17.2821

          k = 0.0000 0.1250 0.3709 ( 14820 PWs)   bands (ev):

   -46.0189 -46.0186 -46.0178 -46.0178 -46.0175 -46.0174 -46.0167 -46.0163
   -22.4471 -22.4440 -22.4438 -22.4414 -22.4281 -22.4256 -22.4255 -22.4233
   -22.4056 -22.4043 -22.4036 -22.4024 -22.4024 -22.4015 -22.4003 -22.3994
   -22.3529 -22.3522 -22.3507 -22.3507 -22.3501 -22.3500 -22.3487 -22.3481
   -14.4969 -14.4535 -14.3940 -14.3868 -14.3661 -14.3597 -14.3160 -14.2920
    -6.6888  -6.6806  -6.6717  -6.6107  -6.4605  -6.4414  -6.1792  -5.9729
    -5.9413  -5.8963  -5.8855  -5.8812  -5.8759  -5.8522  -5.8459  -5.8365
    -5.7523  -5.7444  -5.7331  -5.7268  -5.6913  -5.6837  -5.6517  -5.6404
    -0.2693  -0.2432  -0.0693  -0.0089   0.0134   0.2856   0.3013   0.3107
     0.3171   0.3378   0.3430   0.3438   0.3756   0.3814   0.4020   0.4051
     0.4494   0.5183   0.5226   0.5512   0.5529   0.5950   0.5991   0.6019
     5.8882   5.9246   6.0928   6.1409   6.1737   6.2364   6.4629   6.4694
     6.4778   6.4821   6.6558   6.7062   6.7460   6.7717   6.8512   7.0168
     7.0435   7.2398   7.2706   7.2986   7.3080   7.3771   7.3894   7.3983
     7.4091   7.5226   7.5767   7.6240   7.6273   7.7298   7.7369   7.7468
     7.7605   7.7846   7.7939   7.8107   7.9909   8.1148   8.1160   8.3117
     8.4449   8.5530   8.5688   8.5777   8.6244   8.7211   8.7661   8.7930
     8.8228   8.8898   8.9530   8.9662   9.0396   9.0901   9.1172   9.1552
     9.1783   9.2275   9.3678   9.3970   9.4079   9.4126   9.6132   9.6164
     9.7260   9.7572   9.7607   9.7651   9.8185   9.8187  10.1947  10.2164
    12.1925  12.2493  12.8968  12.8988  12.9676  12.9925  13.4459  13.4615
    13.4970  13.5124  13.7834  13.7964  13.8484  13.8669  13.8691  13.9322
    14.0207  14.0257  14.0759  14.0769  14.2603  14.2967  14.3215  14.4101
    14.4675  14.4686  14.9188  15.0359  15.1374  15.2727  15.3016  15.7527
    15.8907  15.9269  15.9894  16.5076  16.6101  16.6190  16.6676  16.8321

          k = 0.0000 0.1250-0.4946 ( 14810 PWs)   bands (ev):

   -46.0187 -46.0187 -46.0177 -46.0177 -46.0176 -46.0176 -46.0165 -46.0165
   -22.4376 -22.4376 -22.4349 -22.4348 -22.4346 -22.4346 -22.4324 -22.4324
   -22.4049 -22.4049 -22.4030 -22.4030 -22.4020 -22.4020 -22.3999 -22.3998
   -22.3525 -22.3525 -22.3504 -22.3504 -22.3503 -22.3503 -22.3484 -22.3484
   -14.4753 -14.4753 -14.3801 -14.3801 -14.3733 -14.3732 -14.3041 -14.3040
    -6.6424  -6.6423  -6.5752  -6.5751  -6.5623  -6.5622  -6.0782  -6.0780
    -5.9021  -5.9020  -5.8862  -5.8861  -5.8738  -5.8737  -5.8452  -5.8451
    -5.7217  -5.7215  -5.7145  -5.7143  -5.6935  -5.6933  -5.6835  -5.6834
    -0.1433  -0.1432  -0.1166  -0.1165   0.1159   0.1160   0.3102   0.3103
     0.3373   0.3374   0.3483   0.3483   0.3741   0.3742   0.4263   0.4263
     0.4747   0.4747   0.5268   0.5269   0.5604   0.5605   0.5762   0.5763
     5.9150   5.9151   6.1400   6.1401   6.1959   6.1960   6.4657   6.4658
     6.7227   6.7228   6.7370   6.7371   6.9783   6.9785   7.0087   7.0089
     7.0091   7.0091   7.0296   7.0297   7.2070   7.2072   7.3856   7.3858
     7.3999   7.4000   7.6726   7.6727   7.6850   7.6850   7.7040   7.7041
     7.7272   7.7273   7.9026   7.9027   7.9526   7.9527   8.2730   8.2731
     8.4171   8.4172   8.6641   8.6641   8.7439   8.7440   8.7903   8.7904
     8.8368   8.8368   8.9265   8.9267   8.9895   8.9896   9.0760   9.0760
     9.0942   9.0942   9.5476   9.5476   9.5754   9.5754   9.6250   9.6250
     9.6419   9.6419   9.6850   9.6851   9.6889   9.6890  10.2052  10.2053
    12.2220  12.2221  13.1786  13.1787  13.1885  13.1885  13.2368  13.2369
    13.2545  13.2546  13.7884  13.7885  13.8574  13.8575  13.9309  13.9309
    13.9927  13.9928  14.1403  14.1403  14.1799  14.1799  14.3642  14.3642
    14.4694  14.4694  15.0578  15.0578  15.1885  15.1886  15.6681  15.6682
    16.1261  16.1263  16.3206  16.3208  16.3575  16.3576  16.9553  17.0005

          k = 0.0000 0.2500 0.0000 ( 14854 PWs)   bands (ev):

   -46.0191 -46.0183 -46.0181 -46.0179 -46.0173 -46.0171 -46.0170 -46.0162
   -22.4619 -22.4592 -22.4582 -22.4563 -22.4126 -22.4110 -22.4103 -22.4089
   -22.4062 -22.4037 -22.4029 -22.4010 -22.3987 -22.3955 -22.3953 -22.3929
   -22.3596 -22.3574 -22.3572 -22.3553 -22.3511 -22.3495 -22.3492 -22.3477
   -14.5180 -14.4300 -14.4093 -14.3999 -14.3522 -14.3439 -14.3300 -14.2802
    -6.7996  -6.7808  -6.7269  -6.6131  -6.4023  -6.3117  -6.1242  -5.9450
    -5.9343  -5.9247  -5.9012  -5.8768  -5.8546  -5.8178  -5.8097  -5.8065
    -5.7885  -5.7792  -5.7652  -5.7493  -5.7148  -5.6532  -5.6328  -5.5970
    -0.3701  -0.3444  -0.2910   0.1224   0.1778   0.2436   0.2562   0.2781
     0.3028   0.3148   0.3472   0.3502   0.4092   0.4178   0.4257   0.4429
     0.4717   0.4792   0.4896   0.6175   0.6354   0.6363   0.6378   0.6663
     5.8076   5.9133   6.0025   6.0102   6.1382   6.2043   6.2102   6.3042
     6.3697   6.4046   6.4101   6.4723   6.5652   6.6024   6.6136   7.2794
     7.3638   7.4201   7.4406   7.4438   7.4504   7.4512   7.4820   7.4967
     7.5275   7.5504   7.5526   7.5583   7.5655   7.6173   7.6601   7.7533
     7.7909   7.8550   7.8787   7.9967   8.0314   8.0897   8.1298   8.4129
     8.4173   8.4327   8.5179   8.5363   8.6355   8.6487   8.6704   8.7590
     8.8195   8.9788   9.0257   9.0931   9.1466   9.1586   9.1748   9.2743
     9.2770   9.3267   9.3623   9.3790   9.4105   9.4158   9.4504   9.5386
     9.7693   9.8720   9.9469   9.9545  10.0521  10.0841  10.1011  10.1148
    12.3547  12.4320  12.4859  12.5031  12.5425  12.6489  13.6079  13.6339
    13.6464  13.6661  13.8500  13.8639  13.8926  13.8956  13.9066  13.9080
    13.9455  13.9594  14.1394  14.1689  14.2936  14.3922  14.3981  14.4700
    14.4703  14.4818  14.6739  14.7218  14.8450  15.0149  15.1773  15.3790
    15.5211  15.6681  16.0384  16.4341  16.5970  16.7782  16.9204  17.2488

          k = 0.0000 0.2500 0.1236 ( 14836 PWs)   bands (ev):

   -46.0190 -46.0182 -46.0182 -46.0179 -46.0173 -46.0171 -46.0170 -46.0162
   -22.4600 -22.4574 -22.4565 -22.4545 -22.4144 -22.4128 -22.4122 -22.4107
   -22.4061 -22.4035 -22.4031 -22.4011 -22.3986 -22.3957 -22.3952 -22.3930
   -22.3595 -22.3575 -22.3571 -22.3553 -22.3510 -22.3495 -22.3493 -22.3478
   -14.5140 -14.4271 -14.4136 -14.3973 -14.3552 -14.3415 -14.3327 -14.2827
    -6.7822  -6.7616  -6.7161  -6.6083  -6.3833  -6.3302  -6.1696  -5.9482
    -5.9263  -5.9126  -5.8999  -5.8742  -5.8534  -5.8451  -5.8201  -5.8010
    -5.7812  -5.7720  -5.7642  -5.7610  -5.7072  -5.6575  -5.6407  -5.6036
    -0.3530  -0.3470  -0.2311   0.1394   0.1742   0.2100   0.2515   0.2557
     0.2900   0.3208   0.3633   0.3762   0.3797   0.4003   0.4134   0.4499
     0.4727   0.4843   0.5205   0.5968   0.6033   0.6294   0.6299   0.6598
     5.8399   5.9477   6.0038   6.0524   6.1977   6.1979   6.2518   6.3579
     6.3928   6.4347   6.4417   6.4629   6.5669   6.6158   6.6245   7.2972
     7.3564   7.4175   7.4255   7.4445   7.4573   7.4597   7.4736   7.4953
     7.4959   7.5148   7.5790   7.5798   7.5912   7.6225   7.6383   7.7554
     7.7807   7.8100   7.8646   7.8706   7.9010   8.1018   8.1502   8.3759
     8.4308   8.4546   8.4597   8.5875   8.6669   8.6931   8.7149   8.7684
     8.7899   9.0116   9.0199   9.1044   9.1261   9.1401   9.1739   9.2457
     9.2962   9.3281   9.3570   9.3688   9.3757   9.3809   9.4232   9.4901
     9.7517   9.8350   9.9103   9.9327  10.0261  10.0366  10.1009  10.1210
    12.3721  12.4843  12.4991  12.5475  12.5908  12.7035  13.6093  13.6435
    13.6436  13.6933  13.8134  13.8417  13.8544  13.8587  13.8951  13.9105
    13.9259  13.9428  14.1049  14.1780  14.2658  14.3596  14.3878  14.4433
    14.5378  14.5502  14.6738  14.8150  14.8970  15.1406  15.1711  15.4488
    15.5936  15.6671  16.0863  16.4591  16.5478  16.8248  16.9561  17.1978

          k = 0.0000 0.2500 0.2473 ( 14847 PWs)   bands (ev):

   -46.0189 -46.0183 -46.0181 -46.0178 -46.0175 -46.0171 -46.0170 -46.0163
   -22.4547 -22.4522 -22.4513 -22.4494 -22.4198 -22.4181 -22.4174 -22.4159
   -22.4057 -22.4035 -22.4033 -22.4014 -22.3982 -22.3960 -22.3949 -22.3932
   -22.3592 -22.3577 -22.3569 -22.3556 -22.3508 -22.3495 -22.3493 -22.3480
   -14.5024 -14.4256 -14.4188 -14.3898 -14.3638 -14.3404 -14.3347 -14.2897
    -6.7320  -6.7058  -6.6868  -6.5990  -6.3844  -6.3284  -6.2692  -5.9526
    -5.9261  -5.9242  -5.8973  -5.8804  -5.8674  -5.8497  -5.8295  -5.8012
    -5.7856  -5.7650  -5.7515  -5.7490  -5.7045  -5.6698  -5.6624  -5.6226
    -0.3257  -0.2805  -0.1101   0.1187   0.1702   0.1769   0.1888   0.2601
     0.2824   0.3106   0.3379   0.3764   0.3818   0.4042   0.4348   0.4541
     0.4700   0.5119   0.5144   0.5388   0.5558   0.6070   0.6077   0.6395
     5.9094   6.0042   6.0225   6.1539   6.1811   6.3671   6.3735   6.4344
     6.4640   6.5078   6.5338   6.5424   6.5691   6.6466   6.7040   7.2373
     7.3327   7.3467   7.3641   7.3975   7.4109   7.4487   7.4536   7.4835
     7.4866   7.4913   7.5394   7.5949   7.6166   7.6631   7.6855   7.6936
     7.7163   7.7590   7.7598   7.8374   7.8442   8.1400   8.1608   8.2074
     8.2726   8.4153   8.5368   8.5487   8.6005   8.6386   8.7208   8.9759
     8.9865   8.9910   9.0155   9.0360   9.1437   9.1582   9.2219   9.2229
     9.2236   9.2871   9.3028   9.3313   9.3390   9.3491   9.4143   9.4308
     9.7026   9.7670   9.7897   9.8874   9.9209   9.9463  10.1011  10.1201
    12.3933  12.4851  12.6566  12.7139  12.7281  12.8566  13.6139  13.6299
    13.6622  13.6633  13.6926  13.7209  13.7674  13.7708  13.8660  13.9134
    13.9309  13.9770  14.0144  14.1931  14.2013  14.2687  14.3538  14.3784
    14.6171  14.6729  14.7273  15.0538  15.1016  15.1545  15.4705  15.6446
    15.6583  15.8067  16.2302  16.3902  16.5493  16.8595  16.9671  17.0573

          k = 0.0000 0.2500 0.3709 ( 14820 PWs)   bands (ev):

   -46.0188 -46.0184 -46.0180 -46.0176 -46.0176 -46.0173 -46.0168 -46.0165
   -22.4467 -22.4444 -22.4435 -22.4417 -22.4278 -22.4259 -22.4252 -22.4236
   -22.4052 -22.4040 -22.4028 -22.4018 -22.3977 -22.3965 -22.3945 -22.3936
   -22.3589 -22.3581 -22.3566 -22.3559 -22.3505 -22.3498 -22.3490 -22.3483
   -14.4850 -14.4435 -14.4063 -14.3786 -14.3766 -14.3519 -14.3244 -14.3001
    -6.6553  -6.6484  -6.6188  -6.5975  -6.4667  -6.3883  -6.2440  -6.0294
    -5.9454  -5.9139  -5.8967  -5.8678  -5.8609  -5.8595  -5.8433  -5.8248
    -5.7630  -5.7454  -5.7310  -5.7212  -5.7162  -5.6919  -5.6881  -5.6514
    -0.2508  -0.1795  -0.0068   0.0436   0.0678   0.1778   0.2499   0.2648
     0.2760   0.2911   0.3420   0.3448   0.3638   0.3750   0.4267   0.4541
     0.4583   0.4963   0.5006   0.5466   0.5681   0.5727   0.5751   0.6042
     5.9659   6.0029   6.0878   6.1580   6.2601   6.3927   6.5683   6.5738
     6.5744   6.5881   6.6224   6.7256   6.7513   6.8465   6.8715   6.9922
     7.1037   7.2070   7.2339   7.2401   7.3660   7.4040   7.4134   7.4236
     7.4391   7.4652   7.4851   7.6192   7.6302   7.6621   7.7338   7.7616
     7.7626   7.7945   7.7957   7.8334   7.8343   7.8726   8.1240   8.2085
     8.2187   8.2892   8.4536   8.4962   8.6453   8.6575   8.8072   8.8421
     8.9768   9.0320   9.0416   9.0471   9.1092   9.1438   9.1653   9.2064
     9.2250   9.2523   9.3179   9.3429   9.3739   9.4759   9.4772   9.5241
     9.6255   9.6316   9.6974   9.7536   9.8008   9.8063  10.1042  10.1146
    12.4156  12.4644  12.9100  12.9358  12.9549  13.0731  13.4431  13.4663
    13.4814  13.5657  13.6224  13.6459  13.7109  13.8806  13.8814  13.8994
    13.9156  13.9532  14.0605  14.1012  14.1446  14.2376  14.2657  14.3265
    14.6514  14.6709  14.9139  15.1184  15.3214  15.4395  15.6175  15.9178
    15.9346  16.1333  16.1437  16.4887  16.6422  16.7150  16.7310  17.0471

          k = 0.0000 0.2500-0.4946 ( 14814 PWs)   bands (ev):

   -46.0186 -46.0186 -46.0178 -46.0178 -46.0174 -46.0174 -46.0166 -46.0166
   -22.4373 -22.4373 -22.4352 -22.4352 -22.4344 -22.4344 -22.4327 -22.4326
   -22.4046 -22.4046 -22.4023 -22.4023 -22.3971 -22.3971 -22.3941 -22.3941
   -22.3585 -22.3585 -22.3562 -22.3562 -22.3501 -22.3501 -22.3487 -22.3486
   -14.4644 -14.4643 -14.3915 -14.3915 -14.3653 -14.3652 -14.3123 -14.3122
    -6.6145  -6.6144  -6.5624  -6.5622  -6.5094  -6.5092  -6.1401  -6.1400
    -5.9159  -5.9158  -5.9023  -5.9022  -5.8555  -5.8554  -5.8350  -5.8349
    -5.7379  -5.7378  -5.7213  -5.7212  -5.7097  -5.7096  -5.6860  -5.6859
    -0.1384  -0.1383  -0.0576  -0.0575   0.2040   0.2041   0.2119   0.2119
     0.3043   0.3044   0.3138   0.3138   0.3576   0.3577   0.3949   0.3950
     0.5160   0.5160   0.5374   0.5375   0.5551   0.5551   0.5686   0.5686
     5.9933   5.9934   6.1290   6.1291   6.3379   6.3380   6.5759   6.5760
     6.7665   6.7666   6.8187   6.8188   6.9275   6.9276   6.9714   6.9715
     7.0174   7.0176   7.1153   7.1154   7.1707   7.1708   7.4011   7.4012
     7.4760   7.4762   7.5186   7.5187   7.7024   7.7024   7.7222   7.7223
     7.7720   7.7720   7.8147   7.8147   7.9556   7.9557   8.0188   8.0189
     8.3148   8.3149   8.3843   8.3843   8.7311   8.7312   8.8167   8.8168
     8.9183   8.9183   9.0763   9.0763   9.1279   9.1280   9.1385   9.1385
     9.1638   9.1639   9.4573   9.4574   9.5519   9.5520   9.5609   9.5609
     9.6027   9.6027   9.6163   9.6163   9.6611   9.6611  10.1086  10.1088
    12.4406  12.4407  13.1844  13.1845  13.1953  13.1954  13.2246  13.2247
    13.3210  13.3211  13.6337  13.6338  13.7918  13.7919  13.8989  13.8989
    14.0112  14.0112  14.0159  14.0160  14.1589  14.1590  14.2821  14.2821
    14.6648  14.6648  15.0444  15.0445  15.5154  15.5155  15.8047  15.8049
    16.2812  16.2814  16.3710  16.3712  16.5728  16.5730  16.8313  16.8316

          k = 0.0000 0.3750 0.0000 ( 14818 PWs)   bands (ev):

   -46.0189 -46.0184 -46.0179 -46.0177 -46.0175 -46.0173 -46.0167 -46.0163
   -22.4613 -22.4598 -22.4578 -22.4567 -22.4122 -22.4114 -22.4100 -22.4092
   -22.4056 -22.4042 -22.4025 -22.4015 -22.3898 -22.3868 -22.3866 -22.3843
   -22.3686 -22.3662 -22.3659 -22.3639 -22.3507 -22.3499 -22.3488 -22.3481
   -14.4981 -14.4505 -14.3964 -14.3872 -14.3655 -14.3569 -14.3187 -14.2917
    -6.7452  -6.6998  -6.6407  -6.6405  -6.4962  -6.4184  -6.0351  -5.9312
    -5.9083  -5.9057  -5.8850  -5.8573  -5.8440  -5.8278  -5.8181  -5.8081
    -5.8070  -5.7867  -5.7853  -5.7514  -5.7261  -5.7034  -5.6832  -5.6350
    -0.2611  -0.2195  -0.1448   0.0051   0.0584   0.2689   0.2783   0.2865
     0.3301   0.3433   0.3511   0.3691   0.3725   0.3966   0.4126   0.4159
     0.4167   0.5143   0.5216   0.5349   0.5715   0.5886   0.6000   0.6007
     5.8645   5.9098   6.0585   6.0787   6.1156   6.1712   6.3982   6.4061
     6.4095   6.5066   6.6648   6.7356   6.7687   6.8436   6.8701   6.9758
     7.1089   7.2610   7.3017   7.3664   7.3779   7.4365   7.4378   7.4471
     7.4610   7.4802   7.6046   7.6207   7.6290   7.6789   7.6909   7.7232
     7.7700   7.7931   7.8003   7.8163   7.9458   7.9505   8.1569   8.4554
     8.4867   8.5571   8.5955   8.5974   8.6076   8.6370   8.6725   8.7737
     8.7896   8.8550   8.9349   9.0081   9.1205   9.1683   9.1843   9.1956
     9.2727   9.2760   9.3539   9.3729   9.4851   9.5074   9.5074   9.5705
     9.6318   9.7524   9.7995   9.8165   9.9207   9.9642  10.0633  10.0909
    12.4108  12.4636  12.7125  12.7781  12.7942  12.8547  13.3554  13.3763
    13.4042  13.4101  13.8807  13.8818  13.8980  13.9006  13.9017  13.9068
    14.0350  14.0403  14.0422  14.0645  14.2777  14.2846  14.3346  14.4295
    14.4804  14.4866  14.8833  14.8851  15.0174  15.1295  15.2073  15.7288
    15.8330  15.8613  16.1044  16.5665  16.7315  16.7445  16.7759  16.8428

          k = 0.0000 0.3750 0.1236 ( 14820 PWs)   bands (ev):

   -46.0188 -46.0184 -46.0180 -46.0177 -46.0175 -46.0173 -46.0168 -46.0164
   -22.4594 -22.4580 -22.4560 -22.4549 -22.4141 -22.4132 -22.4118 -22.4110
   -22.4055 -22.4041 -22.4026 -22.4016 -22.3897 -22.3869 -22.3865 -22.3844
   -22.3685 -22.3663 -22.3659 -22.3640 -22.3506 -22.3498 -22.3489 -22.3481
   -14.4944 -14.4473 -14.4003 -14.3846 -14.3688 -14.3544 -14.3213 -14.2943
    -6.7299  -6.6806  -6.6328  -6.6322  -6.4771  -6.4243  -6.0862  -5.9343
    -5.9082  -5.9039  -5.8961  -5.8792  -5.8542  -5.8283  -5.8188  -5.8134
    -5.7906  -5.7799  -5.7749  -5.7465  -5.7242  -5.7096  -5.6846  -5.6390
    -0.2412  -0.2394  -0.0799   0.0234   0.0462   0.2393   0.2795   0.3020
     0.3123   0.3259   0.3272   0.3495   0.3587   0.3807   0.4194   0.4326
     0.4435   0.5074   0.5128   0.5446   0.5769   0.5877   0.5919   0.5925
     5.8990   5.9440   6.0774   6.1076   6.1670   6.1726   6.4342   6.4351
     6.4403   6.5395   6.6705   6.7214   6.7720   6.8614   6.8675   7.0028
     7.0914   7.2598   7.2745   7.3507   7.3875   7.4305   7.4426   7.4484
     7.4843   7.4971   7.5724   7.6031   7.6451   7.6908   7.6909   7.7331
     7.7459   7.7655   7.8103   7.8240   7.8766   7.9572   8.0178   8.3894
     8.4160   8.5025   8.5933   8.6056   8.6115   8.6168   8.7320   8.8071
     8.8688   8.9168   8.9517   8.9869   9.1244   9.1637   9.1832   9.2228
     9.2371   9.2446   9.3440   9.3965   9.4717   9.4736   9.4764   9.5551
     9.6119   9.7221   9.7583   9.8127   9.9120   9.9613  10.0341  10.0632
    12.4715  12.5253  12.7200  12.7908  12.8063  12.9041  13.3586  13.3828
    13.4008  13.4457  13.8336  13.8459  13.8541  13.8875  13.9125  13.9172
    13.9926  13.9932  14.0334  14.0730  14.2380  14.2759  14.3055  14.4041
    14.5556  14.5565  14.8831  14.9929  15.1232  15.1420  15.2488  15.7894
    15.8805  15.9334  16.1086  16.6051  16.7420  16.7874  16.7908  16.8519

          k = 0.0000 0.3750 0.2473 ( 14845 PWs)   bands (ev):

   -46.0188 -46.0183 -46.0181 -46.0176 -46.0176 -46.0172 -46.0169 -46.0165
   -22.4541 -22.4528 -22.4508 -22.4498 -22.4194 -22.4185 -22.4171 -22.4162
   -22.4052 -22.4038 -22.4030 -22.4019 -22.3893 -22.3873 -22.3862 -22.3846
   -22.3683 -22.3666 -22.3657 -22.3642 -22.3504 -22.3496 -22.3491 -22.3483
   -14.4835 -14.4383 -14.4116 -14.3782 -14.3773 -14.3475 -14.3289 -14.3014
    -6.6867  -6.6248  -6.6132  -6.6111  -6.4456  -6.4217  -6.1886  -6.0010
    -5.9417  -5.9157  -5.9092  -5.8529  -5.8463  -5.8458  -5.8278  -5.8005
    -5.7979  -5.7708  -5.7533  -5.7329  -5.7254  -5.7190  -5.6887  -5.6506
    -0.2381  -0.1771   0.0329   0.0416   0.0765   0.1410   0.2405   0.2551
     0.2690   0.2890   0.3339   0.3454   0.3673   0.3749   0.4388   0.4509
     0.4707   0.4881   0.4920   0.5403   0.5681   0.5712   0.5826   0.5962
     5.9725   6.0183   6.0745   6.1535   6.2384   6.3334   6.5402   6.5459
     6.5504   6.6322   6.6830   6.6927   6.7778   6.8634   6.9272   7.0283
     7.0765   7.1948   7.2576   7.2615   7.3946   7.4229   7.4303   7.4535
     7.4568   7.5309   7.5473   7.5986   7.6077   7.6915   7.7058   7.7186
     7.7533   7.7595   7.7756   7.7835   7.7929   7.9012   7.9931   8.1990
     8.2567   8.3073   8.4469   8.4787   8.6438   8.6749   8.8460   8.8585
     8.9928   8.9933   9.0097   9.1295   9.1370   9.1468   9.1511   9.1658
     9.2258   9.2466   9.2657   9.3854   9.4557   9.4579   9.4790   9.5161
     9.5531   9.6458   9.6817   9.7969   9.8694   9.9470   9.9541   9.9981
    12.6198  12.6963  12.7571  12.7761  12.8974  13.0341  13.3680  13.3927
    13.4188  13.5359  13.6913  13.6962  13.7110  13.8631  13.8830  13.9088
    13.9332  13.9608  14.0178  14.0963  14.1346  14.2344  14.2482  14.3305
    14.6921  14.7297  14.8769  15.1080  15.2766  15.4042  15.4665  15.9578
    16.0253  16.1070  16.1471  16.6304  16.7170  16.7802  16.8432  17.0731

          k = 0.0000 0.3750 0.3709 ( 14841 PWs)   bands (ev):

   -46.0186 -46.0183 -46.0182 -46.0178 -46.0174 -46.0171 -46.0170 -46.0166
   -22.4462 -22.4449 -22.4431 -22.4421 -22.4274 -22.4264 -22.4248 -22.4240
   -22.4047 -22.4035 -22.4034 -22.4023 -22.3888 -22.3877 -22.3859 -22.3850
   -22.3679 -22.3670 -22.3653 -22.3646 -22.3501 -22.3495 -22.3493 -22.3486
   -14.4672 -14.4283 -14.4246 -14.3921 -14.3663 -14.3401 -14.3370 -14.3121
    -6.6234  -6.5916  -6.5894  -6.5379  -6.4889  -6.3360  -6.3079  -6.1135
    -5.9445  -5.9256  -5.9140  -5.8962  -5.8354  -5.8297  -5.8237  -5.8068
    -5.7823  -5.7638  -5.7517  -5.7433  -5.7130  -5.7115  -5.6951  -5.6684
    -0.1892  -0.0821   0.0182   0.0432   0.1516   0.1535   0.1581   0.1837
     0.2679   0.2794   0.3064   0.3085   0.3607   0.3942   0.4510   0.4548
     0.4596   0.4682   0.5139   0.5382   0.5398   0.5614   0.5754   0.5919
     6.0309   6.0701   6.0799   6.1377   6.4002   6.5718   6.6208   6.7068
     6.7328   6.7407   6.7597   6.7685   6.7857   6.8999   6.9261   7.0667
     7.0733   7.0916   7.1797   7.1861   7.2259   7.3588   7.3596   7.3742
     7.4428   7.5342   7.5590   7.5863   7.5898   7.6303   7.7002   7.7352
     7.7439   7.7531   7.7603   7.7981   7.8226   7.9858   7.9941   8.0013
     8.0634   8.1514   8.2590   8.3269   8.6892   8.6931   8.7499   8.9156
     8.9403   9.0723   9.1127   9.1292   9.1351   9.1584   9.2210   9.2267
     9.2707   9.2929   9.3084   9.3308   9.4412   9.4697   9.4711   9.4941
     9.5542   9.5608   9.6588   9.7440   9.7549   9.7957   9.9470   9.9566
    12.7056  12.7570  12.9339  12.9374  13.0506  13.2287  13.3655  13.3799
    13.4738  13.4860  13.4860  13.5090  13.6685  13.6719  13.7395  13.9379
    13.9824  13.9921  13.9931  14.0337  14.1306  14.1419  14.2034  14.2398
    14.7911  14.8632  14.8976  15.0781  15.6286  15.6928  15.9144  16.0605
    16.2084  16.2832  16.3746  16.4862  16.7230  16.8419  16.8789  16.8889

          k = 0.0000 0.3750-0.4946 ( 14830 PWs)   bands (ev):

   -46.0184 -46.0184 -46.0180 -46.0180 -46.0172 -46.0172 -46.0168 -46.0168
   -22.4368 -22.4368 -22.4357 -22.4357 -22.4340 -22.4340 -22.4330 -22.4330
   -22.4041 -22.4041 -22.4028 -22.4028 -22.3883 -22.3883 -22.3854 -22.3854
   -22.3674 -22.3674 -22.3649 -22.3649 -22.3498 -22.3498 -22.3490 -22.3490
   -14.4479 -14.4478 -14.4085 -14.4084 -14.3533 -14.3532 -14.3246 -14.3245
    -6.5811  -6.5810  -6.5524  -6.5522  -6.4286  -6.4285  -6.2294  -6.2293
    -5.9306  -5.9305  -5.9222  -5.9221  -5.8280  -5.8279  -5.8161  -5.8160
    -5.7639  -5.7637  -5.7562  -5.7561  -5.7031  -5.7030  -5.6903  -5.6902
    -0.0992  -0.0992   0.0330   0.0331   0.0844   0.0844   0.2575   0.2576
     0.2811   0.2811   0.2860   0.2861   0.3267   0.3267   0.4265   0.4266
     0.5036   0.5037   0.5213   0.5213   0.5514   0.5514   0.5728   0.5728
     6.0588   6.0589   6.1152   6.1153   6.5316   6.5316   6.7898   6.7899
     6.8204   6.8204   6.8440   6.8441   6.9244   6.9244   6.9295   6.9296
     7.0314   7.0315   7.1351   7.1352   7.2847   7.2849   7.3001   7.3002
     7.3362   7.3363   7.5770   7.5771   7.7065   7.7066   7.7161   7.7162
     7.7521   7.7522   7.7722   7.7723   7.8559   7.8560   7.9802   7.9803
     8.1146   8.1146   8.1781   8.1782   8.6940   8.6941   8.7800   8.7801
     9.0443   9.0444   9.1262   9.1263   9.1609   9.1610   9.1739   9.1740
     9.3410   9.3410   9.3784   9.3785   9.4405   9.4407   9.5496   9.5496
     9.5812   9.5812   9.6233   9.6233   9.6725   9.6725   9.9460   9.9462
    12.7353  12.7353  13.1971  13.1972  13.2065  13.2066  13.2585  13.2586
    13.4007  13.4008  13.4523  13.4523  13.5984  13.5984  13.8297  13.8298
    13.9669  13.9670  14.0509  14.0509  14.1251  14.1251  14.1762  14.1762
    14.8419  14.8419  15.0142  15.0142  15.9122  15.9123  16.0429  16.0430
    16.3727  16.3728  16.5140  16.5141  16.6203  16.6204  16.9177  17.0679

          k = 0.0000-0.5000 0.0000 ( 14814 PWs)   bands (ev):

   -46.0187 -46.0187 -46.0177 -46.0177 -46.0175 -46.0175 -46.0166 -46.0166
   -22.4606 -22.4606 -22.4573 -22.4573 -22.4118 -22.4118 -22.4096 -22.4096
   -22.4049 -22.4049 -22.4020 -22.4020 -22.3792 -22.3792 -22.3765 -22.3765
   -22.3762 -22.3762 -22.3741 -22.3741 -22.3503 -22.3503 -22.3485 -22.3485
   -14.4745 -14.4745 -14.3810 -14.3810 -14.3721 -14.3721 -14.3053 -14.3052
    -6.6875  -6.6875  -6.6005  -6.6005  -6.5334  -6.5334  -5.9286  -5.9286
    -5.9181  -5.9181  -5.8699  -5.8699  -5.8383  -5.8383  -5.8362  -5.8362
    -5.7907  -5.7906  -5.7747  -5.7747  -5.7178  -5.7178  -5.6803  -5.6803
    -0.1297  -0.1297  -0.0803  -0.0803   0.0515   0.0515   0.3232   0.3232
     0.3258   0.3258   0.3629   0.3629   0.3776   0.3776   0.4410   0.4410
     0.4944   0.4944   0.5004   0.5004   0.5566   0.5566   0.5606   0.5606
     5.8963   5.8963   6.0897   6.0897   6.1327   6.1327   6.4072   6.4072
     6.6620   6.6620   6.7785   6.7786   6.9922   6.9922   7.0338   7.0339
     7.0524   7.0524   7.1226   7.1226   7.2108   7.2108   7.4346   7.4347
     7.4731   7.4732   7.6893   7.6893   7.7188   7.7188   7.7204   7.7204
     7.7326   7.7326   7.7813   7.7813   7.8332   7.8332   8.3108   8.3108
     8.5295   8.5295   8.6275   8.6275   8.7082   8.7082   8.7540   8.7540
     8.8095   8.8095   8.9685   8.9685   8.9977   8.9977   9.1465   9.1465
     9.1632   9.1632   9.4946   9.4946   9.6194   9.6194   9.6227   9.6227
     9.6403   9.6403   9.7340   9.7340   9.7595   9.7595  10.0758  10.0758
    12.4378  12.4378  13.0480  13.0480  13.0740  13.0740  13.1086  13.1086
    13.1286  13.1286  13.8967  13.8967  13.8987  13.8987  13.9414  13.9414
    13.9697  13.9697  14.1489  14.1489  14.1590  14.1590  14.3794  14.3794
    14.4846  14.4846  14.9840  14.9840  15.0354  15.0354  15.5517  15.5518
    16.1495  16.1495  16.2894  16.2894  16.5084  16.5084  17.1535  17.1555

          k = 0.0000-0.5000 0.1236 ( 14802 PWs)   bands (ev):

   -46.0186 -46.0186 -46.0178 -46.0178 -46.0175 -46.0175 -46.0166 -46.0166
   -22.4587 -22.4587 -22.4555 -22.4555 -22.4136 -22.4136 -22.4114 -22.4114
   -22.4048 -22.4048 -22.4021 -22.4021 -22.3791 -22.3791 -22.3766 -22.3766
   -22.3762 -22.3762 -22.3742 -22.3742 -22.3502 -22.3502 -22.3485 -22.3485
   -14.4710 -14.4710 -14.3846 -14.3846 -14.3696 -14.3696 -14.3078 -14.3078
    -6.6753  -6.6753  -6.5813  -6.5813  -6.5309  -6.5309  -5.9903  -5.9902
    -5.9197  -5.9197  -5.8549  -5.8549  -5.8339  -5.8339  -5.8324  -5.8323
    -5.7863  -5.7863  -5.7782  -5.7782  -5.7159  -5.7159  -5.6813  -5.6813
    -0.1097  -0.1097  -0.1006  -0.1006   0.1045   0.1045   0.2796   0.2796
     0.3157   0.3157   0.3447   0.3447   0.3841   0.3841   0.4174   0.4174
     0.5122   0.5122   0.5123   0.5123   0.5494   0.5494   0.5675   0.5676
     5.9310   5.9310   6.1292   6.1292   6.1436   6.1436   6.4383   6.4383
     6.6944   6.6945   6.7875   6.7875   6.9801   6.9801   7.0335   7.0335
     7.0363   7.0364   7.1403   7.1403   7.1998   7.1999   7.4397   7.4397
     7.4957   7.4957   7.6632   7.6633   7.7124   7.7124   7.7175   7.7175
     7.7354   7.7354   7.7930   7.7930   7.8030   7.8030   8.1970   8.1971
     8.4874   8.4874   8.5501   8.5501   8.7755   8.7755   8.7861   8.7861
     8.8400   8.8400   8.9847   8.9847   9.0183   9.0183   9.1446   9.1446
     9.1592   9.1592   9.4702   9.4702   9.5943   9.5943   9.6033   9.6033
     9.6304   9.6305   9.7275   9.7275   9.7530   9.7530  10.0466  10.0466
    12.4996  12.4996  13.0508  13.0509  13.0901  13.0901  13.1054  13.1054
    13.1656  13.1656  13.8495  13.8495  13.8942  13.8942  13.9064  13.9064
    13.9765  13.9765  14.1095  14.1096  14.1541  14.1542  14.3553  14.3553
    14.5593  14.5593  15.0335  15.0335  15.1007  15.1007  15.5962  15.5963
    16.1973  16.1973  16.3642  16.3642  16.5272  16.5272  17.1026  17.1026

          k = 0.0000-0.5000 0.2473 ( 14840 PWs)   bands (ev):

   -46.0185 -46.0185 -46.0179 -46.0179 -46.0174 -46.0174 -46.0167 -46.0167
   -22.4534 -22.4534 -22.4503 -22.4503 -22.4190 -22.4190 -22.4167 -22.4167
   -22.4045 -22.4045 -22.4024 -22.4024 -22.3788 -22.3788 -22.3769 -22.3769
   -22.3760 -22.3760 -22.3744 -22.3744 -22.3500 -22.3500 -22.3487 -22.3487
   -14.4610 -14.4610 -14.3950 -14.3949 -14.3625 -14.3624 -14.3152 -14.3152
    -6.6421  -6.6421  -6.5274  -6.5274  -6.5257  -6.5256  -6.0938  -6.0938
    -5.9251  -5.9251  -5.8884  -5.8884  -5.8219  -5.8219  -5.8026  -5.8026
    -5.7856  -5.7856  -5.7833  -5.7833  -5.7108  -5.7108  -5.6844  -5.6844
    -0.1122  -0.1122  -0.0521  -0.0521   0.1819   0.1819   0.2102   0.2102
     0.2952   0.2952   0.3118   0.3118   0.3511   0.3511   0.4026   0.4026
     0.5291   0.5291   0.5376   0.5376   0.5434   0.5434   0.5616   0.5616
     6.0053   6.0053   6.1206   6.1206   6.2931   6.2931   6.5496   6.5496
     6.7857   6.7857   6.8102   6.8102   6.9494   6.9494   6.9742   6.9742
     7.0448   7.0448   7.1734   7.1734   7.2019   7.2019   7.4296   7.4296
     7.5084   7.5084   7.5521   7.5521   7.7081   7.7081   7.7393   7.7393
     7.7511   7.7511   7.7714   7.7714   7.8323   7.8324   7.9830   7.9830
     8.3429   8.3429   8.3735   8.3736   8.7378   8.7378   8.8384   8.8384
     9.0321   9.0321   9.0403   9.0403   9.0493   9.0493   9.1253   9.1253
     9.1815   9.1815   9.4009   9.4009   9.5020   9.5020   9.5779   9.5779
     9.6545   9.6545   9.7092   9.7092   9.7375   9.7375   9.9550   9.9550
    12.6695  12.6695  13.0619  13.0619  13.0950  13.0950  13.1437  13.1437
    13.2754  13.2754  13.7028  13.7028  13.7684  13.7684  13.9390  13.9390
    13.9920  13.9921  13.9984  13.9984  14.1322  14.1322  14.2821  14.2821
    14.7197  14.7197  15.0229  15.0229  15.4126  15.4127  15.7400  15.7400
    16.3325  16.3325  16.5476  16.5476  16.5830  16.5830  16.9370  16.9372

          k = 0.0000-0.5000 0.3709 ( 14810 PWs)   bands (ev):

   -46.0184 -46.0184 -46.0180 -46.0180 -46.0172 -46.0172 -46.0168 -46.0168
   -22.4455 -22.4455 -22.4426 -22.4426 -22.4269 -22.4269 -22.4244 -22.4244
   -22.4040 -22.4040 -22.4029 -22.4029 -22.3784 -22.3784 -22.3773 -22.3773
   -22.3756 -22.3756 -22.3748 -22.3748 -22.3497 -22.3497 -22.3490 -22.3490
   -14.4461 -14.4460 -14.4103 -14.4103 -14.3517 -14.3517 -14.3261 -14.3261
    -6.5979  -6.5979  -6.5331  -6.5331  -6.4391  -6.4391  -6.2114  -6.2114
    -5.9327  -5.9327  -5.9192  -5.9192  -5.8079  -5.8079  -5.7916  -5.7916
    -5.7902  -5.7902  -5.7854  -5.7854  -5.7037  -5.7037  -5.6895  -5.6895
    -0.0866  -0.0866   0.0361   0.0361   0.0726   0.0726   0.2542   0.2542
     0.2786   0.2786   0.2858   0.2858   0.3278   0.3278   0.4308   0.4308
     0.4992   0.4992   0.5180   0.5180   0.5607   0.5607   0.5658   0.5658
     6.0643   6.0643   6.1112   6.1112   6.5039   6.5039   6.7665   6.7665
     6.8402   6.8402   6.8735   6.8735   6.9110   6.9110   6.9186   6.9186
     7.0556   7.0556   7.1463   7.1463   7.2947   7.2947   7.3264   7.3264
     7.3349   7.3349   7.6162   7.6162   7.6914   7.6914   7.7255   7.7255
     7.7359   7.7359   7.7526   7.7526   7.8510   7.8510   7.9171   7.9171
     8.1099   8.1099   8.2170   8.2170   8.7021   8.7021   8.7785   8.7785
     9.0995   9.0995   9.1072   9.1072   9.1526   9.1526   9.1874   9.1875
     9.3058   9.3058   9.3068   9.3068   9.3666   9.3666   9.6177   9.6177
     9.6705   9.6705   9.6794   9.6794   9.7235   9.7235   9.8126   9.8126
    12.8982  12.8982  13.0776  13.0776  13.0921  13.0921  13.2493  13.2493
    13.4425  13.4425  13.4869  13.4869  13.5921  13.5921  13.8216  13.8217
    13.9996  13.9996  14.0365  14.0365  14.0988  14.0988  14.1885  14.1885
    14.8644  14.8644  14.9983  14.9983  15.8364  15.8364  16.0027  16.0028
    16.4793  16.4793  16.5392  16.5392  16.6752  16.6753  16.9272  16.9272

          k = 0.0000-0.5000-0.4946 ( 14836 PWs)   bands (ev):

   -46.0182 -46.0182 -46.0182 -46.0182 -46.0170 -46.0170 -46.0170 -46.0170
   -22.4363 -22.4363 -22.4363 -22.4363 -22.4335 -22.4335 -22.4335 -22.4335
   -22.4035 -22.4035 -22.4034 -22.4034 -22.3779 -22.3779 -22.3779 -22.3779
   -22.3752 -22.3752 -22.3752 -22.3752 -22.3494 -22.3494 -22.3494 -22.3494
   -14.4283 -14.4283 -14.4282 -14.4282 -14.3390 -14.3390 -14.3389 -14.3389
    -6.5573  -6.5573  -6.5571  -6.5571  -6.3307  -6.3307  -6.3306  -6.3306
    -5.9342  -5.9342  -5.9341  -5.9341  -5.7957  -5.7957  -5.7956  -5.7955
    -5.7893  -5.7892  -5.7891  -5.7891  -5.6963  -5.6963  -5.6961  -5.6961
    -0.0223  -0.0223  -0.0223  -0.0223   0.1433   0.1433   0.1434   0.1434
     0.2743   0.2743   0.2743   0.2744   0.4362   0.4362   0.4362   0.4362
     0.4646   0.4646   0.4646   0.4647   0.5717   0.5718   0.5718   0.5718
     6.0949   6.0949   6.0950   6.0950   6.7155   6.7155   6.7156   6.7156
     6.8739   6.8739   6.8739   6.8740   7.0113   7.0113   7.0114   7.0114
     7.0847   7.0847   7.0848   7.0848   7.1617   7.1618   7.1619   7.1619
     7.5207   7.5207   7.5208   7.5208   7.6626   7.6626   7.6627   7.6627
     7.7262   7.7262   7.7263   7.7263   7.9521   7.9521   7.9521   7.9521
     8.0526   8.0526   8.0527   8.0527   8.7104   8.7104   8.7104   8.7104
     9.1599   9.1599   9.1599   9.1599   9.2026   9.2026   9.2027   9.2027
     9.2376   9.2376   9.2376   9.2376   9.5488   9.5488   9.5488   9.5488
     9.6592   9.6593   9.6593   9.6593   9.7249   9.7249   9.7250   9.7250
    13.0418  13.0418  13.0418  13.0419  13.2361  13.2361  13.2362  13.2362
    13.4046  13.4046  13.4046  13.4046  13.6301  13.6301  13.6302  13.6302
    14.0565  14.0565  14.0565  14.0566  14.0976  14.0976  14.0976  14.0976
    14.9523  14.9523  14.9523  14.9523  16.2338  16.2338  16.2339  16.2339
    16.3409  16.3409  16.3410  16.3410  16.7966  16.7966  16.7967  16.7968

          k = 0.1250 0.1250 0.0000 ( 14849 PWs)   bands (ev):

   -46.0192 -46.0182 -46.0181 -46.0181 -46.0171 -46.0171 -46.0170 -46.0161
   -22.4621 -22.4587 -22.4587 -22.4561 -22.4127 -22.4107 -22.4107 -22.4088
   -22.4045 -22.4045 -22.4012 -22.4012 -22.4012 -22.4011 -22.3988 -22.3987
   -22.3535 -22.3534 -22.3515 -22.3514 -22.3514 -22.3514 -22.3496 -22.3496
   -14.5266 -14.4149 -14.4132 -14.4131 -14.3407 -14.3406 -14.3383 -14.2752
    -6.8203  -6.8203  -6.7634  -6.6037  -6.3564  -6.2127  -6.2127  -5.9509
    -5.9447  -5.9447  -5.8919  -5.8919  -5.8625  -5.8237  -5.8034  -5.7951
    -5.7918  -5.7918  -5.7847  -5.7317  -5.6783  -5.6339  -5.5903  -5.5903
    -0.4366  -0.3877  -0.3450   0.2070   0.2070   0.2177   0.2575   0.2745
     0.2745   0.2872   0.2912   0.3347   0.4079   0.4400   0.4401   0.4628
     0.4628   0.4812   0.6148   0.6148   0.6508   0.6631   0.6631   0.7002
     5.7732   5.9460   5.9460   5.9600   6.1508   6.1816   6.1816   6.2244
     6.2885   6.2885   6.4255   6.4538   6.4538   6.4854   6.4999   7.3900
     7.3900   7.3943   7.4107   7.4108   7.4487   7.4641   7.4696   7.4696
     7.4932   7.5648   7.5648   7.6596   7.7552   7.7671   7.7989   7.8001
     7.8766   7.8851   7.8894   7.8895   7.9999   8.0317   8.0317   8.4481
     8.4481   8.4976   8.5328   8.5328   8.5773   8.7050   8.7558   8.7575
     8.7575   8.8148   9.0534   9.0821   9.0821   9.1373   9.2235   9.3109
     9.3109   9.3602   9.3602   9.3889   9.4132   9.4132   9.4900   9.6219
     9.8941   9.9176  10.0205  10.0205  10.0468  10.0840  10.1554  10.1817
    12.2226  12.3684  12.4094  12.4360  12.5305  12.5305  13.7747  13.7747
    13.8215  13.8215  13.8260  13.8278  13.8278  13.8635  13.8734  13.8930
    13.9180  13.9181  14.2213  14.2337  14.2337  14.4447  14.4630  14.4689
    14.5425  14.5425  14.5655  14.5695  14.5817  15.0077  15.2302  15.3279
    15.3279  15.3729  16.2158  16.2158  16.4966  16.7840  16.9678  17.0813

          k = 0.1250 0.1250 0.1236 ( 14847 PWs)   bands (ev):

   -46.0191 -46.0182 -46.0181 -46.0181 -46.0172 -46.0172 -46.0170 -46.0161
   -22.4602 -22.4569 -22.4569 -22.4543 -22.4146 -22.4125 -22.4125 -22.4106
   -22.4044 -22.4044 -22.4014 -22.4014 -22.4012 -22.4010 -22.3988 -22.3988
   -22.3534 -22.3533 -22.3516 -22.3515 -22.3513 -22.3513 -22.3496 -22.3496
   -14.5225 -14.4193 -14.4105 -14.4104 -14.3435 -14.3434 -14.3359 -14.2777
    -6.8015  -6.8015  -6.7514  -6.6007  -6.3375  -6.2471  -6.2471  -5.9535
    -5.9327  -5.9327  -5.8898  -5.8898  -5.8611  -5.8252  -5.8229  -5.7974
    -5.7836  -5.7835  -5.7797  -5.7478  -5.6776  -5.6408  -5.5984  -5.5984
    -0.4129  -0.3855  -0.2923   0.1912   0.2179   0.2179   0.2254   0.2804
     0.2805   0.2876   0.2916   0.3598   0.4031   0.4141   0.4141   0.4703
     0.4821   0.4821   0.6103   0.6129   0.6129   0.6488   0.6488   0.6902
     5.8041   5.9610   5.9818   5.9818   6.2102   6.2185   6.2185   6.2805
     6.2805   6.2871   6.4632   6.4815   6.4815   6.4859   6.4992   7.3922
     7.3922   7.3998   7.3999   7.4103   7.4620   7.4620   7.4685   7.4832
     7.5130   7.5925   7.5925   7.6241   7.7270   7.7270   7.7440   7.7636
     7.7824   7.7971   7.8511   7.8746   8.0165   8.0253   8.0253   8.3897
     8.4653   8.4653   8.5963   8.6776   8.6776   8.7153   8.7174   8.7388
     8.7781   8.7781   9.0515   9.0515   9.0640   9.1594   9.2452   9.2554
     9.2554   9.3567   9.3568   9.3602   9.3602   9.4068   9.5022   9.5729
     9.8701   9.8739   9.9996   9.9996  10.0020  10.0346  10.1572  10.1872
    12.2279  12.3628  12.4735  12.4928  12.5907  12.5907  13.7778  13.7778
    13.8189  13.8241  13.8241  13.8246  13.8246  13.8370  13.8501  13.8701
    13.8701  13.8851  14.2030  14.2030  14.2289  14.4288  14.4340  14.4472
    14.5648  14.5676  14.6272  14.6272  14.6854  15.1316  15.3031  15.3242
    15.3242  15.4461  16.2562  16.2562  16.4455  16.7993  17.0567  17.1198

          k = 0.1250 0.1250 0.2473 ( 14813 PWs)   bands (ev):

   -46.0190 -46.0184 -46.0179 -46.0179 -46.0173 -46.0173 -46.0168 -46.0162
   -22.4549 -22.4517 -22.4517 -22.4492 -22.4200 -22.4177 -22.4177 -22.4157
   -22.4040 -22.4040 -22.4017 -22.4017 -22.4009 -22.4008 -22.3991 -22.3991
   -22.3532 -22.3531 -22.3518 -22.3517 -22.3511 -22.3511 -22.3498 -22.3498
   -14.5106 -14.4316 -14.4027 -14.4027 -14.3515 -14.3514 -14.3291 -14.2846
    -6.7471  -6.7471  -6.7187  -6.5968  -6.3325  -6.3325  -6.2829  -5.9553
    -5.9093  -5.9093  -5.8941  -5.8847  -5.8847  -5.8569  -5.8294  -5.7915
    -5.7800  -5.7655  -5.7619  -5.7619  -5.6827  -5.6602  -5.6216  -5.6215
    -0.3452  -0.3422  -0.1767   0.1166   0.1366   0.2440   0.2440   0.2945
     0.3039   0.3040   0.3043   0.3758   0.3758   0.3897   0.4137   0.4406
     0.4981   0.4981   0.4983   0.6071   0.6071   0.6129   0.6129   0.6603
     5.8709   5.9631   6.0632   6.0632   6.2595   6.2595   6.3301   6.3301
     6.3823   6.4617   6.4873   6.4970   6.5803   6.5803   6.5955   7.3114
     7.3114   7.3979   7.3979   7.4196   7.4196   7.4593   7.4769   7.4769
     7.4948   7.5250   7.5254   7.5611   7.5639   7.6704   7.6704   7.7517
     7.7608   7.8014   7.8417   7.9129   8.0347   8.0348   8.0656   8.1074
     8.5143   8.5143   8.5807   8.6048   8.6562   8.7168   8.7168   8.7580
     8.8914   8.8914   9.0452   9.0948   9.0948   9.1443   9.1443   9.2287
     9.2566   9.2566   9.3072   9.3073   9.3113   9.4149   9.4576   9.5403
     9.7839   9.8222   9.8785   9.9118   9.9338   9.9338  10.1612  10.1889
    12.2447  12.3450  12.6513  12.6588  12.7554  12.7554  13.6675  13.6858
    13.7231  13.7231  13.7841  13.7841  13.8244  13.8244  13.8399  13.8399
    13.9155  13.9453  14.1283  14.1283  14.2527  14.3575  14.3612  14.4141
    14.5639  14.5656  14.8262  14.8262  14.9671  15.3092  15.3092  15.4644
    15.5091  15.6596  16.2874  16.3882  16.3882  16.7896  16.8880  17.3439

          k = 0.1250 0.1250 0.3709 ( 14822 PWs)   bands (ev):

   -46.0188 -46.0185 -46.0178 -46.0178 -46.0174 -46.0174 -46.0167 -46.0164
   -22.4470 -22.4439 -22.4439 -22.4415 -22.4280 -22.4256 -22.4256 -22.4234
   -22.4035 -22.4035 -22.4022 -22.4022 -22.4005 -22.4004 -22.3995 -22.3994
   -22.3529 -22.3528 -22.3521 -22.3520 -22.3508 -22.3508 -22.3501 -22.3501
   -14.4928 -14.4500 -14.3911 -14.3911 -14.3634 -14.3633 -14.3190 -14.2949
    -6.6741  -6.6627  -6.6627  -6.6042  -6.4421  -6.4421  -6.1995  -5.9908
    -5.9426  -5.8895  -5.8895  -5.8797  -5.8797  -5.8506  -5.8501  -5.8358
    -5.7535  -5.7445  -5.7313  -5.7313  -5.6981  -5.6887  -5.6556  -5.6556
    -0.2520  -0.2425  -0.0216   0.0071   0.0104   0.2719   0.2719   0.3186
     0.3236   0.3369   0.3369   0.3382   0.3545   0.3545   0.3698   0.3995
     0.4804   0.4819   0.4819   0.5847   0.5847   0.5976   0.5976   0.6120
     5.9262   5.9624   6.1386   6.1386   6.2291   6.2291   6.4893   6.4943
     6.5104   6.5104   6.6437   6.7128   6.7744   6.7744   6.8459   7.0330
     7.0330   7.2717   7.2717   7.2774   7.2832   7.4053   7.4053   7.4273
     7.4273   7.5018   7.5391   7.6095   7.6269   7.7264   7.7286   7.7438
     7.7834   7.7834   7.7839   7.7937   7.9998   7.9998   8.0793   8.1455
     8.4097   8.4483   8.5847   8.5847   8.6996   8.6996   8.7483   8.8413
     8.8778   8.8778   8.9702   9.0224   9.0224   9.1219   9.1219   9.1911
     9.2145   9.2145   9.3485   9.3966   9.3966   9.4230   9.5313   9.5992
     9.7014   9.7026   9.7478   9.7518   9.8136   9.8136  10.1677  10.1840
    12.2687  12.3215  12.9014  12.9045  12.9882  12.9882  13.4418  13.4578
    13.5082  13.5082  13.7933  13.7933  13.8156  13.8156  13.8757  13.8757
    14.0117  14.0306  14.0306  14.0307  14.2459  14.2530  14.2903  14.3762
    14.5636  14.5651  15.0369  15.0369  15.2686  15.2686  15.3321  15.8160
    15.9022  15.9958  16.0299  16.5556  16.6267  16.6267  16.6588  16.8961

          k = 0.1250 0.1250-0.4946 ( 14838 PWs)   bands (ev):

   -46.0187 -46.0187 -46.0176 -46.0176 -46.0176 -46.0176 -46.0165 -46.0165
   -22.4375 -22.4375 -22.4348 -22.4348 -22.4348 -22.4348 -22.4325 -22.4325
   -22.4029 -22.4029 -22.4029 -22.4029 -22.4000 -22.4000 -22.3999 -22.3999
   -22.3525 -22.3525 -22.3524 -22.3524 -22.3505 -22.3505 -22.3505 -22.3505
   -14.4715 -14.4715 -14.3773 -14.3773 -14.3772 -14.3772 -14.3070 -14.3069
    -6.6315  -6.6314  -6.5571  -6.5571  -6.5570  -6.5570  -6.0976  -6.0975
    -5.9060  -5.9059  -5.8798  -5.8798  -5.8797  -5.8797  -5.8433  -5.8431
    -5.7216  -5.7215  -5.7205  -5.7203  -5.6945  -5.6945  -5.6943  -5.6943
    -0.1277  -0.1276  -0.1192  -0.1191   0.1567   0.1568   0.3016   0.3017
     0.3017   0.3017   0.3465   0.3465   0.3560   0.3560   0.4223   0.4223
     0.4223   0.4223   0.5496   0.5496   0.5867   0.5867   0.5868   0.5868
     5.9538   5.9539   6.1911   6.1911   6.1912   6.1912   6.4920   6.4921
     6.7481   6.7481   6.7482   6.7482   6.9596   6.9598   6.9907   6.9907
     7.0333   7.0333   7.0334   7.0334   7.2084   7.2085   7.4140   7.4140
     7.4141   7.4142   7.6356   7.6357   7.6848   7.6848   7.7024   7.7026
     7.7281   7.7282   7.9052   7.9052   7.9053   7.9053   8.2596   8.2597
     8.2665   8.2666   8.6531   8.6531   8.6531   8.6532   8.8615   8.8616
     8.9287   8.9287   8.9288   8.9288   8.9843   8.9844   9.1247   9.1247
     9.1247   9.1247   9.5145   9.5145   9.5748   9.5748   9.6154   9.6155
     9.6325   9.6325   9.6325   9.6325   9.6723   9.6724  10.1758  10.1760
    12.2935  12.2936  13.1734  13.1735  13.1849  13.1850  13.2509  13.2509
    13.2510  13.2510  13.8036  13.8036  13.8037  13.8037  13.9401  13.9401
    13.9401  13.9401  14.1271  14.1271  14.1391  14.1392  14.3328  14.3328
    14.5637  14.5637  15.1855  15.1855  15.1855  15.1855  15.7015  15.7016
    16.1807  16.1809  16.3434  16.3436  16.4236  16.4237  16.9584  16.9585

          k = 0.1250 0.2500 0.0000 ( 14859 PWs)   bands (ev):

   -46.0190 -46.0182 -46.0181 -46.0180 -46.0173 -46.0171 -46.0170 -46.0162
   -22.4617 -22.4591 -22.4584 -22.4564 -22.4125 -22.4109 -22.4104 -22.4090
   -22.4041 -22.4016 -22.4009 -22.3990 -22.3986 -22.3954 -22.3954 -22.3930
   -22.3595 -22.3573 -22.3572 -22.3554 -22.3532 -22.3516 -22.3512 -22.3498
   -14.5136 -14.4268 -14.4064 -14.4045 -14.3495 -14.3472 -14.3331 -14.2830
    -6.7835  -6.7692  -6.7075  -6.6116  -6.4145  -6.2918  -6.1546  -5.9409
    -5.9277  -5.9203  -5.8963  -5.8783  -5.8561  -5.8144  -5.8137  -5.8079
    -5.7825  -5.7736  -5.7663  -5.7561  -5.7473  -5.6503  -5.6411  -5.6150
    -0.3799  -0.3018  -0.2468   0.1217   0.1947   0.2210   0.2304   0.2940
     0.3095   0.3096   0.3199   0.3655   0.3858   0.4065   0.4185   0.4398
     0.4808   0.4822   0.5102   0.6039   0.6167   0.6274   0.6306   0.6459
     5.8397   5.9448   6.0122   6.0431   6.1343   6.2583   6.2626   6.3517
     6.3540   6.4400   6.4606   6.4771   6.5839   6.6071   6.6164   7.2514
     7.3666   7.4397   7.4505   7.4539   7.4644   7.4664   7.4739   7.5045
     7.5299   7.5302   7.5453   7.5678   7.5726   7.6079   7.6222   7.7543
     7.7939   7.8393   7.8483   7.9507   8.0098   8.0163   8.0891   8.1664
     8.5178   8.5368   8.5432   8.5853   8.6030   8.6494   8.7024   8.7599
     8.8268   9.0186   9.0238   9.0380   9.1786   9.1867   9.1901   9.1915
     9.2055   9.3008   9.3783   9.3811   9.3886   9.4008   9.4283   9.4649
     9.8129   9.8579   9.9446   9.9463  10.0259  10.0452  10.0810  10.0847
    12.3864  12.4764  12.5157  12.5544  12.5659  12.6440  13.6105  13.6394
    13.6587  13.6706  13.7924  13.8272  13.8472  13.8630  13.8916  13.8921
    13.9141  13.9576  14.1319  14.1481  14.2600  14.3584  14.3832  14.4389
    14.5557  14.5776  14.7270  14.7803  14.8730  15.0234  15.3087  15.4578
    15.5883  15.6643  16.0925  16.3914  16.6269  16.8571  16.9683  17.1385

          k = 0.1250 0.2500 0.1236 ( 14846 PWs)   bands (ev):

   -46.0190 -46.0182 -46.0181 -46.0179 -46.0173 -46.0171 -46.0170 -46.0163
   -22.4599 -22.4573 -22.4566 -22.4546 -22.4144 -22.4128 -22.4123 -22.4108
   -22.4040 -22.4015 -22.4010 -22.3991 -22.3984 -22.3956 -22.3953 -22.3931
   -22.3594 -22.3574 -22.3572 -22.3554 -22.3531 -22.3516 -22.3513 -22.3499
   -14.5096 -14.4239 -14.4105 -14.4019 -14.3525 -14.3448 -14.3359 -14.2855
    -6.7660  -6.7504  -6.6971  -6.6061  -6.3955  -6.3106  -6.1911  -5.9444
    -5.9214  -5.9139  -5.8949  -5.8759  -5.8551  -5.8547  -5.8159  -5.8024
    -5.7759  -5.7710  -5.7670  -5.7628  -5.7322  -5.6559  -5.6485  -5.6214
    -0.3593  -0.3122  -0.1846   0.1363   0.1907   0.2034   0.2247   0.2732
     0.2915   0.3036   0.3273   0.3616   0.3710   0.3984   0.4152   0.4464
     0.4914   0.4927   0.4963   0.6021   0.6041   0.6113   0.6292   0.6492
     5.8747   5.9814   6.0440   6.0537   6.1927   6.2557   6.2941   6.3771
     6.4023   6.4508   6.4699   6.5032   6.5850   6.6186   6.6289   7.2651
     7.3379   7.4384   7.4510   7.4548   7.4584   7.4673   7.4764   7.4812
     7.5142   7.5254   7.5730   7.5825   7.5864   7.5929   7.6295   7.7535
     7.7812   7.8008   7.8353   7.8613   7.9191   7.9666   8.0856   8.1838
     8.4397   8.5491   8.5497   8.6356   8.6555   8.6651   8.7244   8.7575
     8.8097   9.0031   9.0546   9.0647   9.1410   9.1700   9.1720   9.2094
     9.2366   9.3238   9.3280   9.3504   9.3529   9.3965   9.4172   9.4290
     9.7880   9.8192   9.9021   9.9315  10.0004  10.0027  10.0848  10.0897
    12.4135  12.5184  12.5602  12.5752  12.6013  12.6977  13.6138  13.6474
    13.6668  13.6868  13.7969  13.8116  13.8326  13.8406  13.8639  13.8675
    13.8838  13.9115  14.1138  14.1417  14.2316  14.3431  14.3572  14.4119
    14.6371  14.6497  14.7800  14.8193  14.9101  15.1481  15.3027  15.5249
    15.6593  15.6637  16.1329  16.4166  16.5754  16.8939  17.0040  17.1832

          k = 0.1250 0.2500 0.2473 ( 14823 PWs)   bands (ev):

   -46.0189 -46.0182 -46.0181 -46.0178 -46.0174 -46.0171 -46.0170 -46.0164
   -22.4546 -22.4521 -22.4514 -22.4495 -22.4197 -22.4180 -22.4175 -22.4160
   -22.4036 -22.4014 -22.4012 -22.3994 -22.3981 -22.3959 -22.3950 -22.3933
   -22.3592 -22.3577 -22.3570 -22.3556 -22.3529 -22.3515 -22.3513 -22.3501
   -14.4983 -14.4224 -14.4157 -14.3942 -14.3610 -14.3437 -14.3379 -14.2925
    -6.7156  -6.6958  -6.6693  -6.5947  -6.3657  -6.3408  -6.2788  -5.9501
    -5.9389  -5.9185  -5.8920  -5.8890  -5.8698  -5.8503  -5.8258  -5.8074
    -5.7866  -5.7614  -5.7528  -5.7501  -5.7208  -5.6718  -5.6686  -5.6397
    -0.3076  -0.2772  -0.0622   0.1253   0.1697   0.1795   0.1954   0.2357
     0.2836   0.3096   0.3130   0.3487   0.3501   0.3608   0.4477   0.4483
     0.4729   0.4760   0.5260   0.5298   0.6046   0.6076   0.6240   0.6477
     5.9500   6.0457   6.0625   6.1540   6.2370   6.3595   6.4056   6.4235
     6.4589   6.5364   6.5569   6.5889   6.5964   6.6450   6.7084   7.2123
     7.3100   7.3272   7.3780   7.4069   7.4346   7.4439   7.4691   7.4743
     7.4843   7.5049   7.5169   7.6205   7.6240   7.6691   7.6869   7.6884
     7.7080   7.7514   7.7572   7.8064   7.8520   8.0139   8.0820   8.1720
     8.2321   8.4008   8.5128   8.5836   8.6158   8.7048   8.7077   8.9176
     8.9851   9.0044   9.0365   9.0870   9.1442   9.1659   9.1761   9.2302
     9.2341   9.2625   9.2798   9.3202   9.3281   9.3465   9.3916   9.4431
     9.7071   9.7565   9.7849   9.8842   9.8906   9.9300  10.0839  10.0928
    12.4446  12.5452  12.6749  12.7356  12.7404  12.8509  13.6245  13.6497
    13.6612  13.6700  13.6918  13.7334  13.7601  13.7650  13.8093  13.8528
    13.8812  13.9236  14.0254  14.1560  14.1656  14.2582  14.3170  14.3419
    14.7434  14.7806  14.8324  15.0567  15.1023  15.2889  15.4791  15.6552
    15.7143  15.8678  16.2637  16.4170  16.5066  16.9058  17.0113  17.4743

          k = 0.1250 0.2500 0.3709 ( 14820 PWs)   bands (ev):

   -46.0187 -46.0184 -46.0179 -46.0177 -46.0175 -46.0173 -46.0168 -46.0165
   -22.4466 -22.4443 -22.4436 -22.4418 -22.4277 -22.4259 -22.4253 -22.4237
   -22.4031 -22.4019 -22.4008 -22.3998 -22.3976 -22.3964 -22.3946 -22.3937
   -22.3588 -22.3580 -22.3567 -22.3559 -22.3526 -22.3518 -22.3510 -22.3503
   -14.4811 -14.4400 -14.4033 -14.3828 -14.3737 -14.3554 -14.3276 -14.3030
    -6.6386  -6.6334  -6.6111  -6.5898  -6.4488  -6.3897  -6.2567  -6.0426
    -5.9448  -5.9078  -5.8910  -5.8697  -5.8696  -5.8633  -5.8432  -5.8249
    -5.7637  -5.7441  -5.7379  -5.7263  -5.7238  -5.6958  -5.6948  -5.6667
    -0.2313  -0.1849   0.0077   0.0596   0.0897   0.1830   0.2513   0.2546
     0.2546   0.2901   0.3195   0.3318   0.3322   0.3802   0.4006   0.4044
     0.4155   0.4369   0.5352   0.5664   0.6058   0.6067   0.6160   0.6289
     6.0107   6.0457   6.1334   6.2111   6.2554   6.3825   6.5870   6.5878
     6.5895   6.5970   6.6101   6.7396   6.7862   6.8384   6.8738   6.9944
     7.0841   7.2033   7.2123   7.2816   7.3581   7.3889   7.4305   7.4386
     7.4507   7.4805   7.5144   7.5930   7.6030   7.6614   7.7315   7.7541
     7.7550   7.7604   7.7847   7.8435   7.8515   7.8835   8.0254   8.0946
     8.2186   8.2985   8.3655   8.4788   8.6140   8.6466   8.7744   8.9648
     8.9839   9.0036   9.0184   9.1059   9.1101   9.1449   9.1498   9.1786
     9.2654   9.2734   9.3149   9.3688   9.4001   9.4278   9.4649   9.5163
     9.6171   9.6204   9.6848   9.7359   9.7933   9.8000  10.0837  10.0899
    12.4709  12.5223  12.9161  12.9429  12.9745  13.0666  13.4395  13.4686
    13.4922  13.5615  13.6347  13.6649  13.7190  13.8267  13.8648  13.8709
    13.8958  13.9095  14.0064  14.0570  14.1354  14.2025  14.2227  14.2912
    14.7700  14.7806  15.0352  15.2529  15.3225  15.4489  15.6156  15.9246
    15.9967  16.1580  16.1984  16.5027  16.6877  16.6905  16.7424  17.0894

          k = 0.1250 0.2500-0.4946 ( 14826 PWs)   bands (ev):

   -46.0186 -46.0186 -46.0177 -46.0177 -46.0175 -46.0175 -46.0167 -46.0167
   -22.4372 -22.4372 -22.4351 -22.4351 -22.4345 -22.4345 -22.4328 -22.4327
   -22.4025 -22.4025 -22.4003 -22.4003 -22.3970 -22.3970 -22.3942 -22.3942
   -22.3584 -22.3584 -22.3563 -22.3563 -22.3522 -22.3522 -22.3507 -22.3507
   -14.4607 -14.4606 -14.3886 -14.3885 -14.3692 -14.3691 -14.3154 -14.3153
    -6.6030  -6.6029  -6.5452  -6.5451  -6.5052  -6.5051  -6.1532  -6.1530
    -5.9172  -5.9171  -5.8963  -5.8962  -5.8616  -5.8615  -5.8345  -5.8344
    -5.7397  -5.7395  -5.7227  -5.7226  -5.7188  -5.7186  -5.6974  -5.6973
    -0.1211  -0.1211  -0.0665  -0.0664   0.2075   0.2076   0.2522   0.2522
     0.2827   0.2827   0.3094   0.3094   0.3350   0.3351   0.3607   0.3607
     0.4128   0.4128   0.5900   0.5900   0.5940   0.5941   0.6092   0.6092
     6.0382   6.0383   6.1787   6.1788   6.3290   6.3291   6.5897   6.5898
     6.7777   6.7778   6.8206   6.8207   6.9069   6.9070   6.9523   6.9524
     7.0471   7.0472   7.1160   7.1161   7.1994   7.1995   7.4293   7.4294
     7.4918   7.4919   7.4932   7.4933   7.6791   7.6792   7.7007   7.7008
     7.7730   7.7731   7.8190   7.8190   7.9151   7.9152   8.0340   8.0341
     8.2148   8.2149   8.3757   8.3757   8.6207   8.6208   8.8752   8.8752
     8.9717   8.9717   9.0528   9.0528   9.1005   9.1005   9.1809   9.1810
     9.2292   9.2292   9.4400   9.4400   9.5239   9.5240   9.5612   9.5613
     9.6021   9.6022   9.6082   9.6082   9.6500   9.6500  10.0857  10.0859
    12.4964  12.4964  13.1823  13.1823  13.1996  13.1997  13.2388  13.2389
    13.3164  13.3165  13.6472  13.6473  13.8002  13.8002  13.8454  13.8454
    13.9653  13.9654  14.0032  14.0033  14.1116  14.1117  14.2457  14.2458
    14.7769  14.7769  15.1752  15.1752  15.5152  15.5153  15.8217  15.8219
    16.3357  16.3359  16.3851  16.3853  16.6213  16.6215  16.8332  16.8336

          k = 0.1250 0.3750 0.0000 ( 14838 PWs)   bands (ev):

   -46.0188 -46.0184 -46.0179 -46.0178 -46.0175 -46.0173 -46.0168 -46.0164
   -22.4612 -22.4597 -22.4579 -22.4569 -22.4121 -22.4113 -22.4101 -22.4093
   -22.4035 -22.4022 -22.4005 -22.3995 -22.3896 -22.3867 -22.3867 -22.3844
   -22.3685 -22.3661 -22.3660 -22.3640 -22.3528 -22.3520 -22.3509 -22.3501
   -14.4940 -14.4470 -14.3935 -14.3915 -14.3627 -14.3605 -14.3217 -14.2946
    -6.7317  -6.6913  -6.6352  -6.6210  -6.4996  -6.3987  -6.0660  -5.9260
    -5.9033  -5.9017  -5.8829  -5.8587  -5.8550  -5.8321  -5.8318  -5.8192
    -5.8034  -5.7899  -5.7799  -5.7458  -5.7350  -5.7110  -5.6787  -5.6517
    -0.2770  -0.1890  -0.0925  -0.0028   0.0779   0.2452   0.2611   0.2977
     0.3169   0.3209   0.3374   0.3573   0.3804   0.3865   0.3901   0.4074
     0.4493   0.5097   0.5373   0.5497   0.5674   0.5800   0.5866   0.5930
     5.8971   5.9414   6.0614   6.1138   6.1247   6.2275   6.4228   6.4297
     6.4416   6.5551   6.6758   6.7207   6.7818   6.8464   6.8646   6.9600
     7.1346   7.2696   7.2867   7.3486   7.3593   7.4455   7.4585   7.4624
     7.4626   7.4818   7.5662   7.6220   7.6407   7.6545   7.6994   7.7273
     7.7686   7.7825   7.7978   7.8575   7.8838   7.9657   8.1715   8.1860
     8.4380   8.5226   8.5439   8.5721   8.6683   8.6840   8.7413   8.7625
     8.8037   8.9350   8.9412   8.9920   9.0558   9.1340   9.1368   9.2276
     9.2543   9.2789   9.3342   9.3471   9.4876   9.5096   9.5427   9.5448
     9.6707   9.7544   9.7931   9.8131   9.8816   9.9581  10.0355  10.0603
    12.4366  12.4929  12.7406  12.7883  12.8397  12.8508  13.3624  13.3821
    13.4048  13.4322  13.8193  13.8406  13.8492  13.8784  13.9037  13.9069
    13.9907  14.0219  14.0369  14.0439  14.2400  14.2701  14.3011  14.3985
    14.5648  14.5751  14.8913  15.0017  15.0241  15.2455  15.2587  15.8064
    15.8861  15.9188  16.1080  16.6229  16.6855  16.7995  16.8361  16.8571

          k = 0.1250 0.3750 0.1236 ( 14827 PWs)   bands (ev):

   -46.0188 -46.0184 -46.0179 -46.0177 -46.0175 -46.0173 -46.0168 -46.0164
   -22.4593 -22.4579 -22.4561 -22.4551 -22.4140 -22.4131 -22.4119 -22.4111
   -22.4034 -22.4021 -22.4006 -22.3996 -22.3895 -22.3868 -22.3866 -22.3845
   -22.3684 -22.3662 -22.3660 -22.3641 -22.3527 -22.3519 -22.3510 -22.3502
   -14.4903 -14.4439 -14.3974 -14.3889 -14.3660 -14.3580 -14.3244 -14.2971
    -6.7163  -6.6724  -6.6263  -6.6138  -6.4806  -6.4048  -6.1068  -5.9295
    -5.9173  -5.9031  -5.8932  -5.8842  -5.8558  -5.8322  -5.8170  -5.8145
    -5.7941  -5.7920  -5.7753  -5.7420  -5.7335  -5.7168  -5.6815  -5.6557
    -0.2596  -0.2039  -0.0318   0.0140   0.0650   0.2309   0.2443   0.3120
     0.3171   0.3205   0.3262   0.3315   0.3398   0.3748   0.3914   0.4003
     0.4762   0.4786   0.4976   0.5782   0.5900   0.5915   0.5927   0.5997
     5.9348   5.9785   6.1098   6.1238   6.1703   6.2215   6.4545   6.4557
     6.4682   6.5829   6.6847   6.7059   6.7847   6.8605   6.8649   6.9837
     7.1075   7.2529   7.2925   7.3193   7.3772   7.4360   7.4699   7.4723
     7.4873   7.4992   7.5324   7.6009   7.6551   7.6687   7.6987   7.7285
     7.7306   7.7766   7.7788   7.8779   7.8915   7.8973   8.0338   8.1865
     8.3688   8.4851   8.4947   8.5436   8.6701   8.7295   8.7784   8.8111
     8.8136   8.9772   8.9856   9.0108   9.0159   9.1103   9.1501   9.2420
     9.2502   9.2563   9.3214   9.3868   9.4413   9.4992   9.5042   9.5476
     9.6497   9.7198   9.7512   9.8087   9.8782   9.9545  10.0092  10.0353
    12.4961  12.5526  12.7490  12.8154  12.8374  12.8985  13.3655  13.3903
    13.4293  13.4389  13.8277  13.8294  13.8545  13.8562  13.8564  13.8570
    13.9762  13.9995  14.0042  14.0303  14.2206  14.2405  14.2731  14.3697
    14.6455  14.6543  14.9983  15.0031  15.1470  15.2553  15.2773  15.8637
    15.9234  15.9887  16.1114  16.6607  16.6960  16.8052  16.8348  16.9051

          k = 0.1250 0.3750 0.2473 ( 14833 PWs)   bands (ev):

   -46.0187 -46.0183 -46.0180 -46.0176 -46.0176 -46.0172 -46.0170 -46.0165
   -22.4540 -22.4527 -22.4510 -22.4499 -22.4193 -22.4184 -22.4172 -22.4163
   -22.4031 -22.4018 -22.4009 -22.3999 -22.3892 -22.3872 -22.3863 -22.3847
   -22.3682 -22.3665 -22.3658 -22.3643 -22.3525 -22.3517 -22.3512 -22.3504
   -14.4796 -14.4349 -14.4085 -14.3815 -14.3753 -14.3510 -14.3321 -14.3044
    -6.6727  -6.6177  -6.6038  -6.5954  -6.4272  -6.4257  -6.1983  -6.0120
    -5.9377  -5.9118  -5.9039  -5.8570  -5.8525  -5.8480  -5.8306  -5.8017
    -5.7980  -5.7686  -5.7680  -5.7323  -5.7312  -5.7294  -5.6899  -5.6669
    -0.2247  -0.1771   0.0447   0.0683   0.0879   0.1457   0.2415   0.2439
     0.2482   0.2878   0.3062   0.3332   0.3368   0.3947   0.3991   0.4058
     0.4132   0.4474   0.5331   0.5589   0.6023   0.6040   0.6147   0.6282
     6.0160   6.0595   6.1209   6.2067   6.2367   6.3277   6.5467   6.5538
     6.5659   6.6577   6.6663   6.7194   6.7962   6.8544   6.9287   7.0307
     7.0517   7.1993   7.2259   7.3020   7.3920   7.4113   7.4313   7.4536
     7.4776   7.5381   7.5677   7.5729   7.5992   7.6983   7.7044   7.7085
     7.7404   7.7525   7.7656   7.7955   7.8117   7.9298   7.9366   8.1589
     8.2024   8.2468   8.3957   8.4224   8.6591   8.7056   8.7227   8.9719
     8.9720   8.9800   9.0404   9.0559   9.0790   9.0994   9.1791   9.2122
     9.2659   9.2851   9.2945   9.3516   9.4597   9.4643   9.4766   9.5286
     9.5822   9.6440   9.6721   9.7901   9.8417   9.9276   9.9459   9.9782
    12.6437  12.7175  12.7856  12.8233  12.9075  13.0293  13.3766  13.4170
    13.4254  13.5293  13.6813  13.7118  13.7162  13.8514  13.8541  13.8800
    13.8942  13.9051  13.9727  14.0539  14.1248  14.1953  14.2080  14.2936
    14.8141  14.8368  14.9998  15.2435  15.2831  15.4112  15.4734  16.0253
    16.0526  16.1079  16.1954  16.6416  16.7351  16.7702  16.8742  17.1074

          k = 0.1250 0.3750 0.3709 ( 14826 PWs)   bands (ev):

   -46.0186 -46.0182 -46.0181 -46.0177 -46.0175 -46.0171 -46.0170 -46.0167
   -22.4461 -22.4448 -22.4432 -22.4422 -22.4273 -22.4263 -22.4249 -22.4241
   -22.4026 -22.4014 -22.4013 -22.4003 -22.3887 -22.3876 -22.3860 -22.3851
   -22.3678 -22.3669 -22.3654 -22.3646 -22.3522 -22.3515 -22.3514 -22.3507
   -14.4635 -14.4250 -14.4214 -14.3891 -14.3702 -14.3435 -14.3404 -14.3152
    -6.6086  -6.5797  -6.5760  -6.5327  -6.4718  -6.3410  -6.3105  -6.1219
    -5.9418  -5.9209  -5.9086  -5.8957  -5.8391  -5.8389  -5.8253  -5.8068
    -5.7840  -5.7630  -5.7609  -5.7471  -5.7230  -5.7189  -5.7021  -5.6835
    -0.1727  -0.0913   0.0293   0.0543   0.1372   0.1419   0.1585   0.2278
     0.2495   0.2747   0.2908   0.2964   0.3289   0.3493   0.3983   0.4004
     0.4048   0.4824   0.4871   0.5847   0.5954   0.6186   0.6282   0.6364
     6.0793   6.1167   6.1257   6.1871   6.3898   6.5592   6.6031   6.6986
     6.7159   6.7303   6.7423   6.8278   6.8378   6.8834   6.9231   7.0561
     7.0620   7.1142   7.1564   7.1699   7.2790   7.3728   7.3842   7.3992
     7.4373   7.4826   7.5203   7.5721   7.6520   7.6877   7.7038   7.7049
     7.7341   7.7399   7.7601   7.7828   7.8121   7.9816   8.0040   8.0095
     8.0124   8.0741   8.2412   8.2628   8.6211   8.6351   8.6987   8.8423
     8.9941   9.0784   9.1078   9.1399   9.1476   9.2038   9.2228   9.2552
     9.2743   9.3173   9.3235   9.3564   9.4598   9.4894   9.4907   9.4991
     9.5416   9.5440   9.6432   9.7265   9.7444   9.7862   9.9366   9.9424
    12.7395  12.8030  12.9474  12.9534  13.0594  13.2223  13.3853  13.3944
    13.4670  13.4964  13.5021  13.5202  13.6608  13.6644  13.7515  13.8827
    13.9279  13.9468  13.9781  13.9829  14.0902  14.0977  14.1617  14.1993
    14.9220  14.9913  15.0243  15.2130  15.6341  15.6913  15.9206  16.0605
    16.2682  16.2928  16.3828  16.5242  16.7407  16.8893  16.9384  16.9598

          k = 0.1250 0.3750-0.4946 ( 14808 PWs)   bands (ev):

   -46.0184 -46.0184 -46.0179 -46.0179 -46.0173 -46.0173 -46.0168 -46.0168
   -22.4367 -22.4367 -22.4356 -22.4356 -22.4341 -22.4341 -22.4332 -22.4332
   -22.4020 -22.4020 -22.4008 -22.4008 -22.3882 -22.3882 -22.3855 -22.3855
   -22.3673 -22.3673 -22.3650 -22.3650 -22.3519 -22.3518 -22.3510 -22.3510
   -14.4444 -14.4443 -14.4054 -14.4053 -14.3570 -14.3569 -14.3279 -14.3278
    -6.5684  -6.5683  -6.5366  -6.5365  -6.4265  -6.4264  -6.2358  -6.2357
    -5.9292  -5.9291  -5.9170  -5.9169  -5.8340  -5.8339  -5.8167  -5.8166
    -5.7678  -5.7677  -5.7577  -5.7576  -5.7142  -5.7140  -5.7022  -5.7020
    -0.0848  -0.0848   0.0195   0.0195   0.0925   0.0926   0.2337   0.2338
     0.2663   0.2663   0.2775   0.2775   0.3662   0.3662   0.3726   0.3726
     0.4004   0.4005   0.5547   0.5548   0.6213   0.6213   0.6286   0.6286
     6.1072   6.1073   6.1629   6.1630   6.5144   6.5145   6.7725   6.7725
     6.8117   6.8118   6.8198   6.8199   6.9296   6.9297   6.9352   6.9352
     7.0715   7.0717   7.1762   7.1763   7.2696   7.2697   7.2865   7.2866
     7.3626   7.3627   7.6012   7.6013   7.6243   7.6243   7.7172   7.7172
     7.7556   7.7556   7.8359   7.8360   7.8386   7.8386   7.9463   7.9464
     8.1024   8.1024   8.1227   8.1228   8.5963   8.5963   8.7373   8.7374
     9.0649   9.0649   9.1418   9.1418   9.1793   9.1793   9.2251   9.2251
     9.3441   9.3441   9.3973   9.3973   9.4590   9.4591   9.5480   9.5480
     9.5840   9.5840   9.6054   9.6054   9.6589   9.6589   9.9332   9.9334
    12.7764  12.7765  13.2098  13.2099  13.2118  13.2119  13.2697  13.2697
    13.4186  13.4186  13.4454  13.4454  13.6089  13.6090  13.8199  13.8200
    13.9159  13.9159  14.0035  14.0036  14.0741  14.0741  14.1366  14.1367
    14.9705  14.9706  15.1483  15.1483  15.9161  15.9162  16.0472  16.0473
    16.3819  16.3820  16.5670  16.5671  16.6208  16.6209  16.9452  16.9453

          k = 0.1250-0.5000 0.0000 ( 14828 PWs)   bands (ev):

   -46.0186 -46.0186 -46.0177 -46.0177 -46.0176 -46.0176 -46.0166 -46.0166
   -22.4604 -22.4604 -22.4574 -22.4574 -22.4117 -22.4117 -22.4097 -22.4097
   -22.4028 -22.4028 -22.4000 -22.4000 -22.3791 -22.3791 -22.3764 -22.3764
   -22.3764 -22.3764 -22.3742 -22.3742 -22.3524 -22.3524 -22.3505 -22.3505
   -14.4707 -14.4706 -14.3782 -14.3781 -14.3761 -14.3761 -14.3082 -14.3082
    -6.6778  -6.6778  -6.5970  -6.5970  -6.5138  -6.5138  -5.9592  -5.9592
    -5.9129  -5.9129  -5.8702  -5.8702  -5.8388  -5.8388  -5.8374  -5.8374
    -5.7861  -5.7861  -5.7811  -5.7811  -5.7125  -5.7125  -5.6943  -5.6943
    -0.1438  -0.1438  -0.0568  -0.0568   0.0965   0.0965   0.2793   0.2793
     0.3056   0.3056   0.3501   0.3501   0.3716   0.3716   0.4617   0.4617
     0.4763   0.4763   0.5169   0.5169   0.5541   0.5541   0.5642   0.5642
     5.9282   5.9282   6.0911   6.0911   6.1837   6.1837   6.4387   6.4387
     6.6662   6.6662   6.8200   6.8200   6.9712   6.9713   7.0306   7.0307
     7.0474   7.0474   7.1229   7.1229   7.2060   7.2060   7.4598   7.4599
     7.4720   7.4720   7.6719   7.6719   7.6879   7.6879   7.7197   7.7197
     7.7687   7.7687   7.7692   7.7692   7.8439   7.8439   8.2934   8.2934
     8.3655   8.3655   8.5492   8.5492   8.8188   8.8188   8.8247   8.8247
     8.8391   8.8391   8.8888   8.8888   8.9182   8.9182   9.1699   9.1700
     9.1950   9.1951   9.4991   9.4991   9.6141   9.6141   9.6312   9.6312
     9.6443   9.6443   9.7002   9.7002   9.7660   9.7660  10.0473  10.0473
    12.4651  12.4651  13.0573  13.0573  13.0820  13.0820  13.1227  13.1227
    13.1459  13.1459  13.8312  13.8312  13.8982  13.8982  13.9205  13.9205
    13.9533  13.9533  14.1104  14.1104  14.1459  14.1460  14.3507  14.3507
    14.5708  14.5708  14.9877  14.9877  15.1642  15.1642  15.5966  15.5967
    16.2190  16.2190  16.3440  16.3440  16.5278  16.5278  17.0532  17.0543

          k = 0.1250-0.5000 0.1236 ( 14836 PWs)   bands (ev):

   -46.0186 -46.0186 -46.0177 -46.0177 -46.0175 -46.0175 -46.0166 -46.0166
   -22.4586 -22.4586 -22.4556 -22.4556 -22.4136 -22.4136 -22.4115 -22.4115
   -22.4027 -22.4027 -22.4001 -22.4001 -22.3790 -22.3790 -22.3765 -22.3765
   -22.3763 -22.3763 -22.3743 -22.3743 -22.3523 -22.3523 -22.3506 -22.3506
   -14.4672 -14.4672 -14.3818 -14.3817 -14.3735 -14.3735 -14.3108 -14.3108
    -6.6653  -6.6653  -6.5780  -6.5780  -6.5117  -6.5116  -6.0084  -6.0084
    -5.9145  -5.9145  -5.8543  -5.8543  -5.8447  -5.8447  -5.8337  -5.8336
    -5.7842  -5.7842  -5.7830  -5.7830  -5.7119  -5.7119  -5.6955  -5.6955
    -0.1274  -0.1274  -0.0728  -0.0728   0.1471   0.1471   0.2714   0.2715
     0.2761   0.2762   0.3449   0.3449   0.3569   0.3569   0.4148   0.4149
     0.4593   0.4593   0.5405   0.5405   0.5777   0.5778   0.5819   0.5819
     5.9664   5.9664   6.1435   6.1435   6.1799   6.1800   6.4641   6.4641
     6.6952   6.6952   6.8219   6.8219   6.9594   6.9594   7.0103   7.0104
     7.0523   7.0524   7.1398   7.1399   7.2057   7.2057   7.4662   7.4662
     7.4953   7.4953   7.6330   7.6330   7.6975   7.6975   7.6977   7.6977
     7.7754   7.7754   7.7796   7.7796   7.8138   7.8138   8.2024   8.2024
     8.3338   8.3339   8.5004   8.5004   8.7680   8.7680   8.8730   8.8730
     8.8933   8.8933   8.9261   8.9261   8.9370   8.9370   9.1543   9.1543
     9.2086   9.2087   9.4850   9.4850   9.5879   9.5879   9.6094   9.6094
     9.6233   9.6233   9.7052   9.7052   9.7588   9.7588  10.0189  10.0189
    12.5257  12.5257  13.0640  13.0640  13.0983  13.0983  13.1401  13.1401
    13.1597  13.1598  13.8452  13.8452  13.8452  13.8452  13.9072  13.9072
    13.9277  13.9277  14.0914  14.0915  14.1135  14.1135  14.3212  14.3212
    14.6511  14.6511  15.1061  15.1061  15.1619  15.1619  15.6330  15.6330
    16.2640  16.2641  16.4150  16.4150  16.5423  16.5423  17.0549  17.0558

          k = 0.1250-0.5000 0.2473 ( 14838 PWs)   bands (ev):

   -46.0185 -46.0185 -46.0178 -46.0178 -46.0174 -46.0174 -46.0167 -46.0167
   -22.4533 -22.4533 -22.4505 -22.4505 -22.4189 -22.4189 -22.4168 -22.4168
   -22.4024 -22.4024 -22.4004 -22.4004 -22.3787 -22.3787 -22.3768 -22.3768
   -22.3761 -22.3761 -22.3745 -22.3745 -22.3521 -22.3521 -22.3508 -22.3508
   -14.4574 -14.4574 -14.3920 -14.3920 -14.3663 -14.3663 -14.3183 -14.3183
    -6.6313  -6.6313  -6.5231  -6.5231  -6.5092  -6.5092  -6.1038  -6.1038
    -5.9201  -5.9201  -5.8866  -5.8866  -5.8236  -5.8236  -5.8159  -5.8159
    -5.7904  -5.7904  -5.7816  -5.7816  -5.7111  -5.7111  -5.6988  -5.6988
    -0.1012  -0.1012  -0.0564  -0.0564   0.1846   0.1846   0.2513   0.2513
     0.2685   0.2685   0.3087   0.3087   0.3310   0.3310   0.3612   0.3612
     0.4305   0.4305   0.5830   0.5830   0.5864   0.5864   0.6111   0.6111
     6.0481   6.0481   6.1704   6.1704   6.2896   6.2896   6.5608   6.5608
     6.7804   6.7804   6.8281   6.8281   6.9342   6.9342   6.9482   6.9482
     7.0687   7.0687   7.1968   7.1968   7.1986   7.1986   7.4576   7.4576
     7.4893   7.4893   7.5570   7.5570   7.6704   7.6704   7.7205   7.7205
     7.7611   7.7611   7.7949   7.7949   7.8182   7.8182   8.0084   8.0084
     8.2681   8.2681   8.3170   8.3170   8.6900   8.6900   8.8087   8.8087
     9.0089   9.0089   9.0397   9.0397   9.0597   9.0597   9.1540   9.1540
     9.2362   9.2362   9.4358   9.4358   9.4913   9.4913   9.5731   9.5731
     9.6438   9.6438   9.6985   9.6985   9.7419   9.7419   9.9338   9.9338
    12.6900  12.6900  13.0791  13.0791  13.1279  13.1279  13.1518  13.1518
    13.2703  13.2703  13.7028  13.7028  13.7815  13.7815  13.8836  13.8836
    13.9506  13.9506  13.9830  13.9830  14.0833  14.0833  14.2448  14.2448
    14.8325  14.8325  15.1542  15.1542  15.4198  15.4198  15.7579  15.7579
    16.3936  16.3936  16.5548  16.5548  16.6224  16.6225  16.9375  16.9379

          k = 0.1250-0.5000 0.3709 ( 14828 PWs)   bands (ev):

   -46.0184 -46.0184 -46.0180 -46.0180 -46.0173 -46.0173 -46.0169 -46.0169
   -22.4454 -22.4454 -22.4427 -22.4427 -22.4268 -22.4268 -22.4245 -22.4245
   -22.4020 -22.4020 -22.4009 -22.4009 -22.3783 -22.3783 -22.3773 -22.3773
   -22.3757 -22.3757 -22.3749 -22.3749 -22.3518 -22.3518 -22.3511 -22.3511
   -14.4426 -14.4425 -14.4072 -14.4071 -14.3554 -14.3554 -14.3294 -14.3294
    -6.5856  -6.5856  -6.5167  -6.5167  -6.4381  -6.4380  -6.2163  -6.2163
    -5.9283  -5.9283  -5.9165  -5.9165  -5.8108  -5.8108  -5.8013  -5.8013
    -5.7932  -5.7932  -5.7851  -5.7851  -5.7105  -5.7105  -5.7035  -5.7035
    -0.0731  -0.0731   0.0226   0.0226   0.0805   0.0806   0.2315   0.2315
     0.2616   0.2616   0.2782   0.2782   0.3678   0.3678   0.3719   0.3719
     0.4056   0.4056   0.5510   0.5510   0.6175   0.6175   0.6313   0.6313
     6.1117   6.1117   6.1586   6.1586   6.4905   6.4905   6.7463   6.7463
     6.8350   6.8350   6.8443   6.8443   6.9125   6.9125   6.9294   6.9294
     7.0915   7.0915   7.1823   7.1823   7.2876   7.2876   7.3073   7.3073
     7.3616   7.3616   7.6124   7.6124   7.6329   7.6329   7.7307   7.7307
     7.7325   7.7325   7.8213   7.8213   7.8430   7.8430   7.8965   7.8965
     8.0890   8.0890   8.1556   8.1556   8.6324   8.6324   8.6938   8.6938
     9.0908   9.0908   9.1323   9.1323   9.1618   9.1618   9.2557   9.2557
     9.3247   9.3247   9.3458   9.3458   9.3703   9.3703   9.6031   9.6031
     9.6564   9.6564   9.6729   9.6729   9.7246   9.7246   9.8032   9.8032
    12.9136  12.9136  13.1088  13.1088  13.1117  13.1117  13.2574  13.2574
    13.4341  13.4341  13.4888  13.4888  13.6039  13.6039  13.8131  13.8131
    13.9432  13.9432  13.9872  13.9872  14.0485  14.0485  14.1452  14.1452
    14.9940  14.9940  15.1337  15.1337  15.8421  15.8421  16.0050  16.0051
    16.4878  16.4878  16.5942  16.5942  16.6727  16.6728  16.9514  16.9514

          k = 0.1250-0.5000-0.4946 ( 14832 PWs)   bands (ev):

   -46.0182 -46.0182 -46.0182 -46.0182 -46.0171 -46.0171 -46.0171 -46.0171
   -22.4362 -22.4362 -22.4362 -22.4362 -22.4336 -22.4336 -22.4336 -22.4336
   -22.4014 -22.4014 -22.4014 -22.4014 -22.3778 -22.3778 -22.3778 -22.3778
   -22.3753 -22.3753 -22.3753 -22.3753 -22.3515 -22.3515 -22.3514 -22.3514
   -14.4250 -14.4250 -14.4249 -14.4249 -14.3425 -14.3425 -14.3424 -14.3424
    -6.5431  -6.5431  -6.5429  -6.5429  -6.3320  -6.3320  -6.3319  -6.3319
    -5.9306  -5.9306  -5.9305  -5.9305  -5.8011  -5.8011  -5.8010  -5.8010
    -5.7905  -5.7905  -5.7904  -5.7904  -5.7081  -5.7081  -5.7080  -5.7080
    -0.0111  -0.0111  -0.0110  -0.0110   0.1242   0.1242   0.1242   0.1243
     0.2628   0.2628   0.2629   0.2629   0.3865   0.3865   0.3865   0.3865
     0.4738   0.4738   0.4738   0.4738   0.6344   0.6344   0.6344   0.6344
     6.1427   6.1427   6.1428   6.1428   6.6902   6.6902   6.6902   6.6902
     6.8367   6.8367   6.8368   6.8368   7.0648   7.0648   7.0648   7.0648
     7.0835   7.0835   7.0836   7.0836   7.1910   7.1910   7.1911   7.1911
     7.4700   7.4700   7.4701   7.4701   7.7065   7.7065   7.7065   7.7065
     7.7278   7.7278   7.7278   7.7278   7.9331   7.9331   7.9332   7.9332
     8.0184   8.0184   8.0185   8.0185   8.6256   8.6256   8.6257   8.6257
     9.1569   9.1569   9.1569   9.1569   9.2513   9.2513   9.2513   9.2513
     9.2725   9.2725   9.2726   9.2726   9.5486   9.5486   9.5486   9.5486
     9.6432   9.6432   9.6432   9.6432   9.7243   9.7243   9.7245   9.7245
    13.0688  13.0688  13.0689  13.0689  13.2468  13.2468  13.2469  13.2469
    13.4155  13.4155  13.4156  13.4156  13.6215  13.6215  13.6215  13.6216
    14.0049  14.0049  14.0049  14.0049  14.0508  14.0508  14.0508  14.0508
    15.0876  15.0876  15.0876  15.0876  16.2403  16.2403  16.2404  16.2404
    16.3389  16.3389  16.3390  16.3390  16.8460  16.8460  16.8461  16.8462

          k = 0.2500 0.2500 0.0000 ( 14825 PWs)   bands (ev):

   -46.0189 -46.0181 -46.0181 -46.0180 -46.0173 -46.0171 -46.0171 -46.0163
   -22.4614 -22.4588 -22.4588 -22.4567 -22.4122 -22.4107 -22.4107 -22.4092
   -22.3982 -22.3982 -22.3959 -22.3955 -22.3951 -22.3951 -22.3934 -22.3932
   -22.3594 -22.3590 -22.3575 -22.3575 -22.3572 -22.3570 -22.3556 -22.3556
   -14.5011 -14.4176 -14.4176 -14.3979 -14.3567 -14.3418 -14.3418 -14.2909
    -6.7376  -6.7376  -6.6514  -6.6115  -6.4517  -6.2344  -6.2344  -5.9280
    -5.9077  -5.9077  -5.8825  -5.8825  -5.8564  -5.8346  -5.8165  -5.8111
    -5.8027  -5.7755  -5.7674  -5.7651  -5.7651  -5.6643  -5.6642  -5.6575
    -0.3486  -0.2274  -0.1305   0.1248   0.1248   0.2263   0.2433   0.2434
     0.2801   0.2958   0.3279   0.3672   0.3772   0.3772   0.4426   0.4578
     0.4578   0.5081   0.5081   0.5441   0.5893   0.6047   0.6095   0.6095
     5.9094   6.0134   6.0134   6.1233   6.1404   6.3846   6.3846   6.4286
     6.4286   6.4997   6.5221   6.6319   6.6319   6.6525   6.6569   7.1263
     7.3743   7.3935   7.3935   7.4345   7.4623   7.4743   7.4743   7.4885
     7.5067   7.5292   7.5292   7.6108   7.6108   7.6193   7.6831   7.6831
     7.7517   7.7546   7.8025   7.8261   7.8525   8.0737   8.0737   8.2633
     8.2633   8.4390   8.5248   8.5248   8.5443   8.5994   8.8539   8.8539
     8.9465   8.9560   8.9811   9.0502   9.0617   9.1217   9.1895   9.2654
     9.2654   9.2944   9.2944   9.3273   9.3687   9.3687   9.4616   9.4616
     9.8032   9.8035   9.9003   9.9342   9.9469   9.9469  10.0119  10.0330
    12.4747  12.6137  12.6228  12.6281  12.6281  12.7330  13.6016  13.6274
    13.6274  13.6532  13.6532  13.7246  13.7423  13.7423  13.8672  13.9000
    13.9494  13.9494  14.0369  14.1775  14.1775  14.2619  14.3489  14.3651
    14.7119  14.7379  14.7379  15.0285  15.0377  15.0511  15.6521  15.6521
    15.6858  15.7812  16.2627  16.2627  16.7229  17.0530  17.0983  17.1058

          k = 0.2500 0.2500 0.1236 ( 14846 PWs)   bands (ev):

   -46.0189 -46.0181 -46.0181 -46.0180 -46.0172 -46.0172 -46.0172 -46.0164
   -22.4595 -22.4570 -22.4570 -22.4549 -22.4141 -22.4125 -22.4125 -22.4110
   -22.3981 -22.3981 -22.3958 -22.3954 -22.3952 -22.3952 -22.3935 -22.3933
   -22.3593 -22.3589 -22.3575 -22.3575 -22.3573 -22.3571 -22.3557 -22.3557
   -14.4973 -14.4148 -14.4148 -14.4019 -14.3542 -14.3448 -14.3447 -14.2935
    -6.7199  -6.7199  -6.6426  -6.6041  -6.4329  -6.2545  -6.2545  -5.9326
    -5.9073  -5.9073  -5.8918  -5.8808  -5.8808  -5.8544  -5.8056  -5.8048
    -5.7902  -5.7819  -5.7656  -5.7606  -5.7606  -5.6701  -5.6701  -5.6637
    -0.3276  -0.2418  -0.0704   0.1357   0.1358   0.2033   0.2352   0.2353
     0.2808   0.2953   0.3096   0.3168   0.3557   0.3557   0.4423   0.4423
     0.4757   0.4935   0.5260   0.5260   0.5992   0.6240   0.6240   0.6273
     5.9501   6.0551   6.0551   6.1405   6.1796   6.4075   6.4075   6.4190
     6.4190   6.5350   6.5434   6.6523   6.6539   6.6539   6.6564   7.1369
     7.3540   7.3540   7.3611   7.4470   7.4475   7.4805   7.4805   7.5088
     7.5110   7.5110   7.5191   7.6280   7.6281   7.6284   7.6852   7.6852
     7.7462   7.7493   7.7839   7.7846   7.8664   7.9706   7.9706   8.2716
     8.2716   8.4123   8.4499   8.5192   8.6110   8.6110   8.8760   8.8761
     8.8837   8.9640   9.0008   9.0900   9.0946   9.1485   9.2162   9.2337
     9.2337   9.2528   9.2528   9.3440   9.3987   9.3987   9.4210   9.4210
     9.7597   9.7821   9.8635   9.9008   9.9298   9.9298  10.0154  10.0307
    12.5185  12.6427  12.6527  12.6820  12.6820  12.7274  13.6307  13.6327
    13.6327  13.6601  13.6601  13.7366  13.7366  13.7438  13.8128  13.8487
    13.8995  13.8995  14.0438  14.1428  14.1428  14.2515  14.3160  14.3312
    14.8235  14.8307  14.8307  15.0290  15.0501  15.1604  15.6490  15.6490
    15.7461  15.8482  16.2869  16.2869  16.6693  17.0584  17.1357  17.1556

          k = 0.2500 0.2500 0.2473 ( 14816 PWs)   bands (ev):

   -46.0188 -46.0181 -46.0179 -46.0179 -46.0173 -46.0173 -46.0171 -46.0165
   -22.4542 -22.4518 -22.4518 -22.4498 -22.4195 -22.4178 -22.4178 -22.4162
   -22.3977 -22.3977 -22.3956 -22.3956 -22.3956 -22.3952 -22.3938 -22.3935
   -22.3591 -22.3587 -22.3576 -22.3573 -22.3572 -22.3572 -22.3559 -22.3559
   -14.4863 -14.4133 -14.4067 -14.4067 -14.3531 -14.3531 -14.3472 -14.3007
    -6.6690  -6.6690  -6.6195  -6.5866  -6.3787  -6.3123  -6.3123  -5.9792
    -5.9415  -5.9020  -5.9020  -5.8768  -5.8768  -5.8486  -5.8293  -5.8107
    -5.7897  -5.7606  -5.7587  -5.7511  -5.7511  -5.6860  -5.6860  -5.6812
    -0.2675  -0.2318   0.0518   0.1385   0.1644   0.1645   0.1982   0.2248
     0.2249   0.2829   0.2887   0.2940   0.3065   0.3066   0.4050   0.4050
     0.4238   0.5387   0.5609   0.5670   0.5670   0.6467   0.6467   0.6606
     6.0407   6.1420   6.1535   6.1535   6.3400   6.3930   6.3930   6.4889
     6.4889   6.6325   6.6355   6.6523   6.6546   6.7300   6.7300   7.1805
     7.2251   7.2251   7.3087   7.3191   7.4782   7.4782   7.4828   7.4910
     7.4910   7.5321   7.6146   7.6147   7.6341   7.6521   7.6793   7.6822
     7.6822   7.7194   7.7422   7.7517   7.8927   7.8927   7.9069   8.1951
     8.2928   8.2928   8.3312   8.3583   8.5703   8.5703   8.8007   8.9890
     9.0116   9.0396   9.0396   9.0779   9.1488   9.1488   9.1567   9.2372
     9.2372   9.2764   9.2936   9.3561   9.3561   9.3894   9.4070   9.4070
     9.6725   9.7248   9.7574   9.8158   9.8752   9.8752  10.0165  10.0253
    12.5876  12.7116  12.7498  12.7752  12.8349  12.8349  13.6491  13.6491
    13.6649  13.6881  13.6881  13.7047  13.7086  13.7087  13.7099  13.7771
    13.7771  13.8022  14.0538  14.0538  14.0681  14.2094  14.2308  14.2522
    15.0309  15.0477  15.0684  15.0684  15.1156  15.4912  15.6389  15.6389
    15.9176  16.0457  16.3756  16.3756  16.5097  17.0125  17.1380  17.2404

          k = 0.2500 0.2500 0.3709 ( 14819 PWs)   bands (ev):

   -46.0186 -46.0183 -46.0178 -46.0178 -46.0174 -46.0174 -46.0170 -46.0166
   -22.4463 -22.4440 -22.4440 -22.4421 -22.4275 -22.4256 -22.4256 -22.4239
   -22.3972 -22.3972 -22.3961 -22.3961 -22.3952 -22.3948 -22.3942 -22.3939
   -22.3588 -22.3584 -22.3579 -22.3576 -22.3569 -22.3569 -22.3562 -22.3562
   -14.4698 -14.4303 -14.3946 -14.3945 -14.3656 -14.3655 -14.3366 -14.3115
    -6.5915  -6.5911  -6.5911  -6.5715  -6.3980  -6.3980  -6.2953  -6.0831
    -5.9420  -5.8901  -5.8901  -5.8792  -5.8746  -5.8746  -5.8400  -5.8195
    -5.7656  -5.7543  -5.7494  -5.7404  -5.7404  -5.7070  -5.7070  -5.7069
    -0.1766  -0.1747   0.0429   0.0575   0.1924   0.1924   0.1981   0.2432
     0.2432   0.2549   0.2550   0.2858   0.2886   0.2918   0.3536   0.3536
     0.3605   0.4737   0.6005   0.6107   0.6107   0.6553   0.6553   0.6678
     6.1125   6.1442   6.2451   6.2451   6.3549   6.3549   6.5748   6.6397
     6.6397   6.6532   6.6534   6.7843   6.8229   6.8869   6.8869   7.0307
     7.0307   7.1085   7.2121   7.2692   7.3610   7.3610   7.4676   7.5000
     7.5000   7.5336   7.5336   7.5402   7.5432   7.6723   7.6810   7.7290
     7.7416   7.7615   7.7615   7.8115   7.8736   7.8736   7.9083   7.9718
     8.1954   8.1969   8.3160   8.3160   8.4415   8.4416   8.7542   8.8536
     9.0765   9.0973   9.0973   9.1309   9.1309   9.1722   9.2199   9.2458
     9.2458   9.3699   9.3699   9.3978   9.4111   9.4337   9.4337   9.4593
     9.5899   9.5956   9.6411   9.6944   9.7734   9.7734  10.0150  10.0194
    12.6269  12.6876  12.9642  12.9652  13.0505  13.0505  13.4441  13.4852
    13.5424  13.5424  13.6695  13.6695  13.7202  13.7202  13.7420  13.7420
    13.8244  13.8868  13.9377  13.9377  14.1016  14.1063  14.1166  14.1982
    15.0364  15.0439  15.3266  15.3266  15.4987  15.6030  15.6030  15.9417
    16.1768  16.2398  16.3619  16.5553  16.5553  16.8001  16.8275  17.1737

          k = 0.2500 0.2500-0.4946 ( 14798 PWs)   bands (ev):

   -46.0185 -46.0185 -46.0176 -46.0176 -46.0176 -46.0176 -46.0168 -46.0168
   -22.4369 -22.4369 -22.4348 -22.4348 -22.4348 -22.4348 -22.4330 -22.4330
   -22.3966 -22.3966 -22.3966 -22.3966 -22.3947 -22.3947 -22.3944 -22.3943
   -22.3584 -22.3583 -22.3580 -22.3580 -22.3565 -22.3565 -22.3565 -22.3565
   -14.4502 -14.4501 -14.3802 -14.3801 -14.3801 -14.3800 -14.3241 -14.3240
    -6.5723  -6.5722  -6.4963  -6.4963  -6.4962  -6.4962  -6.1928  -6.1926
    -5.9215  -5.9214  -5.8788  -5.8788  -5.8787  -5.8787  -5.8298  -5.8297
    -5.7494  -5.7493  -5.7367  -5.7366  -5.7264  -5.7264  -5.7263  -5.7263
    -0.0740  -0.0740  -0.0678  -0.0677   0.2162   0.2162   0.2163   0.2163
     0.2889   0.2889   0.2952   0.2952   0.2953   0.2953   0.3133   0.3133
     0.3461   0.3461   0.6427   0.6427   0.6427   0.6427   0.6465   0.6465
     6.1399   6.1400   6.3081   6.3081   6.3082   6.3082   6.6532   6.6533
     6.8269   6.8269   6.8269   6.8269   6.8464   6.8465   6.9263   6.9263
     7.1259   7.1259   7.1260   7.1260   7.2478   7.2479   7.3976   7.3976
     7.5100   7.5100   7.5101   7.5101   7.6085   7.6086   7.7084   7.7084
     7.7734   7.7735   7.8346   7.8347   7.8347   7.8347   8.0113   8.0113
     8.0660   8.0661   8.3536   8.3536   8.3537   8.3537   8.7658   8.7658
     9.1010   9.1010   9.1010   9.1010   9.1385   9.1385   9.3043   9.3043
     9.3044   9.3044   9.4046   9.4046   9.5036   9.5036   9.5465   9.5466
     9.5526   9.5526   9.6198   9.6198   9.6198   9.6198  10.0155  10.0157
    12.6572  12.6573  13.1986  13.1987  13.2263  13.2264  13.3012  13.3012
    13.3013  13.3013  13.6947  13.6947  13.6948  13.6948  13.8277  13.8277
    13.8277  13.8277  13.9639  13.9640  13.9973  13.9974  14.1515  14.1515
    15.0384  15.0384  15.5110  15.5110  15.5110  15.5110  15.8918  15.8920
    16.4123  16.4124  16.4923  16.4924  16.7707  16.7709  16.8443  16.8444

          k = 0.2500 0.3750 0.0000 ( 14834 PWs)   bands (ev):

   -46.0187 -46.0183 -46.0179 -46.0178 -46.0175 -46.0173 -46.0169 -46.0165
   -22.4608 -22.4594 -22.4583 -22.4572 -22.4119 -22.4110 -22.4103 -22.4096
   -22.3976 -22.3963 -22.3947 -22.3937 -22.3893 -22.3870 -22.3865 -22.3847
   -22.3682 -22.3663 -22.3659 -22.3642 -22.3588 -22.3579 -22.3568 -22.3559
   -14.4823 -14.4371 -14.4038 -14.3852 -14.3709 -14.3548 -14.3303 -14.3027
    -6.6944  -6.6691  -6.6230  -6.5647  -6.5126  -6.3417  -6.1466  -5.9281
    -5.9099  -5.8888  -5.8887  -5.8770  -5.8622  -5.8437  -5.8420  -5.8206
    -5.8056  -5.7872  -5.7643  -5.7578  -5.7389  -5.7314  -5.6971  -5.6788
    -0.2676  -0.1223  -0.0079   0.0248   0.1315   0.1409   0.2290   0.2419
     0.2849   0.3180   0.3246   0.3404   0.3562   0.3656   0.4260   0.4339
     0.4867   0.5007   0.5040   0.5370   0.5618   0.5701   0.5721   0.5887
     5.9669   6.0093   6.0653   6.1094   6.2444   6.3830   6.4963   6.5050
     6.5544   6.6758   6.7028   6.7316   6.8238   6.8527   6.8598   6.9049
     7.1852   7.1968   7.2542   7.3418   7.3825   7.4224   7.4324   7.4574
     7.4696   7.5228   7.5335   7.6240   7.6568   7.6614   7.6719   7.7338
     7.7362   7.7848   7.8138   7.8141   7.8693   7.9746   8.0102   8.1660
     8.2580   8.3928   8.4487   8.4535   8.5018   8.5619   8.7220   8.8573
     8.8862   8.9082   8.9875   9.0189   9.0316   9.1563   9.1851   9.2602
     9.2922   9.3010   9.3322   9.3903   9.4323   9.4726   9.5496   9.5713
     9.6859   9.7372   9.7741   9.7770   9.8068   9.9340   9.9501   9.9735
    12.5395  12.6040  12.8015  12.8364  12.8490  12.9758  13.3785  13.3830
    13.4080  13.5160  13.6479  13.6799  13.6966  13.8525  13.8855  13.9057
    13.9236  13.9313  14.0209  14.0732  14.1288  14.2183  14.2412  14.3152
    14.7474  14.7491  14.9034  15.0362  15.2965  15.3934  15.6028  16.0317
    16.0491  16.0846  16.1034  16.5526  16.7705  16.9062  16.9099  17.0273

          k = 0.2500 0.3750 0.1236 ( 14842 PWs)   bands (ev):

   -46.0187 -46.0182 -46.0179 -46.0178 -46.0174 -46.0174 -46.0170 -46.0166
   -22.4589 -22.4576 -22.4565 -22.4554 -22.4138 -22.4129 -22.4122 -22.4114
   -22.3975 -22.3962 -22.3948 -22.3938 -22.3892 -22.3869 -22.3866 -22.3847
   -22.3681 -22.3662 -22.3660 -22.3643 -22.3587 -22.3578 -22.3568 -22.3560
   -14.4786 -14.4340 -14.4011 -14.3890 -14.3683 -14.3580 -14.3331 -14.3053
    -6.6786  -6.6511  -6.6128  -6.5588  -6.4941  -6.3490  -6.1692  -5.9669
    -5.9143  -5.8882  -5.8857  -5.8855  -5.8599  -5.8408  -5.8255  -5.8200
    -5.8160  -5.7884  -5.7622  -5.7576  -5.7375  -5.7360  -5.7009  -5.6836
    -0.2490  -0.1390   0.0066   0.0806   0.1149   0.1483   0.2201   0.2309
     0.2834   0.3011   0.3025   0.3296   0.3313   0.3657   0.3944   0.4010
     0.4326   0.4503   0.5363   0.5606   0.5972   0.6095   0.6118   0.6162
     6.0116   6.0526   6.1125   6.1631   6.2410   6.3741   6.5163   6.5178
     6.5673   6.6607   6.7165   6.7481   6.8286   6.8478   6.8780   6.9212
     7.1604   7.1913   7.2205   7.3596   7.3801   7.4218   7.4294   7.4618
     7.4879   7.5327   7.5521   7.5917   7.6419   7.6687   7.6822   7.7309
     7.7350   7.7415   7.7989   7.8254   7.8870   7.9356   7.9789   8.0588
     8.2422   8.3798   8.3875   8.4320   8.4607   8.6023   8.6847   8.8333
     8.9373   8.9519   8.9965   9.0547   9.0821   9.1432   9.1816   9.2682
     9.2697   9.3328   9.3596   9.3720   9.3730   9.5107   9.5163   9.5582
     9.6543   9.7136   9.7259   9.7895   9.7988   9.9290   9.9300   9.9576
    12.5913  12.6591  12.8268  12.8634  12.8819  12.9699  13.3876  13.4168
    13.4177  13.5106  13.6582  13.6972  13.7039  13.8340  13.8444  13.8747
    13.8821  13.9150  13.9749  14.0308  14.1195  14.1858  14.2041  14.2826
    14.8434  14.8514  15.0097  15.1572  15.2972  15.4025  15.6014  16.0704
    16.0815  16.1042  16.1479  16.5619  16.8102  16.8507  16.9290  17.0734

          k = 0.2500 0.3750 0.2473 ( 14828 PWs)   bands (ev):

   -46.0186 -46.0181 -46.0179 -46.0178 -46.0175 -46.0173 -46.0171 -46.0167
   -22.4536 -22.4523 -22.4513 -22.4503 -22.4191 -22.4182 -22.4174 -22.4166
   -22.3972 -22.3959 -22.3951 -22.3941 -22.3889 -22.3869 -22.3867 -22.3850
   -22.3679 -22.3662 -22.3660 -22.3646 -22.3585 -22.3576 -22.3571 -22.3562
   -14.4683 -14.4252 -14.3997 -14.3932 -14.3671 -14.3610 -14.3412 -14.3128
    -6.6338  -6.5994  -6.5862  -6.5447  -6.4406  -6.3744  -6.2321  -6.0485
    -5.9251  -5.9008  -5.8884  -5.8761  -5.8551  -5.8542  -5.8361  -5.8034
    -5.8024  -5.7944  -5.7599  -5.7568  -5.7469  -5.7355  -5.7108  -5.6974
    -0.1974  -0.1408   0.0473   0.0927   0.1568   0.1686   0.1967   0.2362
     0.2410   0.2434   0.2718   0.2769   0.2934   0.3015   0.3437   0.3539
     0.3808   0.4774   0.5997   0.6017   0.6095   0.6516   0.6591   0.6615
     6.1136   6.1518   6.2329   6.2340   6.3124   6.3510   6.5726   6.5941
     6.6184   6.6287   6.7486   6.8022   6.8394   6.8505   6.9386   6.9787
     7.0695   7.1183   7.1977   7.3020   7.3830   7.4009   7.4420   7.5319
     7.5358   7.5398   7.5480   7.5569   7.5734   7.6608   7.6964   7.7186
     7.7255   7.7327   7.7670   7.8273   7.8304   7.8596   7.9587   7.9885
     8.1710   8.2145   8.2469   8.3677   8.3679   8.5443   8.6121   8.7385
     9.0619   9.0907   9.1017   9.1120   9.1254   9.1732   9.2208   9.2622
     9.2963   9.3038   9.3445   9.3775   9.4234   9.4677   9.5290   9.5297
     9.5851   9.6402   9.6606   9.7589   9.7724   9.8663   9.9160   9.9222
    12.7285  12.8099  12.8769  12.9379  12.9537  13.0135  13.4111  13.4501
    13.4947  13.5069  13.6891  13.6912  13.7298  13.7375  13.7465  13.7516
    13.8041  13.8637  13.9258  13.9401  14.0801  14.0948  14.1155  14.1963
    15.0796  15.0937  15.2983  15.2999  15.4560  15.4831  15.5929  16.0972
    16.1516  16.2252  16.3353  16.5976  16.6859  16.9216  16.9422  17.2232

          k = 0.2500 0.3750 0.3709 ( 14824 PWs)   bands (ev):

   -46.0184 -46.0181 -46.0180 -46.0176 -46.0176 -46.0172 -46.0172 -46.0168
   -22.4458 -22.4445 -22.4436 -22.4425 -22.4271 -22.4260 -22.4252 -22.4243
   -22.3967 -22.3956 -22.3955 -22.3945 -22.3884 -22.3873 -22.3863 -22.3854
   -22.3675 -22.3666 -22.3657 -22.3649 -22.3582 -22.3574 -22.3573 -22.3565
   -14.4528 -14.4156 -14.4120 -14.3814 -14.3806 -14.3533 -14.3501 -14.3240
    -6.5675  -6.5549  -6.5323  -6.5202  -6.4233  -6.3584  -6.3222  -6.1496
    -5.9332  -5.9073  -5.8960  -5.8929  -5.8624  -5.8496  -5.8275  -5.8043
    -5.7880  -5.7873  -5.7606  -5.7574  -5.7531  -5.7346  -5.7229  -5.7177
    -0.1280  -0.0908   0.0602   0.0848   0.1162   0.1173   0.1724   0.1959
     0.2433   0.2581   0.2584   0.2601   0.2740   0.2839   0.3044   0.3252
     0.3302   0.5527   0.5586   0.6550   0.6555   0.6561   0.6845   0.6894
     6.1933   6.2286   6.2356   6.3190   6.3651   6.5226   6.5532   6.7003
     6.7419   6.7529   6.7736   6.8625   6.9045   6.9226   6.9544   6.9550
     7.0573   7.0890   7.1259   7.1923   7.3466   7.4265   7.4390   7.4477
     7.4573   7.4646   7.4709   7.5791   7.5966   7.6957   7.7029   7.7228
     7.7310   7.7395   7.7518   7.7823   7.7890   7.9191   7.9314   7.9465
     8.0083   8.0284   8.1330   8.1980   8.3391   8.4156   8.5525   8.6107
     9.1074   9.1817   9.1890   9.1930   9.1948   9.2308   9.2395   9.3282
     9.3583   9.3637   9.3858   9.3897   9.4951   9.5062   9.5078   9.5155
     9.5170   9.5183   9.6047   9.6707   9.7160   9.7524   9.8965   9.9008
    12.8487  12.9290  13.0091  13.0256  13.0901  13.2036  13.4397  13.4509
    13.4779  13.5222  13.5319  13.5639  13.6384  13.6406  13.7309  13.7796
    13.7823  13.8081  13.8358  13.9536  13.9771  13.9803  14.0465  14.0906
    15.2551  15.3002  15.3289  15.5651  15.6458  15.6896  15.9337  16.0539
    16.3289  16.4124  16.4468  16.6379  16.6853  16.7854  16.9490  17.0280

          k = 0.2500 0.3750-0.4946 ( 14834 PWs)   bands (ev):

   -46.0183 -46.0183 -46.0178 -46.0178 -46.0174 -46.0174 -46.0170 -46.0170
   -22.4364 -22.4364 -22.4353 -22.4353 -22.4344 -22.4344 -22.4335 -22.4335
   -22.3962 -22.3961 -22.3950 -22.3950 -22.3879 -22.3879 -22.3859 -22.3858
   -22.3671 -22.3670 -22.3653 -22.3653 -22.3578 -22.3578 -22.3569 -22.3569
   -14.4343 -14.4342 -14.3964 -14.3963 -14.3674 -14.3673 -14.3371 -14.3370
    -6.5341  -6.5340  -6.4923  -6.4922  -6.4235  -6.4234  -6.2574  -6.2573
    -5.9253  -5.9252  -5.9019  -5.9018  -5.8517  -5.8516  -5.8162  -5.8161
    -5.7814  -5.7813  -5.7615  -5.7614  -5.7395  -5.7394  -5.7317  -5.7315
    -0.0441  -0.0440   0.0043   0.0043   0.1155   0.1156   0.1926   0.1926
     0.2235   0.2235   0.2504   0.2504   0.2723   0.2724   0.2926   0.2927
     0.4562   0.4562   0.6228   0.6228   0.6831   0.6831   0.6871   0.6871
     6.2214   6.2215   6.2836   6.2837   6.4706   6.4706   6.7489   6.7490
     6.7828   6.7829   6.8335   6.8336   6.9330   6.9331   6.9472   6.9472
     7.1440   7.1441   7.2459   7.2459   7.2494   7.2495   7.2745   7.2746
     7.4481   7.4482   7.5268   7.5268   7.6232   7.6233   7.7248   7.7248
     7.7679   7.7679   7.7948   7.7949   7.8681   7.8682   7.8732   7.8733
     8.0134   8.0135   8.0691   8.0691   8.3383   8.3384   8.5418   8.5419
     9.1522   9.1523   9.2057   9.2057   9.2341   9.2342   9.3580   9.3580
     9.3586   9.3586   9.4410   9.4411   9.4939   9.4940   9.5366   9.5366
     9.5545   9.5545   9.5858   9.5858   9.6207   9.6207   9.8916   9.8918
    12.8965  12.8966  13.2389  13.2390  13.2683  13.2684  13.2986  13.2987
    13.4243  13.4244  13.4738  13.4738  13.6379  13.6379  13.7711  13.7712
    13.7921  13.7922  13.8673  13.8673  13.9417  13.9417  14.0236  14.0237
    15.2922  15.2923  15.4889  15.4889  15.9214  15.9214  16.0604  16.0605
    16.4015  16.4017  16.6209  16.6211  16.7234  16.7236  16.8762  16.8763

          k = 0.2500-0.5000 0.0000 ( 14818 PWs)   bands (ev):

   -46.0185 -46.0185 -46.0177 -46.0177 -46.0176 -46.0176 -46.0167 -46.0167
   -22.4601 -22.4601 -22.4578 -22.4578 -22.4115 -22.4115 -22.4099 -22.4099
   -22.3969 -22.3969 -22.3942 -22.3942 -22.3788 -22.3788 -22.3767 -22.3767
   -22.3762 -22.3762 -22.3745 -22.3745 -22.3584 -22.3584 -22.3564 -22.3564
   -14.4598 -14.4598 -14.3874 -14.3874 -14.3701 -14.3701 -14.3165 -14.3165
    -6.6521  -6.6521  -6.5894  -6.5894  -6.4572  -6.4571  -6.0397  -6.0397
    -5.8968  -5.8968  -5.8664  -5.8664  -5.8409  -5.8409  -5.8397  -5.8396
    -5.7976  -5.7976  -5.7729  -5.7729  -5.7317  -5.7317  -5.7082  -5.7082
    -0.1475  -0.1475   0.0031   0.0031   0.1756   0.1756   0.1972   0.1972
     0.2763   0.2763   0.3069   0.3069   0.3904   0.3904   0.4094   0.4094
     0.4942   0.4942   0.5414   0.5414   0.5515   0.5515   0.5573   0.5573
     5.9966   5.9966   6.0923   6.0923   6.3247   6.3247   6.5468   6.5468
     6.6783   6.6783   6.9305   6.9305   6.9345   6.9345   6.9668   6.9668
     7.1018   7.1019   7.1237   7.1238   7.1892   7.1893   7.4465   7.4465
     7.5287   7.5287   7.5522   7.5522   7.7053   7.7053   7.7162   7.7162
     7.7546   7.7546   7.8433   7.8433   7.8805   7.8805   8.0708   8.0708
     8.2950   8.2951   8.4458   8.4458   8.5420   8.5420   8.6638   8.6638
     8.9681   8.9681   8.9754   8.9754   9.0849   9.0849   9.1885   9.1885
     9.2427   9.2428   9.5376   9.5376   9.5998   9.5998   9.6018   9.6018
     9.6140   9.6140   9.6475   9.6475   9.7795   9.7795   9.9580   9.9580
    12.5759  12.5759  13.0850  13.0851  13.1077  13.1077  13.1276  13.1276
    13.2474  13.2474  13.6646  13.6647  13.7862  13.7862  13.9108  13.9108
    13.9787  13.9787  13.9867  13.9867  14.1237  14.1237  14.2676  14.2676
    14.7547  14.7547  14.9992  14.9992  15.4929  15.4929  15.7520  15.7520
    16.4033  16.4034  16.5211  16.5211  16.5556  16.5556  16.9117  16.9117

          k = 0.2500-0.5000 0.1236 ( 14824 PWs)   bands (ev):

   -46.0185 -46.0185 -46.0176 -46.0176 -46.0176 -46.0176 -46.0168 -46.0168
   -22.4582 -22.4582 -22.4560 -22.4560 -22.4133 -22.4133 -22.4118 -22.4118
   -22.3968 -22.3968 -22.3943 -22.3943 -22.3787 -22.3787 -22.3766 -22.3766
   -22.3763 -22.3763 -22.3746 -22.3746 -22.3583 -22.3583 -22.3564 -22.3564
   -14.4564 -14.4564 -14.3848 -14.3847 -14.3736 -14.3736 -14.3193 -14.3193
    -6.6389  -6.6389  -6.5712  -6.5712  -6.4562  -6.4562  -6.0674  -6.0674
    -5.8986  -5.8986  -5.8585  -5.8585  -5.8537  -5.8537  -5.8363  -5.8363
    -5.7996  -5.7996  -5.7728  -5.7727  -5.7332  -5.7332  -5.7102  -5.7102
    -0.1313  -0.1313  -0.0151  -0.0151   0.1800   0.1800   0.2452   0.2453
     0.2543   0.2543   0.3033   0.3033   0.3572   0.3572   0.3781   0.3781
     0.4076   0.4076   0.5857   0.5858   0.5897   0.5897   0.6007   0.6007
     6.0415   6.0415   6.1433   6.1433   6.3173   6.3173   6.5570   6.5570
     6.6995   6.6995   6.9223   6.9223   6.9255   6.9255   6.9428   6.9428
     7.1091   7.1091   7.1414   7.1414   7.2066   7.2066   7.4711   7.4711
     7.5260   7.5260   7.5377   7.5378   7.6763   7.6763   7.7064   7.7064
     7.7645   7.7645   7.8379   7.8379   7.8498   7.8498   8.0788   8.0788
     8.2037   8.2038   8.4091   8.4092   8.5189   8.5189   8.6639   8.6639
     9.0026   9.0026   9.0271   9.0271   9.0880   9.0880   9.1782   9.1782
     9.2712   9.2712   9.5142   9.5143   9.5447   9.5447   9.6059   9.6059
     9.6201   9.6201   9.6493   9.6493   9.7704   9.7704   9.9363   9.9363
    12.6298  12.6298  13.1011  13.1011  13.1379  13.1379  13.1441  13.1441
    13.2437  13.2437  13.6779  13.6779  13.7937  13.7937  13.8618  13.8618
    13.9375  13.9375  13.9768  13.9768  14.0820  14.0820  14.2343  14.2343
    14.8510  14.8510  15.1160  15.1161  15.4939  15.4939  15.7673  15.7673
    16.4477  16.4477  16.5606  16.5606  16.5755  16.5755  16.9108  16.9109

          k = 0.2500-0.5000 0.2473 ( 14838 PWs)   bands (ev):

   -46.0184 -46.0184 -46.0177 -46.0177 -46.0176 -46.0176 -46.0169 -46.0169
   -22.4530 -22.4530 -22.4508 -22.4508 -22.4186 -22.4186 -22.4170 -22.4170
   -22.3965 -22.3965 -22.3946 -22.3946 -22.3784 -22.3784 -22.3766 -22.3766
   -22.3764 -22.3764 -22.3748 -22.3748 -22.3581 -22.3581 -22.3566 -22.3566
   -14.4469 -14.4469 -14.3835 -14.3834 -14.3772 -14.3772 -14.3271 -14.3271
    -6.6025  -6.6025  -6.5186  -6.5186  -6.4575  -6.4574  -6.1384  -6.1384
    -5.9050  -5.9050  -5.8824  -5.8824  -5.8424  -5.8424  -5.8279  -5.8279
    -5.8025  -5.8025  -5.7757  -5.7757  -5.7371  -5.7371  -5.7166  -5.7166
    -0.0874  -0.0874  -0.0282  -0.0282   0.1909   0.1909   0.1922   0.1922
     0.2915   0.2916   0.2968   0.2968   0.3043   0.3043   0.3271   0.3271
     0.3467   0.3467   0.6350   0.6350   0.6425   0.6425   0.6438   0.6438
     6.1441   6.1441   6.2797   6.2797   6.2997   6.2997   6.6127   6.6127
     6.7686   6.7686   6.8725   6.8725   6.8965   6.8965   6.9231   6.9231
     7.1307   7.1307   7.1917   7.1917   7.2423   7.2423   7.4294   7.4294
     7.5348   7.5348   7.5393   7.5393   7.6057   7.6057   7.7149   7.7150
     7.7926   7.7926   7.7952   7.7952   7.8250   7.8250   8.0283   8.0283
     8.0789   8.0789   8.2535   8.2535   8.4611   8.4611   8.5822   8.5822
     9.1041   9.1041   9.1135   9.1135   9.1431   9.1431   9.2085   9.2086
     9.3239   9.3239   9.4676   9.4676   9.4697   9.4697   9.5730   9.5731
     9.6161   9.6161   9.6628   9.6628   9.7486   9.7486   9.8713   9.8713
    12.7770  12.7770  13.1348  13.1348  13.1803  13.1803  13.2277  13.2277
    13.2519  13.2519  13.7215  13.7215  13.7219  13.7219  13.8110  13.8110
    13.8177  13.8177  13.9365  13.9365  13.9814  13.9815  14.1458  14.1458
    15.0878  15.0878  15.4311  15.4311  15.4911  15.4911  15.8346  15.8346
    16.5641  16.5641  16.5721  16.5721  16.9159  16.9161  16.9428  16.9429

          k = 0.2500-0.5000 0.3709 ( 14842 PWs)   bands (ev):

   -46.0182 -46.0182 -46.0178 -46.0178 -46.0174 -46.0174 -46.0170 -46.0170
   -22.4451 -22.4451 -22.4431 -22.4431 -22.4266 -22.4266 -22.4248 -22.4248
   -22.3961 -22.3961 -22.3951 -22.3951 -22.3780 -22.3780 -22.3770 -22.3770
   -22.3760 -22.3760 -22.3752 -22.3752 -22.3577 -22.3577 -22.3570 -22.3570
   -14.4325 -14.4325 -14.3982 -14.3982 -14.3658 -14.3658 -14.3387 -14.3387
    -6.5526  -6.5526  -6.4708  -6.4708  -6.4379  -6.4379  -6.2342  -6.2342
    -5.9151  -5.9151  -5.9090  -5.9090  -5.8270  -5.8270  -5.8192  -5.8192
    -5.8004  -5.8004  -5.7832  -5.7832  -5.7399  -5.7399  -5.7269  -5.7269
    -0.0376  -0.0376   0.0107   0.0107   0.1026   0.1026   0.1931   0.1931
     0.2092   0.2092   0.2563   0.2563   0.2836   0.2836   0.2899   0.2899
     0.4584   0.4584   0.6188   0.6188   0.6847   0.6847   0.6848   0.6848
     6.2248   6.2248   6.2798   6.2798   6.4553   6.4553   6.7428   6.7428
     6.7627   6.7628   6.8683   6.8683   6.9011   6.9011   6.9612   6.9612
     7.1525   7.1525   7.2705   7.2705   7.2720   7.2720   7.2765   7.2765
     7.4513   7.4513   7.5197   7.5197   7.6348   7.6348   7.7296   7.7296
     7.7495   7.7495   7.8242   7.8242   7.8540   7.8540   7.8693   7.8693
     8.0290   8.0290   8.0338   8.0338   8.4011   8.4011   8.4516   8.4516
     9.1676   9.1676   9.1976   9.1976   9.2274   9.2274   9.3600   9.3600
     9.3658   9.3658   9.3856   9.3856   9.4203   9.4203   9.5672   9.5672
     9.6169   9.6169   9.6439   9.6439   9.7247   9.7247   9.7737   9.7737
    12.9845  12.9845  13.1774  13.1775  13.2003  13.2003  13.2865  13.2865
    13.4125  13.4125  13.5158  13.5158  13.6346  13.6346  13.7858  13.7858
    13.7931  13.7931  13.8565  13.8565  13.9232  13.9233  14.0297  14.0297
    15.3165  15.3165  15.4750  15.4750  15.8544  15.8544  16.0187  16.0187
    16.5016  16.5016  16.6706  16.6708  16.7592  16.7592  16.9314  16.9316

          k = 0.2500-0.5000-0.4946 ( 14848 PWs)   bands (ev):

   -46.0180 -46.0180 -46.0180 -46.0180 -46.0172 -46.0172 -46.0172 -46.0172
   -22.4359 -22.4359 -22.4358 -22.4358 -22.4339 -22.4339 -22.4339 -22.4339
   -22.3956 -22.3956 -22.3956 -22.3956 -22.3775 -22.3775 -22.3775 -22.3775
   -22.3756 -22.3756 -22.3756 -22.3756 -22.3574 -22.3574 -22.3573 -22.3573
   -14.4155 -14.4155 -14.4154 -14.4154 -14.3523 -14.3523 -14.3523 -14.3522
    -6.5040  -6.5040  -6.5039  -6.5039  -6.3389  -6.3389  -6.3388  -6.3388
    -5.9200  -5.9200  -5.9199  -5.9199  -5.8179  -5.8179  -5.8178  -5.8178
    -5.7929  -5.7929  -5.7928  -5.7928  -5.7368  -5.7368  -5.7366  -5.7366
     0.0204   0.0204   0.0204   0.0204   0.0954   0.0954   0.0955   0.0955
     0.2289   0.2289   0.2289   0.2289   0.2770   0.2770   0.2770   0.2770
     0.5555   0.5555   0.5555   0.5555   0.6999   0.6999   0.6999   0.6999
     6.2595   6.2595   6.2596   6.2596   6.6221   6.6221   6.6221   6.6221
     6.8332   6.8332   6.8332   6.8333   7.0847   7.0847   7.0847   7.0847
     7.1016   7.1016   7.1017   7.1017   7.3114   7.3114   7.3114   7.3115
     7.3963   7.3963   7.3963   7.3963   7.7345   7.7345   7.7346   7.7346
     7.7406   7.7406   7.7406   7.7406   7.8847   7.8847   7.8847   7.8847
     7.9438   7.9438   7.9439   7.9439   8.3828   8.3828   8.3829   8.3829
     9.2249   9.2249   9.2250   9.2250   9.2914   9.2914   9.2914   9.2914
     9.3883   9.3883   9.3884   9.3884   9.5401   9.5401   9.5401   9.5401
     9.5976   9.5976   9.5976   9.5976   9.7174   9.7174   9.7175   9.7175
    13.1491  13.1491  13.1492  13.1492  13.2947  13.2947  13.2948  13.2948
    13.4463  13.4463  13.4464  13.4464  13.5983  13.5983  13.5984  13.5984
    13.8698  13.8698  13.8698  13.8699  13.9210  13.9210  13.9210  13.9210
    15.4326  15.4326  15.4326  15.4326  16.2584  16.2585  16.2586  16.2586
    16.3327  16.3328  16.3328  16.3329  16.9935  16.9935  16.9936  16.9937

          k = 0.3750 0.3750 0.0000 ( 14850 PWs)   bands (ev):

   -46.0186 -46.0181 -46.0181 -46.0177 -46.0176 -46.0171 -46.0171 -46.0167
   -22.4602 -22.4589 -22.4589 -22.4577 -22.4115 -22.4107 -22.4107 -22.4099
   -22.3888 -22.3888 -22.3879 -22.3872 -22.3861 -22.3861 -22.3853 -22.3849
   -22.3682 -22.3674 -22.3668 -22.3668 -22.3657 -22.3653 -22.3646 -22.3646
   -14.4645 -14.4221 -14.4220 -14.3862 -14.3727 -14.3430 -14.3430 -14.3148
    -6.6416  -6.6416  -6.6148  -6.5409  -6.4777  -6.2543  -6.2543  -6.0330
    -5.8836  -5.8687  -5.8687  -5.8662  -5.8662  -5.8510  -5.8468  -5.8230
    -5.8223  -5.7821  -5.7707  -5.7583  -5.7583  -5.7411  -5.7411  -5.6921
    -0.2122  -0.0249   0.0104   0.0104   0.1355   0.1683   0.2129   0.2129
     0.2393   0.2687   0.2924   0.2924   0.3849   0.4145   0.4437   0.4438
     0.4553   0.4553   0.4843   0.5446   0.5460   0.5529   0.5801   0.5801
     6.0228   6.0632   6.0632   6.1019   6.3903   6.6015   6.6015   6.6083
     6.6083   6.7071   6.8084   6.8895   6.8895   6.8896   6.9065   6.9532
     7.0813   7.0876   7.2781   7.2781   7.3272   7.3377   7.3827   7.3827
     7.5168   7.5589   7.5589   7.5813   7.6297   7.6297   7.7072   7.7072
     7.7392   7.7577   7.7834   7.8171   7.8597   8.0407   8.0860   8.0860
     8.1057   8.1057   8.3353   8.4162   8.4162   8.4182   8.4544   8.6034
     8.9939   8.9939   9.0715   9.0833   9.1450   9.2437   9.3218   9.3298
     9.3490   9.3490   9.3624   9.3624   9.3996   9.3996   9.5960   9.6313
     9.6426   9.6426   9.7268   9.7303   9.8018   9.8018   9.8603   9.8794
    12.6891  12.8110  12.8110  12.8949  13.0108  13.1725  13.3011  13.3984
    13.3984  13.4775  13.4775  13.4962  13.6471  13.6471  13.7476  13.9158
    13.9575  13.9786  13.9946  13.9946  14.1154  14.1154  14.1892  14.2182
    14.8556  14.9079  14.9079  15.0330  15.6374  15.6823  16.0517  16.0517
    16.3285  16.3285  16.3292  16.3951  16.8444  16.9700  16.9701  17.3612

          k = 0.3750 0.3750 0.1236 ( 14846 PWs)   bands (ev):

   -46.0185 -46.0181 -46.0181 -46.0176 -46.0176 -46.0172 -46.0172 -46.0168
   -22.4584 -22.4571 -22.4571 -22.4559 -22.4134 -22.4126 -22.4126 -22.4117
   -22.3887 -22.3887 -22.3878 -22.3871 -22.3862 -22.3862 -22.3854 -22.3850
   -22.3681 -22.3673 -22.3667 -22.3667 -22.3658 -22.3654 -22.3647 -22.3647
   -14.4611 -14.4191 -14.4191 -14.3836 -14.3763 -14.3461 -14.3460 -14.3176
    -6.6253  -6.6253  -6.6026  -6.5231  -6.4745  -6.2637  -6.2637  -6.0548
    -5.8893  -5.8745  -5.8745  -5.8651  -5.8651  -5.8467  -5.8440  -5.8350
    -5.8176  -5.7839  -5.7737  -5.7613  -5.7613  -5.7422  -5.7422  -5.6973
    -0.1954  -0.0443   0.0219   0.0219   0.1409   0.1898   0.1898   0.2201
     0.2216   0.2639   0.2799   0.2799   0.3465   0.3722   0.3866   0.3972
     0.3973   0.4812   0.4812   0.5865   0.5957   0.6094   0.6266   0.6267
     6.0717   6.1106   6.1106   6.1533   6.3814   6.5927   6.5927   6.6066
     6.6066   6.6991   6.8201   6.8894   6.9054   6.9093   6.9093   6.9568
     7.0527   7.1112   7.2513   7.2513   7.3428   7.3690   7.4015   7.4015
     7.5043   7.5043   7.5109   7.5905   7.6850   7.6850   7.7008   7.7118
     7.7118   7.7391   7.7922   7.8090   7.8370   8.0154   8.0155   8.0510
     8.0935   8.0935   8.2763   8.3633   8.4137   8.4137   8.4284   8.5738
     9.0458   9.0458   9.0730   9.1229   9.1808   9.2568   9.3048   9.3048
     9.3330   9.3330   9.3369   9.3523   9.4468   9.4468   9.5634   9.6277
     9.6277   9.6278   9.7061   9.7125   9.7910   9.7910   9.8547   9.8720
    12.7383  12.8580  12.8581  12.9210  13.0203  13.1679  13.3361  13.4147
    13.4147  13.4860  13.4860  13.5187  13.6389  13.6389  13.7583  13.8678
    13.9117  13.9463  13.9463  13.9676  14.0733  14.0733  14.1499  14.1783
    14.9717  15.0185  15.0185  15.1540  15.6391  15.6832  16.0521  16.0521
    16.3354  16.3354  16.3855  16.4339  16.8564  16.9504  17.0122  17.0122

          k = 0.3750 0.3750 0.2473 ( 14842 PWs)   bands (ev):

   -46.0184 -46.0180 -46.0180 -46.0177 -46.0175 -46.0173 -46.0173 -46.0168
   -22.4531 -22.4519 -22.4519 -22.4507 -22.4187 -22.4178 -22.4178 -22.4169
   -22.3884 -22.3884 -22.3875 -22.3868 -22.3865 -22.3865 -22.3856 -22.3852
   -22.3678 -22.3671 -22.3664 -22.3664 -22.3661 -22.3656 -22.3650 -22.3650
   -14.4513 -14.4107 -14.4107 -14.3864 -14.3759 -14.3548 -14.3548 -14.3254
    -6.5786  -6.5786  -6.5698  -6.4716  -6.4686  -6.2952  -6.2952  -6.1146
    -5.9033  -5.8843  -5.8843  -5.8651  -5.8639  -5.8639  -5.8362  -5.8359
    -5.8040  -5.7894  -5.7821  -5.7677  -5.7677  -5.7468  -5.7468  -5.7120
    -0.1473  -0.0603   0.0547   0.0547   0.1540   0.1541   0.1560   0.1717
     0.2436   0.2436   0.2502   0.2516   0.2876   0.3073   0.3093   0.3094
     0.3292   0.5577   0.5577   0.6464   0.6542   0.6613   0.6818   0.6819
     6.1898   6.2276   6.2276   6.2912   6.3589   6.5480   6.5480   6.6503
     6.6503   6.7143   6.8718   6.8905   6.9017   6.9540   6.9644   6.9644
     6.9747   7.1729   7.1729   7.1815   7.3590   7.4522   7.4522   7.4529
     7.4529   7.4819   7.4930   7.5735   7.5936   7.7171   7.7171   7.7289
     7.7289   7.7401   7.7830   7.7889   7.8175   7.8940   7.8940   8.0435
     8.0609   8.0609   8.1515   8.1747   8.3197   8.3197   8.3656   8.4681
     9.1037   9.1825   9.1825   9.2247   9.2665   9.2665   9.2745   9.2891
     9.2979   9.2979   9.3762   9.4034   9.4945   9.4945   9.5112   9.5914
     9.5914   9.6153   9.6425   9.6615   9.7546   9.7546   9.8382   9.8520
    12.8683  12.9861  12.9861  13.0021  13.0542  13.1493  13.4321  13.4560
    13.4560  13.5113  13.5113  13.5737  13.6166  13.6166  13.7275  13.7775
    13.7864  13.8181  13.8181  13.9383  13.9681  13.9681  14.0514  14.0804
    15.2777  15.3085  15.3085  15.4789  15.6466  15.6792  16.0465  16.0465
    16.3601  16.3601  16.5480  16.5543  16.7775  16.8874  17.1962  17.1962

          k = 0.3750 0.3750 0.3709 ( 14842 PWs)   bands (ev):

   -46.0183 -46.0179 -46.0178 -46.0178 -46.0174 -46.0174 -46.0174 -46.0170
   -22.4452 -22.4441 -22.4441 -22.4430 -22.4266 -22.4256 -22.4256 -22.4247
   -22.3879 -22.3879 -22.3871 -22.3869 -22.3869 -22.3865 -22.3861 -22.3856
   -22.3674 -22.3668 -22.3665 -22.3661 -22.3661 -22.3660 -22.3653 -22.3653
   -14.4366 -14.4015 -14.3980 -14.3980 -14.3678 -14.3677 -14.3644 -14.3371
    -6.5269  -6.5089  -6.5089  -6.4702  -6.3933  -6.3522  -6.3522  -6.2007
    -5.9169  -5.8983  -5.8859  -5.8859  -5.8677  -5.8677  -5.8237  -5.8231
    -5.7982  -5.7946  -5.7835  -5.7705  -5.7705  -5.7555  -5.7555  -5.7337
    -0.0751  -0.0400   0.0975   0.1034   0.1034   0.1241   0.1392   0.1392
     0.1782   0.1921   0.1921   0.2292   0.2336   0.2336   0.2475   0.2585
     0.4502   0.6273   0.6334   0.6334   0.7041   0.7041   0.7053   0.7088
     6.2871   6.3380   6.3411   6.3411   6.4707   6.4869   6.4869   6.7774
     6.7774   6.8112   6.8233   6.8908   6.8974   6.9953   6.9986   7.0582
     7.0583   7.0668   7.0668   7.2638   7.3772   7.3772   7.3876   7.4019
     7.4625   7.5187   7.5187   7.5381   7.6441   7.6673   7.6673   7.7360
     7.7431   7.7646   7.7646   7.7680   7.8231   7.8231   7.8602   7.9098
     7.9808   8.0236   8.0236   8.0264   8.1529   8.1529   8.2975   8.3224
     9.2211   9.2554   9.2554   9.2565   9.2565   9.3064   9.3258   9.3950
     9.3950   9.3960   9.4341   9.4535   9.4899   9.5159   9.5159   9.5311
     9.5554   9.5554   9.5816   9.5883   9.6830   9.6830   9.8173   9.8275
    13.0134  13.1199  13.1390  13.1426  13.1748  13.1748  13.5168  13.5168
    13.5305  13.5630  13.5630  13.5691  13.5691  13.5727  13.5802  13.6502
    13.6502  13.6607  13.8251  13.8252  13.8252  13.8747  13.9156  13.9497
    15.6558  15.6612  15.6612  15.6714  15.6869  15.9287  16.0197  16.0197
    16.4355  16.4355  16.4920  16.7300  16.8304  16.9287  16.9287  16.9781

          k = 0.3750 0.3750-0.4946 ( 14880 PWs)   bands (ev):

   -46.0181 -46.0181 -46.0176 -46.0176 -46.0176 -46.0176 -46.0172 -46.0172
   -22.4360 -22.4360 -22.4349 -22.4349 -22.4349 -22.4349 -22.4339 -22.4339
   -22.3874 -22.3874 -22.3874 -22.3874 -22.3866 -22.3866 -22.3861 -22.3860
   -22.3670 -22.3669 -22.3664 -22.3664 -22.3657 -22.3657 -22.3657 -22.3657
   -14.4192 -14.4191 -14.3830 -14.3829 -14.3829 -14.3829 -14.3509 -14.3508
    -6.4896  -6.4895  -6.4284  -6.4284  -6.4283  -6.4283  -6.2985  -6.2984
    -5.9178  -5.9177  -5.8777  -5.8777  -5.8776  -5.8776  -5.8100  -5.8099
    -5.8093  -5.8092  -5.7653  -5.7653  -5.7652  -5.7652  -5.7589  -5.7587
     0.0107   0.0108   0.0229   0.0230   0.1482   0.1482   0.1482   0.1482
     0.1691   0.1692   0.1692   0.1692   0.2040   0.2040   0.2371   0.2372
     0.5567   0.5568   0.6864   0.6864   0.6865   0.6865   0.7249   0.7249
     6.3217   6.3218   6.4196   6.4196   6.4197   6.4197   6.6475   6.6476
     6.8928   6.8929   6.9394   6.9394   6.9394   6.9394   6.9665   6.9665
     7.1911   7.1912   7.2160   7.2161   7.2161   7.2161   7.3856   7.3857
     7.4242   7.4243   7.5862   7.5862   7.5863   7.5863   7.7512   7.7512
     7.7530   7.7531   7.8016   7.8016   7.8016   7.8017   7.8296   7.8297
     7.9273   7.9274   8.0360   8.0360   8.0360   8.0361   8.2645   8.2646
     9.2609   9.2610   9.2610   9.2610   9.3388   9.3389   9.3801   9.3802
     9.4812   9.4812   9.5071   9.5072   9.5075   9.5076   9.5113   9.5113
     9.5114   9.5114   9.5764   9.5764   9.5764   9.5764   9.8116   9.8117
    13.0798  13.0799  13.3210  13.3211  13.3480  13.3481  13.3875  13.3875
    13.3876  13.3876  13.5683  13.5683  13.5683  13.5683  13.6811  13.6811
    13.6812  13.6812  13.7318  13.7319  13.7774  13.7775  13.8732  13.8732
    15.6632  15.6633  15.9172  15.9172  15.9172  15.9172  16.1127  16.1128
    16.4027  16.4029  16.6292  16.6292  16.6293  16.6293  16.9553  16.9553

          k = 0.3750-0.5000 0.0000 ( 14850 PWs)   bands (ev):

   -46.0183 -46.0183 -46.0179 -46.0179 -46.0174 -46.0174 -46.0169 -46.0169
   -22.4595 -22.4595 -22.4583 -22.4583 -22.4111 -22.4111 -22.4103 -22.4103
   -22.3882 -22.3882 -22.3856 -22.3856 -22.3783 -22.3783 -22.3772 -22.3772
   -22.3758 -22.3758 -22.3749 -22.3749 -22.3673 -22.3673 -22.3651 -22.3651
   -14.4434 -14.4434 -14.4042 -14.4042 -14.3579 -14.3579 -14.3290 -14.3289
    -6.6207  -6.6207  -6.5863  -6.5863  -6.3699  -6.3699  -6.1469  -6.1468
    -5.8694  -5.8694  -5.8596  -5.8595  -5.8454  -5.8454  -5.8396  -5.8396
    -5.8172  -5.8172  -5.7811  -5.7811  -5.7533  -5.7533  -5.7151  -5.7151
    -0.1148  -0.1148   0.0592   0.0592   0.0923   0.0924   0.2566   0.2566
     0.2718   0.2718   0.3119   0.3119   0.3150   0.3150   0.4196   0.4196
     0.4870   0.4870   0.5110   0.5110   0.5539   0.5539   0.5722   0.5722
     6.0511   6.0511   6.0900   6.0900   6.5162   6.5162   6.6953   6.6953
     6.7003   6.7003   6.8596   6.8596   6.9459   6.9460   7.0716   7.0717
     7.1295   7.1295   7.1648   7.1648   7.2523   7.2523   7.3483   7.3484
     7.3843   7.3843   7.6122   7.6123   7.7025   7.7025   7.7302   7.7302
     7.7533   7.7533   7.8042   7.8042   7.9355   7.9355   7.9508   7.9508
     8.1982   8.1982   8.2544   8.2544   8.3712   8.3712   8.4550   8.4550
     9.0592   9.0592   9.0789   9.0789   9.2278   9.2278   9.2758   9.2758
     9.3481   9.3481   9.4697   9.4698   9.4836   9.4836   9.5827   9.5827
     9.5895   9.5895   9.7002   9.7002   9.7821   9.7821   9.8087   9.8087
    12.7727  12.7727  13.0717  13.0717  13.1205  13.1206  13.2322  13.2322
    13.4100  13.4100  13.4271  13.4271  13.5953  13.5953  13.8093  13.8093
    13.9604  13.9604  14.0198  14.0198  14.0851  14.0851  14.1617  14.1617
    14.8977  14.8977  14.9975  14.9976  15.9059  15.9059  16.0252  16.0252
    16.5002  16.5002  16.6385  16.6386  16.6715  16.6717  16.8512  16.8512

          k = 0.3750-0.5000 0.1236 ( 14854 PWs)   bands (ev):

   -46.0183 -46.0183 -46.0179 -46.0179 -46.0174 -46.0174 -46.0169 -46.0169
   -22.4577 -22.4577 -22.4565 -22.4565 -22.4130 -22.4130 -22.4122 -22.4122
   -22.3881 -22.3881 -22.3857 -22.3857 -22.3782 -22.3782 -22.3771 -22.3771
   -22.3759 -22.3759 -22.3749 -22.3749 -22.3672 -22.3672 -22.3652 -22.3652
   -14.4402 -14.4402 -14.4014 -14.4014 -14.3612 -14.3612 -14.3319 -14.3318
    -6.6063  -6.6063  -6.5691  -6.5691  -6.3713  -6.3713  -6.1604  -6.1604
    -5.8713  -5.8713  -5.8616  -5.8616  -5.8553  -5.8553  -5.8370  -5.8370
    -5.8178  -5.8178  -5.7831  -5.7831  -5.7559  -5.7559  -5.7189  -5.7189
    -0.1006  -0.1006   0.0675   0.0676   0.0700   0.0701   0.2415   0.2415
     0.2640   0.2640   0.2801   0.2801   0.3613   0.3613   0.3691   0.3691
     0.3964   0.3965   0.5508   0.5508   0.6182   0.6182   0.6220   0.6220
     6.1003   6.1003   6.1391   6.1391   6.5014   6.5014   6.6867   6.6867
     6.7086   6.7086   6.8324   6.8324   6.9606   6.9606   7.0613   7.0613
     7.1487   7.1487   7.1928   7.1929   7.2409   7.2409   7.3720   7.3720
     7.3722   7.3722   7.6247   7.6247   7.6279   7.6280   7.7316   7.7316
     7.7590   7.7590   7.8567   7.8568   7.9160   7.9160   7.9222   7.9223
     8.1390   8.1391   8.2310   8.2310   8.3340   8.3340   8.4325   8.4325
     9.1107   9.1107   9.1163   9.1163   9.2120   9.2121   9.2678   9.2678
     9.3807   9.3807   9.4398   9.4398   9.4719   9.4719   9.5906   9.5906
     9.5915   9.5915   9.6838   9.6838   9.7710   9.7710   9.7987   9.7987
    12.8189  12.8189  13.1097  13.1097  13.1403  13.1403  13.2417  13.2417
    13.4023  13.4023  13.4445  13.4445  13.6038  13.6038  13.8011  13.8011
    13.9110  13.9110  13.9742  13.9743  14.0458  14.0458  14.1245  14.1245
    15.0119  15.0119  15.1148  15.1148  15.9083  15.9083  16.0267  16.0267
    16.5064  16.5064  16.6712  16.6713  16.6873  16.6873  16.8797  16.8797

          k = 0.3750-0.5000 0.2473 ( 14860 PWs)   bands (ev):

   -46.0182 -46.0182 -46.0177 -46.0177 -46.0175 -46.0175 -46.0171 -46.0171
   -22.4525 -22.4525 -22.4513 -22.4513 -22.4183 -22.4183 -22.4174 -22.4174
   -22.3878 -22.3878 -22.3860 -22.3860 -22.3780 -22.3780 -22.3768 -22.3768
   -22.3762 -22.3762 -22.3752 -22.3752 -22.3670 -22.3670 -22.3654 -22.3654
   -14.4311 -14.4311 -14.3934 -14.3934 -14.3707 -14.3707 -14.3402 -14.3401
    -6.5662  -6.5662  -6.5201  -6.5201  -6.3798  -6.3798  -6.2028  -6.2028
    -5.8792  -5.8792  -5.8780  -5.8780  -5.8631  -5.8631  -5.8323  -5.8323
    -5.8157  -5.8157  -5.7863  -5.7863  -5.7641  -5.7641  -5.7299  -5.7299
    -0.0603  -0.0603   0.0424   0.0424   0.0913   0.0913   0.1980   0.1980
     0.2291   0.2291   0.2416   0.2416   0.2778   0.2778   0.2901   0.2901
     0.4576   0.4576   0.6241   0.6241   0.6764   0.6764   0.6833   0.6833
     6.2188   6.2188   6.2664   6.2664   6.4628   6.4628   6.7008   6.7008
     6.7573   6.7573   6.7575   6.7575   6.9872   6.9872   7.0337   7.0337
     7.1926   7.1927   7.2270   7.2270   7.2677   7.2678   7.3314   7.3314
     7.4497   7.4497   7.5160   7.5160   7.6402   7.6403   7.7364   7.7364
     7.7781   7.7781   7.8600   7.8600   7.8654   7.8654   7.8948   7.8949
     8.0166   8.0167   8.1722   8.1722   8.1869   8.1869   8.3238   8.3238
     9.1874   9.1874   9.2243   9.2243   9.2505   9.2505   9.2759   9.2759
     9.4040   9.4040   9.4362   9.4362   9.4491   9.4491   9.5888   9.5888
     9.5977   9.5977   9.6394   9.6394   9.7420   9.7421   9.7652   9.7652
    12.9463  12.9463  13.2021  13.2021  13.2193  13.2193  13.2696  13.2696
    13.3825  13.3826  13.4983  13.4983  13.6312  13.6312  13.7699  13.7699
    13.7777  13.7777  13.8530  13.8530  13.9270  13.9270  14.0172  14.0172
    15.3087  15.3087  15.4338  15.4338  15.9120  15.9121  16.0358  16.0358
    16.5136  16.5136  16.6702  16.6702  16.8284  16.8284  16.9716  16.9716

          k = 0.3750-0.5000 0.3709 ( 14844 PWs)   bands (ev):

   -46.0180 -46.0180 -46.0177 -46.0177 -46.0176 -46.0176 -46.0172 -46.0172
   -22.4447 -22.4447 -22.4435 -22.4435 -22.4261 -22.4261 -22.4252 -22.4252
   -22.3874 -22.3874 -22.3864 -22.3864 -22.3775 -22.3775 -22.3766 -22.3766
   -22.3764 -22.3764 -22.3756 -22.3756 -22.3666 -22.3666 -22.3658 -22.3658
   -14.4174 -14.4174 -14.3847 -14.3847 -14.3813 -14.3813 -14.3525 -14.3525
    -6.5094  -6.5094  -6.4462  -6.4462  -6.4045  -6.4045  -6.2724  -6.2724
    -5.8978  -5.8978  -5.8927  -5.8927  -5.8575  -5.8575  -5.8345  -5.8345
    -5.8065  -5.8065  -5.7814  -5.7814  -5.7771  -5.7770  -5.7467  -5.7466
    -0.0009  -0.0009   0.0453   0.0453   0.1268   0.1268   0.1327   0.1328
     0.1743   0.1744   0.1964   0.1964   0.2085   0.2085   0.2270   0.2270
     0.5592   0.5592   0.6827   0.6828   0.6883   0.6883   0.7225   0.7225
     6.3228   6.3228   6.4121   6.4121   6.4167   6.4167   6.6521   6.6521
     6.8087   6.8087   6.8897   6.8897   6.9980   6.9980   7.0257   7.0257
     7.2025   7.2025   7.2431   7.2432   7.2501   7.2501   7.3707   7.3707
     7.4056   7.4057   7.5755   7.5755   7.6006   7.6006   7.7478   7.7478
     7.7930   7.7930   7.8145   7.8146   7.8149   7.8149   7.8795   7.8795
     7.9026   7.9026   7.9667   7.9667   8.1023   8.1023   8.1520   8.1520
     9.2644   9.2644   9.3063   9.3063   9.3154   9.3154   9.3815   9.3815
     9.4182   9.4182   9.4305   9.4306   9.4810   9.4810   9.5716   9.5716
     9.5779   9.5779   9.5848   9.5848   9.7077   9.7078   9.7162   9.7162
    13.1291  13.1291  13.2880  13.2880  13.3390  13.3390  13.3485  13.3486
    13.3768  13.3768  13.5859  13.5859  13.5891  13.5891  13.6729  13.6729
    13.6779  13.6779  13.7137  13.7137  13.7786  13.7786  13.8762  13.8762
    15.6737  15.6737  15.8642  15.8642  15.9100  15.9100  16.0878  16.0879
    16.4921  16.4921  16.6717  16.6717  16.6720  16.6720  16.8959  16.8960

          k = 0.3750-0.5000-0.4946 ( 14852 PWs)   bands (ev):

   -46.0179 -46.0179 -46.0179 -46.0179 -46.0174 -46.0174 -46.0174 -46.0174
   -22.4354 -22.4354 -22.4354 -22.4354 -22.4344 -22.4344 -22.4344 -22.4344
   -22.3869 -22.3869 -22.3868 -22.3868 -22.3771 -22.3771 -22.3771 -22.3770
   -22.3760 -22.3760 -22.3760 -22.3760 -22.3662 -22.3662 -22.3662 -22.3662
   -14.4011 -14.4011 -14.4011 -14.4010 -14.3670 -14.3670 -14.3669 -14.3669
    -6.4504  -6.4504  -6.4503  -6.4503  -6.3588  -6.3588  -6.3587  -6.3587
    -5.9024  -5.9024  -5.9023  -5.9023  -5.8458  -5.8458  -5.8457  -5.8457
    -5.7924  -5.7924  -5.7923  -5.7923  -5.7658  -5.7658  -5.7657  -5.7656
     0.0637   0.0637   0.0637   0.0638   0.0929   0.0930   0.0930   0.0930
     0.1684   0.1684   0.1684   0.1684   0.1942   0.1942   0.1942   0.1942
     0.6402   0.6402   0.6402   0.6403   0.7242   0.7242   0.7242   0.7242
     6.3753   6.3753   6.3754   6.3754   6.5373   6.5373   6.5373   6.5373
     6.9410   6.9410   6.9411   6.9411   7.0899   7.0899   7.0900   7.0900
     7.1142   7.1142   7.1142   7.1143   7.3083   7.3083   7.3083   7.3083
     7.4896   7.4896   7.4896   7.4896   7.7298   7.7298   7.7298   7.7298
     7.7534   7.7535   7.7535   7.7535   7.8325   7.8325   7.8325   7.8325
     7.8695   7.8695   7.8696   7.8696   8.0660   8.0660   8.0660   8.0660
     9.3326   9.3326   9.3326   9.3326   9.3550   9.3550   9.3550   9.3550
     9.4904   9.4904   9.4905   9.4905   9.5064   9.5064   9.5064   9.5064
     9.5491   9.5491   9.5491   9.5492   9.6898   9.6898   9.6899   9.6899
    13.2889  13.2889  13.2889  13.2889  13.3934  13.3934  13.3935  13.3935
    13.4904  13.4904  13.4905  13.4905  13.5579  13.5579  13.5579  13.5580
    13.6889  13.6889  13.6889  13.6889  13.7433  13.7433  13.7433  13.7433
    15.8743  15.8743  15.8743  15.8743  16.2823  16.2823  16.2824  16.2824
    16.3225  16.3226  16.3226  16.3227  16.7061  16.7061  16.7061  16.7061

          k =-0.5000-0.5000 0.0000 ( 14852 PWs)   bands (ev):

   -46.0181 -46.0181 -46.0181 -46.0181 -46.0171 -46.0171 -46.0171 -46.0171
   -22.4589 -22.4589 -22.4589 -22.4589 -22.4107 -22.4107 -22.4107 -22.4107
   -22.3782 -22.3782 -22.3782 -22.3782 -22.3773 -22.3773 -22.3773 -22.3773
   -22.3756 -22.3756 -22.3756 -22.3756 -22.3751 -22.3751 -22.3751 -22.3751
   -14.4239 -14.4239 -14.4239 -14.4239 -14.3435 -14.3435 -14.3435 -14.3435
    -6.5961  -6.5961  -6.5961  -6.5961  -6.2621  -6.2621  -6.2621  -6.2620
    -5.8520  -5.8520  -5.8520  -5.8520  -5.8349  -5.8349  -5.8349  -5.8349
    -5.8277  -5.8277  -5.8277  -5.8276  -5.7320  -5.7319  -5.7319  -5.7319
    -0.0432  -0.0432  -0.0432  -0.0432   0.2003   0.2004   0.2004   0.2004
     0.2543   0.2543   0.2543   0.2543   0.4258   0.4258   0.4259   0.4259
     0.4543   0.4543   0.4543   0.4543   0.5721   0.5721   0.5721   0.5721
     6.0788   6.0788   6.0788   6.0789   6.7075   6.7075   6.7075   6.7075
     6.7243   6.7243   6.7243   6.7243   7.1430   7.1430   7.1430   7.1430
     7.1448   7.1449   7.1449   7.1449   7.2121   7.2121   7.2121   7.2121
     7.5108   7.5108   7.5108   7.5108   7.6771   7.6771   7.6771   7.6771
     7.7474   7.7474   7.7474   7.7474   8.0554   8.0554   8.0554   8.0554
     8.0655   8.0656   8.0656   8.0656   8.3595   8.3595   8.3595   8.3595
     9.1045   9.1045   9.1045   9.1045   9.3353   9.3353   9.3353   9.3354
     9.3667   9.3667   9.3667   9.3667   9.5433   9.5433   9.5433   9.5433
     9.6292   9.6292   9.6292   9.6292   9.7580   9.7580   9.7580   9.7580
    12.9799  12.9800  12.9800  12.9800  13.2089  13.2089  13.2089  13.2089
    13.3959  13.3959  13.3959  13.3959  13.6071  13.6071  13.6071  13.6071
    14.0318  14.0318  14.0318  14.0318  14.0732  14.0732  14.0732  14.0732
    14.9707  14.9708  14.9708  14.9708  16.2801  16.2801  16.2801  16.2801
    16.3603  16.3603  16.3603  16.3603  16.9075  16.9076  16.9076  16.9076

          k =-0.5000-0.5000 0.1236 ( 14856 PWs)   bands (ev):

   -46.0181 -46.0181 -46.0181 -46.0181 -46.0172 -46.0172 -46.0172 -46.0172
   -22.4571 -22.4571 -22.4571 -22.4571 -22.4126 -22.4126 -22.4126 -22.4126
   -22.3781 -22.3781 -22.3781 -22.3781 -22.3772 -22.3772 -22.3772 -22.3772
   -22.3757 -22.3757 -22.3757 -22.3757 -22.3752 -22.3752 -22.3752 -22.3752
   -14.4209 -14.4209 -14.4209 -14.4209 -14.3466 -14.3466 -14.3466 -14.3466
    -6.5803  -6.5803  -6.5803  -6.5803  -6.2679  -6.2679  -6.2679  -6.2678
    -5.8588  -5.8588  -5.8588  -5.8588  -5.8324  -5.8324  -5.8324  -5.8323
    -5.8311  -5.8311  -5.8311  -5.8311  -5.7360  -5.7360  -5.7360  -5.7360
    -0.0318  -0.0318  -0.0318  -0.0318   0.1729   0.1729   0.1730   0.1730
     0.2430   0.2430   0.2431   0.2431   0.3829   0.3830   0.3830   0.3830
     0.4698   0.4698   0.4698   0.4698   0.6301   0.6301   0.6301   0.6301
     6.1284   6.1284   6.1284   6.1284   6.6832   6.6832   6.6832   6.6832
     6.7197   6.7197   6.7197   6.7197   7.1439   7.1439   7.1439   7.1439
     7.1906   7.1907   7.1907   7.1907   7.2090   7.2090   7.2090   7.2090
     7.4560   7.4560   7.4560   7.4560   7.7159   7.7159   7.7159   7.7159
     7.7504   7.7504   7.7504   7.7504   8.0299   8.0299   8.0299   8.0300
     8.0336   8.0336   8.0336   8.0336   8.3209   8.3209   8.3209   8.3209
     9.1508   9.1508   9.1508   9.1508   9.3104   9.3105   9.3105   9.3105
     9.3756   9.3756   9.3756   9.3756   9.5423   9.5423   9.5423   9.5423
     9.6325   9.6325   9.6325   9.6325   9.7444   9.7444   9.7444   9.7444
    13.0203  13.0203  13.0203  13.0203  13.2301  13.2301  13.2301  13.2301
    13.4066  13.4066  13.4066  13.4066  13.5966  13.5966  13.5966  13.5966
    13.9880  13.9880  13.9881  13.9881  14.0295  14.0295  14.0295  14.0295
    15.0895  15.0895  15.0895  15.0895  16.2856  16.2856  16.2856  16.2856
    16.3581  16.3581  16.3581  16.3581  16.9526  16.9527  16.9528  16.9528

          k =-0.5000-0.5000 0.2473 ( 14844 PWs)   bands (ev):

   -46.0180 -46.0180 -46.0180 -46.0180 -46.0173 -46.0173 -46.0173 -46.0173
   -22.4519 -22.4519 -22.4519 -22.4519 -22.4178 -22.4178 -22.4178 -22.4178
   -22.3778 -22.3778 -22.3778 -22.3778 -22.3770 -22.3770 -22.3770 -22.3770
   -22.3759 -22.3759 -22.3759 -22.3759 -22.3754 -22.3754 -22.3754 -22.3754
   -14.4124 -14.4123 -14.4123 -14.4123 -14.3555 -14.3555 -14.3554 -14.3554
    -6.5357  -6.5357  -6.5357  -6.5357  -6.2892  -6.2891  -6.2891  -6.2891
    -5.8732  -5.8732  -5.8732  -5.8731  -5.8452  -5.8452  -5.8452  -5.8452
    -5.8203  -5.8203  -5.8203  -5.8203  -5.7475  -5.7475  -5.7475  -5.7475
     0.0006   0.0006   0.0006   0.0006   0.1323   0.1323   0.1323   0.1323
     0.2110   0.2110   0.2110   0.2110   0.2791   0.2791   0.2791   0.2791
     0.5572   0.5572   0.5572   0.5572   0.6948   0.6948   0.6949   0.6949
     6.2509   6.2509   6.2509   6.2509   6.6185   6.6185   6.6185   6.6185
     6.7441   6.7441   6.7441   6.7441   7.1485   7.1485   7.1486   7.1486
     7.1988   7.1989   7.1989   7.1989   7.3077   7.3077   7.3077   7.3077
     7.3704   7.3704   7.3704   7.3704   7.7524   7.7524   7.7524   7.7525
     7.7612   7.7612   7.7612   7.7613   7.9604   7.9604   7.9604   7.9604
     7.9646   7.9646   7.9646   7.9646   8.1764   8.1764   8.1764   8.1764
     9.2585   9.2585   9.2585   9.2585   9.2964   9.2964   9.2964   9.2964
     9.4013   9.4013   9.4013   9.4013   9.5333   9.5333   9.5333   9.5333
     9.6342   9.6342   9.6342   9.6342   9.7071   9.7071   9.7071   9.7071
    13.1364  13.1364  13.1364  13.1364  13.2920  13.2920  13.2920  13.2920
    13.4344  13.4344  13.4344  13.4344  13.5740  13.5740  13.5740  13.5740
    13.8662  13.8662  13.8662  13.8662  13.9089  13.9090  13.9090  13.9090
    15.4070  15.4070  15.4070  15.4070  16.2981  16.2982  16.2982  16.2982
    16.3515  16.3515  16.3515  16.3515  17.0870  17.0871  17.0871  17.0871

          k =-0.5000-0.5000 0.3709 ( 14832 PWs)   bands (ev):

   -46.0178 -46.0178 -46.0178 -46.0178 -46.0174 -46.0174 -46.0174 -46.0174
   -22.4441 -22.4441 -22.4441 -22.4441 -22.4257 -22.4257 -22.4257 -22.4257
   -22.3774 -22.3774 -22.3774 -22.3774 -22.3766 -22.3766 -22.3766 -22.3766
   -22.3764 -22.3764 -22.3764 -22.3764 -22.3758 -22.3758 -22.3758 -22.3758
   -14.3995 -14.3994 -14.3994 -14.3994 -14.3687 -14.3686 -14.3686 -14.3686
    -6.4703  -6.4703  -6.4703  -6.4703  -6.3327  -6.3327  -6.3327  -6.3327
    -5.8817  -5.8817  -5.8817  -5.8817  -5.8623  -5.8623  -5.8623  -5.8622
    -5.8039  -5.8039  -5.8039  -5.8039  -5.7645  -5.7645  -5.7645  -5.7645
     0.0490   0.0490   0.0491   0.0491   0.1158   0.1158   0.1158   0.1158
     0.1629   0.1629   0.1629   0.1630   0.1917   0.1917   0.1917   0.1917
     0.6425   0.6425   0.6425   0.6425   0.7211   0.7211   0.7211   0.7212
     6.3728   6.3728   6.3728   6.3729   6.5368   6.5368   6.5368   6.5368
     6.8684   6.8684   6.8684   6.8684   7.1577   7.1578   7.1578   7.1578
     7.1853   7.1853   7.1853   7.1853   7.2596   7.2596   7.2596   7.2596
     7.4689   7.4689   7.4689   7.4690   7.7691   7.7691   7.7691   7.7691
     7.7837   7.7837   7.7837   7.7837   7.8820   7.8820   7.8820   7.8820
     7.8843   7.8843   7.8843   7.8843   7.9324   7.9324   7.9324   7.9324
     9.3484   9.3484   9.3484   9.3484   9.3715   9.3715   9.3715   9.3715
     9.4327   9.4327   9.4327   9.4327   9.4995   9.4995   9.4995   9.4995
     9.6280   9.6280   9.6280   9.6280   9.6599   9.6599   9.6599   9.6599
    13.3013  13.3013  13.3013  13.3013  13.3943  13.3943  13.3943  13.3944
    13.4801  13.4801  13.4801  13.4801  13.5336  13.5336  13.5336  13.5336
    13.6998  13.6998  13.6998  13.6999  13.7385  13.7385  13.7385  13.7385
    15.8402  15.8402  15.8402  15.8402  16.3153  16.3153  16.3153  16.3153
    16.3433  16.3434  16.3434  16.3434  16.7052  16.7052  16.7052  16.7053

          k =-0.5000-0.5000-0.4946 ( 14872 PWs)   bands (ev):

   -46.0176 -46.0176 -46.0176 -46.0176 -46.0176 -46.0176 -46.0176 -46.0176
   -22.4349 -22.4349 -22.4349 -22.4349 -22.4349 -22.4349 -22.4349 -22.4349
   -22.3769 -22.3769 -22.3769 -22.3769 -22.3768 -22.3768 -22.3768 -22.3768
   -22.3762 -22.3762 -22.3762 -22.3762 -22.3762 -22.3762 -22.3762 -22.3762
   -14.3842 -14.3841 -14.3841 -14.3841 -14.3841 -14.3840 -14.3840 -14.3840
    -6.3974  -6.3974  -6.3974  -6.3973  -6.3973  -6.3972  -6.3972  -6.3972
    -5.8770  -5.8770  -5.8770  -5.8770  -5.8770  -5.8770  -5.8770  -5.8769
    -5.7844  -5.7844  -5.7844  -5.7844  -5.7843  -5.7843  -5.7843  -5.7843
     0.1060   0.1060   0.1060   0.1061   0.1061   0.1061   0.1061   0.1061
     0.1351   0.1352   0.1352   0.1352   0.1352   0.1352   0.1352   0.1353
     0.7019   0.7019   0.7019   0.7019   0.7020   0.7020   0.7020   0.7020
     6.4575   6.4575   6.4575   6.4576   6.4576   6.4576   6.4576   6.4576
     7.0785   7.0785   7.0785   7.0785   7.0786   7.0786   7.0786   7.0786
     7.1703   7.1703   7.1703   7.1703   7.1703   7.1704   7.1704   7.1704
     7.6716   7.6716   7.6716   7.6716   7.6716   7.6716   7.6716   7.6717
     7.8140   7.8140   7.8140   7.8140   7.8140   7.8140   7.8140   7.8140
     7.8230   7.8230   7.8230   7.8230   7.8231   7.8231   7.8231   7.8231
     9.4316   9.4316   9.4316   9.4316   9.4316   9.4316   9.4316   9.4316
     9.4362   9.4362   9.4362   9.4362   9.4363   9.4363   9.4363   9.4363
     9.6270   9.6270   9.6270   9.6270   9.6271   9.6271   9.6271   9.6271
    13.4601  13.4601  13.4601  13.4601  13.4601  13.4601  13.4601  13.4602
    13.5311  13.5311  13.5311  13.5311  13.5311  13.5311  13.5311  13.5311
    13.5647  13.5647  13.5647  13.5647  13.5647  13.5647  13.5647  13.5647
    16.2982  16.2982  16.2982  16.2982  16.2983  16.2983  16.2983  16.2983
    16.3293  16.3293  16.3293  16.3293  16.3293  16.3293  16.3293  16.3293

     highest occupied, lowest unoccupied level (ev):    10.2708   12.0620

!    total energy              =   -5886.99881781 Ry
     total all-electron energy =   -147371.452390 Ry
     estimated scf accuracy    <          5.4E-11 Ry

     The total energy is the sum of the following terms:
     one-electron contribution =    -547.87094282 Ry
     hartree contribution      =     480.41820342 Ry
     xc contribution           =    -485.44660537 Ry
     ewald contribution        =   -1653.96634398 Ry
     one-center paw contrib.   =   -3680.13312906 Ry

     convergence has been achieved in  30 iterations

     Forces acting on atoms (cartesian axes, Ry/au):

     atom    1 type  1   force =     0.00000000    0.00000000   -0.00149037
     atom    2 type  1   force =     0.00000000    0.00000000   -0.00146111
     atom    3 type  1   force =     0.00000000    0.00000000   -0.00147979
     atom    4 type  1   force =     0.00000000    0.00000000   -0.00146679
     atom    5 type  1   force =     0.00000000    0.00000000   -0.00147979
     atom    6 type  1   force =     0.00000000    0.00000000   -0.00146679
     atom    7 type  1   force =     0.00000000    0.00000000   -0.00149426
     atom    8 type  1   force =     0.00000000    0.00000000   -0.00145896
     atom    9 type  2   force =    -0.00000065   -0.00000065   -0.00232970
     atom   10 type  2   force =    -0.00000107   -0.00000107   -0.00232166
     atom   11 type  2   force =    -0.00000065    0.00000065   -0.00232970
     atom   12 type  2   force =    -0.00000107    0.00000107   -0.00232166
     atom   13 type  2   force =     0.00000065   -0.00000065   -0.00232970
     atom   14 type  2   force =     0.00000107   -0.00000107   -0.00232166
     atom   15 type  2   force =     0.00000065    0.00000065   -0.00232970
     atom   16 type  2   force =     0.00000107    0.00000107   -0.00232166
     atom   17 type  3   force =    -0.00000139   -0.00000139    0.00362219
     atom   18 type  3   force =    -0.00000230   -0.00000230    0.00363065
     atom   19 type  3   force =    -0.00000139    0.00000139    0.00362219
     atom   20 type  3   force =    -0.00000230    0.00000230    0.00363065
     atom   21 type  3   force =     0.00000139   -0.00000139    0.00362219
     atom   22 type  3   force =     0.00000230   -0.00000230    0.00363065
     atom   23 type  3   force =     0.00000139    0.00000139    0.00362219
     atom   24 type  3   force =     0.00000230    0.00000230    0.00363065
     atom   25 type  3   force =    -0.00000195    0.00000000    0.00008150
     atom   26 type  3   force =    -0.00000530    0.00000000    0.00008567
     atom   27 type  3   force =     0.00000093    0.00000000    0.00008599
     atom   28 type  3   force =     0.00000286    0.00000000    0.00009483
     atom   29 type  3   force =     0.00000195    0.00000000    0.00008150
     atom   30 type  3   force =     0.00000530    0.00000000    0.00008567
     atom   31 type  3   force =    -0.00000093    0.00000000    0.00008599
     atom   32 type  3   force =    -0.00000286    0.00000000    0.00009483
     atom   33 type  3   force =     0.00000000   -0.00000195    0.00008150
     atom   34 type  3   force =     0.00000000   -0.00000530    0.00008567
     atom   35 type  3   force =     0.00000000    0.00000195    0.00008150
     atom   36 type  3   force =     0.00000000    0.00000530    0.00008567
     atom   37 type  3   force =     0.00000000    0.00000093    0.00008599
     atom   38 type  3   force =     0.00000000    0.00000286    0.00009483
     atom   39 type  3   force =     0.00000000   -0.00000093    0.00008599
     atom   40 type  3   force =     0.00000000   -0.00000286    0.00009483

     Total force =     0.012884     Total SCF correction =     0.000004


     Computing stress (Cartesian axis) and pressure

          total   stress  (Ry/bohr**3)                   (kbar)     P=      -65.96
  -0.00048832   0.00000000   0.00000000          -71.83        0.00        0.00
   0.00000000  -0.00048832   0.00000000            0.00      -71.83        0.00
   0.00000000   0.00000000  -0.00036852            0.00        0.00      -54.21


     Writing all to output data dir ./tmp/40_ecut_8_kmesh_PBE.save/ :
     XML data file, charge density, pseudopotentials, collected wavefunctions

     init_run     :      1.94s CPU      2.16s WALL (       1 calls)
     electrons    :    137.20s CPU    142.10s WALL (       1 calls)
     forces       :      0.63s CPU      0.68s WALL (       1 calls)
     stress       :      1.77s CPU      1.91s WALL (       1 calls)

     Called by init_run:
     wfcinit      :      1.18s CPU      1.27s WALL (       1 calls)
     potinit      :      0.26s CPU      0.28s WALL (       1 calls)
     hinit0       :      0.35s CPU      0.43s WALL (       1 calls)

     Called by electrons:
     c_bands      :    126.22s CPU    130.59s WALL (      30 calls)
     sum_band     :      8.70s CPU      9.01s WALL (      30 calls)
     v_of_rho     :      0.31s CPU      0.39s WALL (      31 calls)
     newd         :      0.25s CPU      0.27s WALL (      31 calls)
     PAW_pot      :      1.37s CPU      1.40s WALL (      31 calls)
     mix_rho      :      0.07s CPU      0.08s WALL (      30 calls)

     Called by c_bands:
     init_us_2    :      1.14s CPU      1.16s WALL (     630 calls)
     cegterg      :    109.77s CPU    113.99s WALL (     308 calls)

     Called by *egterg:
     cdiaghg      :     33.00s CPU     35.09s WALL (    1992 calls)
     h_psi        :     44.70s CPU     46.05s WALL (    2010 calls)
     s_psi        :      6.52s CPU      6.58s WALL (    2010 calls)
     g_psi        :      0.07s CPU      0.07s WALL (    1692 calls)

     Called by h_psi:
     h_psi:calbec :      9.94s CPU     10.62s WALL (    2010 calls)
     vloc_psi     :     27.89s CPU     28.46s WALL (    2010 calls)
                                        0.00s GPU  (    2010 calls)
     add_vuspsi   :      6.67s CPU      6.73s WALL (    2010 calls)

     General routines
     calbec       :     14.44s CPU     15.48s WALL (    2480 calls)
     fft          :      0.51s CPU      0.63s WALL (     426 calls)
     ffts         :      0.21s CPU      0.22s WALL (      61 calls)
     fftw         :     30.65s CPU     31.26s WALL (  412616 calls)
     interpolate  :      0.23s CPU      0.25s WALL (      31 calls)

     Parallel routines

     PWSCF        :    143.10s CPU    150.22s WALL


   This run was terminated on:   3:57:53  21May2026            

=------------------------------------------------------------------------------=
   JOB DONE.
=------------------------------------------------------------------------------=
