
     Program PWSCF v.7.5 starts on 21May2026 at  3:33: 5 

     This program is part of the open-source Quantum ESPRESSO suite
     for quantum simulation of materials; please cite
         "P. Giannozzi et al., J. Phys.:Condens. Matter 21 395502 (2009);
         "P. Giannozzi et al., J. Phys.:Condens. Matter 29 465901 (2017);
         "P. Giannozzi et al., J. Chem. Phys. 152 154105 (2020);
          URL http://www.quantum-espresso.org", 
     in publications or presentations arising from this work. More details at
     http://www.quantum-espresso.org/quote

     Parallel version (MPI & OpenMP), running on     192 processor cores
     Number of MPI processes:               192
     Threads/MPI process:                     1

     MPI processes distributed on     1 nodes
     285919 MiB available memory on the printing compute node when the environment starts

     Waiting for input...
     Reading input from standard input

     Current dimensions of program PWSCF are:
     Max number of different atomic species (ntypx) = 10
     Max number of k-points (npk) =  40000
     Max angular momentum in pseudopotentials (lmaxx) =  4
     file Ba.pbe-spn-kjpaw_psl.1.0.0.UPF: wavefunction(s)  5S 6S renormalized
     file Ti.pbe-spn-kjpaw_psl.1.0.0.UPF: wavefunction(s)  3S 3P 3D renormalized
     file O.pbe-n-kjpaw_psl.1.0.0.UPF: wavefunction(s)  2S 2P renormalized

     IMPORTANT: XC functional enforced from input :
     Exchange-correlation= PBESOL
                           (   1   4  10   8   0   0   0)
     Any further DFT definition will be discarded
     Please, verify this is what you really want

     Found identity + ( -0.5000 -0.5000  0.0000) symmetry
     This is a supercell, fractional translations are disabled

     K-points division:     npool     =       8
     R & G space division:  proc/nbgrp/npool/nimage =      24
     Subspace diagonalization in iterative solution of the eigenvalue problem:
     one sub-group per band group will be used
     ELPA distributed-memory algorithm (size of sub-group:  2*  2 procs)


     Parallelization info
     --------------------
     sticks:   dense  smooth     PW     G-vecs:    dense   smooth      PW
     Min         240     120     33                13981     4944     727
     Max         242     122     34                13987     4947     732
     Sum        5785    2893    805               335575   118681   17493

     Using Slab Decomposition



     bravais-lattice index     =            6
     lattice parameter (alat)  =      15.0876  a.u.
     unit-cell volume          =    3472.3239 (a.u.)^3
     number of atoms/cell      =           40
     number of atomic types    =            3
     number of electrons       =       320.00
     number of Kohn-Sham states=          200
     kinetic-energy cutoff     =      40.0000  Ry
     charge density cutoff     =     320.0000  Ry
     scf convergence threshold =      1.0E-10
     mixing beta               =       0.3000
     number of iterations used =           16  plain     mixing
     Exchange-correlation= PBESOL
                           (   1   4  10   8   0   0   0)

     celldm(1)=  15.087600  celldm(2)=   0.000000  celldm(3)=   1.011020
     celldm(4)=   0.000000  celldm(5)=   0.000000  celldm(6)=   0.000000

     crystal axes: (cart. coord. in units of alat)
               a(1) = (   1.000000   0.000000   0.000000 )  
               a(2) = (   0.000000   1.000000   0.000000 )  
               a(3) = (   0.000000   0.000000   1.011020 )  

     reciprocal axes: (cart. coord. in units 2 pi/alat)
               b(1) = (  1.000000  0.000000  0.000000 )  
               b(2) = (  0.000000  1.000000  0.000000 )  
               b(3) = (  0.000000  0.000000  0.989100 )  


     PseudoPot. # 1 for Ba read from file:
     /home/kylay/scratch/BTO/pseuds/Ba.pbe-spn-kjpaw_psl.1.0.0.UPF
     MD5 check sum: 7cfe25f1fe7574a4710541d5a11d6531
     Pseudo is Projector augmented-wave + core cor, Zval = 10.0
     Generated using &quot;atomic&quot; code by A. Dal Corso  v.6.2.2
     Shape of augmentation charge: PSQ
     Using radial grid of 1251 points,  7 beta functions with: 
                l(1) =   0
                l(2) =   0
                l(3) =   0
                l(4) =   1
                l(5) =   1
                l(6) =   2
                l(7) =   2
     Q(r) pseudized with 0 coefficients 


     PseudoPot. # 2 for Ti read from file:
     /home/kylay/scratch/BTO/pseuds/Ti.pbe-spn-kjpaw_psl.1.0.0.UPF
     MD5 check sum: 01f69b0d8ba4438b2e03ac6ea4af1c0b
     Pseudo is Projector augmented-wave + core cor, Zval = 12.0
     Generated using &quot;atomic&quot; code by A. Dal Corso  v.6.2.2
     Shape of augmentation charge: PSQ
     Using radial grid of 1177 points,  6 beta functions with: 
                l(1) =   0
                l(2) =   0
                l(3) =   1
                l(4) =   1
                l(5) =   2
                l(6) =   2
     Q(r) pseudized with 0 coefficients 


     PseudoPot. # 3 for O  read from file:
     /home/kylay/scratch/BTO/pseuds/O.pbe-n-kjpaw_psl.1.0.0.UPF
     MD5 check sum: e99d9cef9b487d1ca56f5b95ecd0fd7a
     Pseudo is Projector augmented-wave + core cor, Zval =  6.0
     Generated using &quot;atomic&quot; code by A. Dal Corso  v.6.3
     Shape of augmentation charge: PSQ
     Using radial grid of 1095 points,  4 beta functions with: 
                l(1) =   0
                l(2) =   0
                l(3) =   1
                l(4) =   1
     Q(r) pseudized with 0 coefficients 


     atomic species   valence    mass     pseudopotential
     Ba               10.00   137.32700     Ba( 1.00)
     Ti               12.00    47.86700     Ti( 1.00)
     O                 6.00    15.99900     O ( 1.00)

      8 Sym. Ops. (no inversion) found



   Cartesian axes

     site n.     atom                  positions (alat units)
         1        Ba     tau(   1) = (   0.0000000   0.0000000  -0.0010787  )
         2        Ba     tau(   2) = (   0.0000000   0.0000000   0.5044220  )
         3        Ba     tau(   3) = (   0.0000000   0.5000000  -0.0010832  )
         4        Ba     tau(   4) = (   0.0000000   0.5000000   0.5044235  )
         5        Ba     tau(   5) = (   0.5000000   0.0000000  -0.0010832  )
         6        Ba     tau(   6) = (   0.5000000   0.0000000   0.5044235  )
         7        Ba     tau(   7) = (   0.5000000   0.5000000  -0.0010766  )
         8        Ba     tau(   8) = (   0.5000000   0.5000000   0.5044202  )
         9        Ti     tau(   9) = (   0.2500002   0.2500002   0.2436990  )
        10        Ti     tau(  10) = (   0.2500007   0.2500007   0.7492042  )
        11        Ti     tau(  11) = (   0.2500002   0.7499998   0.2436990  )
        12        Ti     tau(  12) = (   0.2500007   0.7499993   0.7492042  )
        13        Ti     tau(  13) = (   0.7499998   0.2500002   0.2436990  )
        14        Ti     tau(  14) = (   0.7499993   0.2500007   0.7492042  )
        15        Ti     tau(  15) = (   0.7499998   0.7499998   0.2436990  )
        16        Ti     tau(  16) = (   0.7499993   0.7499993   0.7492042  )
        17        O      tau(  17) = (   0.2500011   0.2500011   0.0113903  )
        18        O      tau(  18) = (   0.2500007   0.2500007   0.5168954  )
        19        O      tau(  19) = (   0.2500011   0.7499989   0.0113903  )
        20        O      tau(  20) = (   0.2500007   0.7499993   0.5168954  )
        21        O      tau(  21) = (   0.7499989   0.2500011   0.0113903  )
        22        O      tau(  22) = (   0.7499993   0.2500007   0.5168954  )
        23        O      tau(  23) = (   0.7499989   0.7499989   0.0113903  )
        24        O      tau(  24) = (   0.7499993   0.7499993   0.5168954  )
        25        O      tau(  25) = (   0.2500005   0.0000000   0.2592128  )
        26        O      tau(  26) = (   0.2500020   0.0000000   0.7647195  )
        27        O      tau(  27) = (   0.2499999   0.5000000   0.2592107  )
        28        O      tau(  28) = (   0.2499998   0.5000000   0.7647148  )
        29        O      tau(  29) = (   0.7499995   0.0000000   0.2592128  )
        30        O      tau(  30) = (   0.7499980   0.0000000   0.7647195  )
        31        O      tau(  31) = (   0.7500001   0.5000000   0.2592107  )
        32        O      tau(  32) = (   0.7500002   0.5000000   0.7647148  )
        33        O      tau(  33) = (   0.0000000   0.2500005   0.2592128  )
        34        O      tau(  34) = (   0.0000000   0.2500020   0.7647195  )
        35        O      tau(  35) = (   0.0000000   0.7499995   0.2592128  )
        36        O      tau(  36) = (   0.0000000   0.7499980   0.7647195  )
        37        O      tau(  37) = (   0.5000000   0.2499999   0.2592107  )
        38        O      tau(  38) = (   0.5000000   0.2499998   0.7647148  )
        39        O      tau(  39) = (   0.5000000   0.7500001   0.2592107  )
        40        O      tau(  40) = (   0.5000000   0.7500002   0.7647148  )

     number of k points=    40
                       cart. coord. in units 2pi/alat
        k(    1) = (   0.0000000   0.0000000   0.0000000), wk =   0.0092593
        k(    2) = (   0.0000000   0.0000000   0.1648500), wk =   0.0185185
        k(    3) = (   0.0000000   0.0000000   0.3297000), wk =   0.0185185
        k(    4) = (   0.0000000   0.0000000  -0.4945501), wk =   0.0092593
        k(    5) = (   0.0000000   0.1666667   0.0000000), wk =   0.0370370
        k(    6) = (   0.0000000   0.1666667   0.1648500), wk =   0.0740741
        k(    7) = (   0.0000000   0.1666667   0.3297000), wk =   0.0740741
        k(    8) = (   0.0000000   0.1666667  -0.4945501), wk =   0.0370370
        k(    9) = (   0.0000000   0.3333333   0.0000000), wk =   0.0370370
        k(   10) = (   0.0000000   0.3333333   0.1648500), wk =   0.0740741
        k(   11) = (   0.0000000   0.3333333   0.3297000), wk =   0.0740741
        k(   12) = (   0.0000000   0.3333333  -0.4945501), wk =   0.0370370
        k(   13) = (   0.0000000  -0.5000000   0.0000000), wk =   0.0185185
        k(   14) = (   0.0000000  -0.5000000   0.1648500), wk =   0.0370370
        k(   15) = (   0.0000000  -0.5000000   0.3297000), wk =   0.0370370
        k(   16) = (   0.0000000  -0.5000000  -0.4945501), wk =   0.0185185
        k(   17) = (   0.1666667   0.1666667   0.0000000), wk =   0.0370370
        k(   18) = (   0.1666667   0.1666667   0.1648500), wk =   0.0740741
        k(   19) = (   0.1666667   0.1666667   0.3297000), wk =   0.0740741
        k(   20) = (   0.1666667   0.1666667  -0.4945501), wk =   0.0370370
        k(   21) = (   0.1666667   0.3333333   0.0000000), wk =   0.0740741
        k(   22) = (   0.1666667   0.3333333   0.1648500), wk =   0.1481481
        k(   23) = (   0.1666667   0.3333333   0.3297000), wk =   0.1481481
        k(   24) = (   0.1666667   0.3333333  -0.4945501), wk =   0.0740741
        k(   25) = (   0.1666667  -0.5000000   0.0000000), wk =   0.0370370
        k(   26) = (   0.1666667  -0.5000000   0.1648500), wk =   0.0740741
        k(   27) = (   0.1666667  -0.5000000   0.3297000), wk =   0.0740741
        k(   28) = (   0.1666667  -0.5000000  -0.4945501), wk =   0.0370370
        k(   29) = (   0.3333333   0.3333333   0.0000000), wk =   0.0370370
        k(   30) = (   0.3333333   0.3333333   0.1648500), wk =   0.0740741
        k(   31) = (   0.3333333   0.3333333   0.3297000), wk =   0.0740741
        k(   32) = (   0.3333333   0.3333333  -0.4945501), wk =   0.0370370
        k(   33) = (   0.3333333  -0.5000000   0.0000000), wk =   0.0370370
        k(   34) = (   0.3333333  -0.5000000   0.1648500), wk =   0.0740741
        k(   35) = (   0.3333333  -0.5000000   0.3297000), wk =   0.0740741
        k(   36) = (   0.3333333  -0.5000000  -0.4945501), wk =   0.0370370
        k(   37) = (  -0.5000000  -0.5000000   0.0000000), wk =   0.0092593
        k(   38) = (  -0.5000000  -0.5000000   0.1648500), wk =   0.0185185
        k(   39) = (  -0.5000000  -0.5000000   0.3297000), wk =   0.0185185
        k(   40) = (  -0.5000000  -0.5000000  -0.4945501), wk =   0.0092593

     Dense  grid:   335575 G-vectors     FFT dimensions: (  90,  90,  90)

     Smooth grid:   118681 G-vectors     FFT dimensions: (  64,  64,  64)

     Estimated max dynamical RAM per process >      48.53 MB

     Estimated total dynamical RAM >       7.98 GB

     Check: negative core charge=   -0.000007
     Cannot read rho : file not found

     Initial potential from superposition of free atoms

     starting charge     319.8521, renormalised to     320.0000
     Message from routine qexsd_readschema :
     xml data file ./tmp/40_ecut_6_kmesh_PBE.save/data-file-schema.xml not found
     Cannot read wfcs: file not found
     Starting wfcs are  216 randomized atomic wfcs
     Checking if some PAW data can be deallocated... 

     total cpu time spent up to now is        3.3 secs

     per-process dynamical memory:   123.4 Mb

     Self-consistent Calculation

     iteration #  1     ecut=    40.00 Ry     beta= 0.30
     Davidson diagonalization with overlap
     c_bands:  2 eigenvalues not converged
     c_bands:  1 eigenvalues not converged
     c_bands:  1 eigenvalues not converged
     c_bands:  1 eigenvalues not converged
     ethr =  1.00E-05,  avg # of iterations = 38.7

     total cpu time spent up to now is       14.0 secs

     total energy              =   -5884.23504774 Ry
     estimated scf accuracy    <      13.66268618 Ry

     iteration #  2     ecut=    40.00 Ry     beta= 0.30
     Davidson diagonalization with overlap
     ethr =  4.27E-03,  avg # of iterations =  2.0

     total cpu time spent up to now is       15.5 secs

     total energy              =   -5886.12077294 Ry
     estimated scf accuracy    <       0.50865688 Ry

     iteration #  3     ecut=    40.00 Ry     beta= 0.30
     Davidson diagonalization with overlap
     ethr =  1.59E-04,  avg # of iterations = 13.7

     total cpu time spent up to now is       20.2 secs

     total energy              =   -5886.88275662 Ry
     estimated scf accuracy    <       0.82731577 Ry

     iteration #  4     ecut=    40.00 Ry     beta= 0.30
     Davidson diagonalization with overlap
     ethr =  1.59E-04,  avg # of iterations =  2.0

     total cpu time spent up to now is       21.7 secs

     total energy              =   -5886.96413616 Ry
     estimated scf accuracy    <       0.13006270 Ry

     iteration #  5     ecut=    40.00 Ry     beta= 0.30
     Davidson diagonalization with overlap
     ethr =  4.06E-05,  avg # of iterations =  9.8

     total cpu time spent up to now is       24.9 secs

     total energy              =   -5886.87626297 Ry
     estimated scf accuracy    <       0.69685279 Ry

     iteration #  6     ecut=    40.00 Ry     beta= 0.30
     Davidson diagonalization with overlap
     ethr =  4.06E-05,  avg # of iterations =  8.2

     total cpu time spent up to now is       28.2 secs

     total energy              =   -5886.97628507 Ry
     estimated scf accuracy    <       0.09801680 Ry

     iteration #  7     ecut=    40.00 Ry     beta= 0.30
     Davidson diagonalization with overlap
     ethr =  3.06E-05,  avg # of iterations =  4.0

     total cpu time spent up to now is       30.2 secs

     total energy              =   -5886.99280939 Ry
     estimated scf accuracy    <       0.02220951 Ry

     iteration #  8     ecut=    40.00 Ry     beta= 0.30
     Davidson diagonalization with overlap
     ethr =  6.94E-06,  avg # of iterations =  8.8

     total cpu time spent up to now is       33.3 secs

     total energy              =   -5886.99888046 Ry
     estimated scf accuracy    <       0.00731477 Ry

     iteration #  9     ecut=    40.00 Ry     beta= 0.30
     Davidson diagonalization with overlap
     ethr =  2.29E-06,  avg # of iterations =  3.2

     total cpu time spent up to now is       35.2 secs

     total energy              =   -5886.99775807 Ry
     estimated scf accuracy    <       0.00253004 Ry

     iteration # 10     ecut=    40.00 Ry     beta= 0.30
     Davidson diagonalization with overlap
     ethr =  7.91E-07,  avg # of iterations =  4.7

     total cpu time spent up to now is       37.6 secs

     total energy              =   -5886.99863883 Ry
     estimated scf accuracy    <       0.00090938 Ry

     iteration # 11     ecut=    40.00 Ry     beta= 0.30
     Davidson diagonalization with overlap
     ethr =  2.84E-07,  avg # of iterations =  2.1

     total cpu time spent up to now is       39.3 secs

     total energy              =   -5886.99882944 Ry
     estimated scf accuracy    <       0.00023279 Ry

     iteration # 12     ecut=    40.00 Ry     beta= 0.30
     Davidson diagonalization with overlap
     ethr =  7.27E-08,  avg # of iterations =  4.8

     total cpu time spent up to now is       41.7 secs

     total energy              =   -5886.99883841 Ry
     estimated scf accuracy    <       0.00007054 Ry

     iteration # 13     ecut=    40.00 Ry     beta= 0.30
     Davidson diagonalization with overlap
     ethr =  2.20E-08,  avg # of iterations =  6.5

     total cpu time spent up to now is       44.6 secs

     total energy              =   -5886.99887015 Ry
     estimated scf accuracy    <       0.00011141 Ry

     iteration # 14     ecut=    40.00 Ry     beta= 0.30
     Davidson diagonalization with overlap
     ethr =  2.20E-08,  avg # of iterations =  1.1

     total cpu time spent up to now is       45.9 secs

     total energy              =   -5886.99886968 Ry
     estimated scf accuracy    <       0.00002808 Ry

     iteration # 15     ecut=    40.00 Ry     beta= 0.30
     Davidson diagonalization with overlap
     ethr =  8.78E-09,  avg # of iterations =  4.5

     total cpu time spent up to now is       47.8 secs

     total energy              =   -5886.99887239 Ry
     estimated scf accuracy    <       0.00000341 Ry

     iteration # 16     ecut=    40.00 Ry     beta= 0.30
     Davidson diagonalization with overlap
     ethr =  1.06E-09,  avg # of iterations =  6.4

     total cpu time spent up to now is       50.5 secs

     total energy              =   -5886.99887413 Ry
     estimated scf accuracy    <       0.00000041 Ry

     iteration # 17     ecut=    40.00 Ry     beta= 0.30
     Davidson diagonalization with overlap
     ethr =  1.28E-10,  avg # of iterations =  5.1

     total cpu time spent up to now is       52.7 secs

     total energy              =   -5886.99887426 Ry
     estimated scf accuracy    <       0.00000046 Ry

     iteration # 18     ecut=    40.00 Ry     beta= 0.30
     Davidson diagonalization with overlap
     ethr =  1.28E-10,  avg # of iterations =  1.8

     total cpu time spent up to now is       54.2 secs

     total energy              =   -5886.99887419 Ry
     estimated scf accuracy    <       0.00000066 Ry

     iteration # 19     ecut=    40.00 Ry     beta= 0.30
     Davidson diagonalization with overlap
     ethr =  1.28E-10,  avg # of iterations =  1.4

     total cpu time spent up to now is       55.8 secs

     total energy              =   -5886.99887401 Ry
     estimated scf accuracy    <       0.00000036 Ry

     iteration # 20     ecut=    40.00 Ry     beta= 0.30
     Davidson diagonalization with overlap
     ethr =  1.11E-10,  avg # of iterations =  4.2

     total cpu time spent up to now is       58.0 secs

     total energy              =   -5886.99887411 Ry
     estimated scf accuracy    <       0.00000002 Ry

     iteration # 21     ecut=    40.00 Ry     beta= 0.30
     Davidson diagonalization with overlap
     ethr =  6.22E-12,  avg # of iterations =  5.1

     total cpu time spent up to now is       60.3 secs

     total energy              =   -5886.99887412 Ry
     estimated scf accuracy    <          8.2E-09 Ry

     iteration # 22     ecut=    40.00 Ry     beta= 0.30
     Davidson diagonalization with overlap
     ethr =  2.56E-12,  avg # of iterations =  1.6

     total cpu time spent up to now is       61.8 secs

     total energy              =   -5886.99887412 Ry
     estimated scf accuracy    <          5.1E-09 Ry

     iteration # 23     ecut=    40.00 Ry     beta= 0.30
     Davidson diagonalization with overlap
     ethr =  1.61E-12,  avg # of iterations =  5.0

     total cpu time spent up to now is       64.3 secs

     total energy              =   -5886.99887412 Ry
     estimated scf accuracy    <       0.00000001 Ry

     iteration # 24     ecut=    40.00 Ry     beta= 0.30
     Davidson diagonalization with overlap
     ethr =  1.61E-12,  avg # of iterations =  4.0

     total cpu time spent up to now is       66.3 secs

     total energy              =   -5886.99887413 Ry
     estimated scf accuracy    <          7.6E-10 Ry

     iteration # 25     ecut=    40.00 Ry     beta= 0.30
     Davidson diagonalization with overlap
     ethr =  2.38E-13,  avg # of iterations =  4.3

     total cpu time spent up to now is       68.6 secs

     total energy              =   -5886.99887413 Ry
     estimated scf accuracy    <          8.9E-10 Ry

     iteration # 26     ecut=    40.00 Ry     beta= 0.30
     Davidson diagonalization with overlap
     ethr =  2.38E-13,  avg # of iterations =  1.4

     total cpu time spent up to now is       70.1 secs

     total energy              =   -5886.99887413 Ry
     estimated scf accuracy    <          6.0E-10 Ry

     iteration # 27     ecut=    40.00 Ry     beta= 0.30
     Davidson diagonalization with overlap
     ethr =  1.88E-13,  avg # of iterations =  4.7

     total cpu time spent up to now is       72.5 secs

     total energy              =   -5886.99887413 Ry
     estimated scf accuracy    <          4.6E-10 Ry

     iteration # 28     ecut=    40.00 Ry     beta= 0.30
     Davidson diagonalization with overlap
     ethr =  1.42E-13,  avg # of iterations =  2.0

     total cpu time spent up to now is       74.2 secs

     End of self-consistent calculation

          k = 0.0000 0.0000 0.0000 ( 14883 PWs)   bands (ev):

   -46.0192 -46.0183 -46.0181 -46.0181 -46.0171 -46.0171 -46.0169 -46.0160
   -22.4624 -22.4587 -22.4587 -22.4559 -22.4128 -22.4106 -22.4106 -22.4086
   -22.4067 -22.4067 -22.4034 -22.4034 -22.4031 -22.4031 -22.4006 -22.4006
   -22.3513 -22.3513 -22.3494 -22.3494 -22.3492 -22.3492 -22.3475 -22.3475
   -14.5358 -14.4209 -14.4113 -14.4113 -14.3402 -14.3402 -14.3320 -14.2698
    -6.8518  -6.8518  -6.8020  -6.6006  -6.3115  -6.2030  -6.2030  -5.9594
    -5.9594  -5.9568  -5.8953  -5.8953  -5.8646  -5.8309  -5.8039  -5.8038
    -5.8007  -5.8007  -5.7809  -5.7139  -5.6255  -5.6255  -5.5629  -5.5629
    -0.4669  -0.4669  -0.4043   0.2147   0.2147   0.2310   0.2310   0.2787
     0.2876   0.2876   0.2895   0.2895   0.4483   0.4483   0.4525   0.4525
     0.4708   0.4708   0.6675   0.6726   0.6726   0.6945   0.6945   0.7386
     5.7130   5.8889   5.9137   5.9137   6.0855   6.0855   6.1370   6.1624
     6.2378   6.2378   6.4002   6.4007   6.4007   6.4247   6.4423   7.3387
     7.3387   7.3934   7.3934   7.4407   7.4407   7.4412   7.4412   7.4505
     7.4505   7.5485   7.5485   7.7732   7.7732   7.7995   7.8906   7.9146
     7.9146   7.9224   7.9224   8.2250   8.2250   8.2706   8.2783   8.2865
     8.2865   8.3865   8.3865   8.4571   8.5262   8.5262   8.5496   8.5496
     8.8954   8.8954   9.0716   9.1960   9.1960   9.2363   9.2363   9.3291
     9.3291   9.3383   9.3383   9.3562   9.3563   9.5700   9.5700   9.8636
     9.9267   9.9267  10.0402  10.0402  10.1091  10.1091  10.2020  10.2708
    12.0620  12.2187  12.3838  12.3838  12.5076  12.5076  13.8264  13.8264
    13.8584  13.8584  13.8857  13.8857  13.8921  13.8921  13.9074  13.9074
    13.9152  13.9152  14.2548  14.2548  14.2869  14.3762  14.3819  14.4578
    14.4578  14.5041  14.5041  14.5094  14.5315  14.9884  15.0725  15.1996
    15.1996  15.2194  16.2017  16.2017  16.4063  16.6835  16.8793  16.8794

          k = 0.0000 0.0000 0.1649 ( 14851 PWs)   bands (ev):

   -46.0192 -46.0183 -46.0180 -46.0180 -46.0171 -46.0171 -46.0168 -46.0161
   -22.4591 -22.4555 -22.4555 -22.4527 -22.4162 -22.4139 -22.4139 -22.4118
   -22.4065 -22.4065 -22.4036 -22.4036 -22.4029 -22.4029 -22.4008 -22.4008
   -22.3512 -22.3512 -22.3496 -22.3496 -22.3491 -22.3491 -22.3475 -22.3475
   -14.5283 -14.4288 -14.4067 -14.4066 -14.3450 -14.3450 -14.3279 -14.2740
    -6.8179  -6.8179  -6.7793  -6.5991  -6.2782  -6.2731  -6.2731  -5.9589
    -5.9299  -5.9299  -5.8915  -5.8915  -5.8624  -5.8332  -5.8189  -5.7897
    -5.7897  -5.7875  -5.7875  -5.7428  -5.6380  -5.6380  -5.5788  -5.5788
    -0.4237  -0.4237  -0.3448   0.1660   0.1660   0.2591   0.2591   0.2958
     0.2959   0.2996   0.2996   0.3100   0.4371   0.4371   0.4383   0.4384
     0.4835   0.4835   0.5784   0.6583   0.6583   0.6604   0.6604   0.7081
     5.7596   5.8893   5.9717   5.9717   6.1587   6.1587   6.2241   6.2241
     6.2657   6.2708   6.4263   6.4414   6.4590   6.4590   6.4786   7.3453
     7.3453   7.3908   7.3909   7.4228   7.4228   7.4823   7.4823   7.4899
     7.4899   7.6032   7.6032   7.6052   7.6052   7.7001   7.7660   7.7660
     7.7666   7.9019   7.9019   8.2482   8.2482   8.2633   8.3152   8.3255
     8.3255   8.3535   8.3535   8.3586   8.5612   8.5613   8.8173   8.8173
     8.8517   8.8517   9.0080   9.1339   9.1339   9.2324   9.2324   9.2722
     9.2722   9.2804   9.2804   9.2868   9.2868   9.5914   9.5914   9.7043
     9.8990   9.8990  10.0025  10.0025  10.0279  10.0279  10.2069  10.2660
    12.0705  12.2080  12.4979  12.4979  12.6116  12.6116  13.7986  13.7986
    13.8248  13.8248  13.8286  13.8286  13.8646  13.8646  13.8881  13.8881
    13.9490  13.9490  14.2120  14.2120  14.3013  14.3758  14.3781  14.4565
    14.4565  14.4932  14.5897  14.5897  14.7063  15.1957  15.1957  15.2015
    15.2074  15.3515  16.2825  16.2825  16.3162  16.6860  16.9713  17.0523

          k = 0.0000 0.0000 0.3297 ( 14827 PWs)   bands (ev):

   -46.0190 -46.0185 -46.0179 -46.0179 -46.0174 -46.0174 -46.0166 -46.0162
   -22.4502 -22.4467 -22.4467 -22.4440 -22.4253 -22.4227 -22.4227 -22.4204
   -22.4059 -22.4059 -22.4042 -22.4042 -22.4024 -22.4024 -22.4012 -22.4012
   -22.3509 -22.3509 -22.3499 -22.3499 -22.3488 -22.3488 -22.3479 -22.3479
   -14.5077 -14.4502 -14.3938 -14.3938 -14.3582 -14.3582 -14.3166 -14.2855
    -6.7221  -6.7221  -6.7207  -6.6092  -6.4194  -6.4194  -6.1858  -5.9478
    -5.9210  -5.8938  -5.8938  -5.8834  -5.8834  -5.8562  -5.8394  -5.8157
    -5.7591  -5.7591  -5.7431  -5.7430  -5.6717  -5.6717  -5.6226  -5.6225
    -0.3041  -0.3041  -0.1753   0.0356   0.0356   0.3203   0.3203   0.3277
     0.3277   0.3378   0.3378   0.3522   0.3950   0.4022   0.4022   0.4071
     0.4071   0.5189   0.5189   0.5696   0.5696   0.6198   0.6198   0.6246
     5.8382   5.8910   6.0746   6.0746   6.1899   6.1899   6.3707   6.3707
     6.4325   6.4401   6.5693   6.5995   6.6668   6.6668   6.7530   7.1330
     7.1330   7.3010   7.3010   7.3569   7.3569   7.3839   7.3839   7.4227
     7.4356   7.5837   7.5837   7.5926   7.5926   7.7388   7.7388   7.7485
     7.7485   7.7875   7.8382   7.8382   8.1647   8.1647   8.3211   8.3211
     8.4435   8.5528   8.5529   8.5840   8.6394   8.6394   8.6582   8.6582
     8.8428   8.9837   8.9837   9.0623   9.0623   9.0919   9.0919   9.1581
     9.1581   9.2801   9.2801   9.3388   9.3866   9.3866   9.6495   9.6495
     9.8242   9.8242   9.8305   9.8305   9.8721   9.8721  10.2210  10.2540
    12.1012  12.1766  12.8030  12.8030  12.8856  12.8856  13.5417  13.5417
    13.5761  13.5761  13.8367  13.8367  13.8543  13.8543  13.9103  13.9103
    14.0520  14.0520  14.0951  14.0951  14.3429  14.3429  14.3432  14.3777
    14.3778  14.4516  14.8559  14.8559  15.1391  15.1594  15.1594  15.5726
    15.7269  15.7316  16.0358  16.5495  16.5495  16.5817  16.6223  16.9164

          k = 0.0000 0.0000-0.4946 ( 14774 PWs)   bands (ev):

   -46.0187 -46.0187 -46.0176 -46.0176 -46.0176 -46.0176 -46.0164 -46.0164
   -22.4378 -22.4377 -22.4347 -22.4347 -22.4347 -22.4347 -22.4323 -22.4323
   -22.4050 -22.4050 -22.4050 -22.4050 -22.4018 -22.4018 -22.4018 -22.4018
   -22.3504 -22.3504 -22.3504 -22.3504 -22.3483 -22.3483 -22.3483 -22.3483
   -14.4792 -14.4791 -14.3762 -14.3761 -14.3761 -14.3760 -14.3012 -14.3011
    -6.6530  -6.6529  -6.5808  -6.5808  -6.5806  -6.5806  -6.0558  -6.0557
    -5.8971  -5.8970  -5.8802  -5.8802  -5.8801  -5.8801  -5.8479  -5.8478
    -5.7162  -5.7162  -5.7161  -5.7161  -5.6827  -5.6827  -5.6826  -5.6825
    -0.1370  -0.1370  -0.1369  -0.1369   0.0746   0.0747   0.3583   0.3583
     0.3584   0.3584   0.3669   0.3669   0.3669   0.3669   0.4507   0.4507
     0.4508   0.4508   0.5102   0.5103   0.5685   0.5685   0.5686   0.5686
     5.8797   5.8798   6.1447   6.1447   6.1448   6.1448   6.4361   6.4362
     6.7056   6.7056   6.7058   6.7058   6.9945   6.9946   7.0063   7.0063
     7.0064   7.0064   7.0245   7.0246   7.2239   7.2241   7.3724   7.3724
     7.3725   7.3725   7.6770   7.6770   7.6770   7.6770   7.7277   7.7277
     7.7278   7.7278   7.9538   7.9538   7.9539   7.9539   8.4542   8.4542
     8.4543   8.4543   8.6325   8.6326   8.8087   8.8087   8.8087   8.8087
     8.8246   8.8247   8.8247   8.8247   8.9309   8.9310   9.0462   9.0462
     9.0463   9.0463   9.5820   9.5820   9.5820   9.5820   9.6341   9.6341
     9.6341   9.6341   9.7372   9.7372   9.7373   9.7373  10.2372  10.2374
    12.1380  12.1380  13.1846  13.1846  13.1847  13.1847  13.2399  13.2399
    13.2400  13.2400  13.8470  13.8470  13.8470  13.8470  13.9853  13.9853
    13.9853  13.9853  14.1883  14.1883  14.1883  14.1883  14.3798  14.3798
    14.3969  14.3970  15.0636  15.0636  15.0636  15.0636  15.6234  15.6235
    16.0708  16.0710  16.2845  16.2847  16.2957  16.2959  16.9974  16.9975

          k = 0.0000 0.1667 0.0000 ( 14857 PWs)   bands (ev):

   -46.0192 -46.0182 -46.0182 -46.0180 -46.0172 -46.0170 -46.0170 -46.0161
   -22.4621 -22.4589 -22.4585 -22.4561 -22.4127 -22.4108 -22.4105 -22.4087
   -22.4065 -22.4033 -22.4031 -22.4030 -22.4008 -22.3998 -22.3995 -22.3971
   -22.3551 -22.3531 -22.3528 -22.3512 -22.3510 -22.3493 -22.3493 -22.3476
   -14.5277 -14.4199 -14.4156 -14.4061 -14.3457 -14.3375 -14.3355 -14.2746
    -6.8276  -6.8195  -6.7679  -6.6048  -6.3539  -6.2547  -6.1671  -5.9518
    -5.9479  -5.9438  -5.8979  -5.8867  -5.8615  -5.8247  -5.8026  -5.7947
    -5.7940  -5.7926  -5.7844  -5.7302  -5.6667  -5.6382  -5.5955  -5.5784
    -0.4228  -0.4101  -0.3543   0.1810   0.2276   0.2371   0.2423   0.2434
     0.2896   0.3010   0.3146   0.3174   0.4300   0.4402   0.4403   0.4580
     0.4623   0.4752   0.5783   0.6527   0.6566   0.6590   0.6679   0.7052
     5.7625   5.9140   5.9474   5.9665   6.1370   6.1513   6.2124   6.2183
     6.2219   6.3448   6.4043   6.4081   6.4838   6.4910   6.5083   7.3802
     7.3836   7.3884   7.3947   7.4414   7.4451   7.4473   7.4532   7.4815
     7.5029   7.5459   7.5818   7.6713   7.7374   7.7420   7.7645   7.7974
     7.7992   7.8781   7.9035   7.9693   7.9951   8.1624   8.3364   8.3467
     8.3469   8.3980   8.4949   8.5136   8.5824   8.5854   8.7798   8.7806
     8.8297   8.8946   8.9643   9.0342   9.1711   9.1976   9.2323   9.2565
     9.3201   9.3672   9.3736   9.3985   9.4028   9.4423   9.4704   9.6883
     9.8499   9.9248  10.0004  10.0358  10.0468  10.1032  10.1584  10.1914
    12.2116  12.3510  12.3946  12.4433  12.4976  12.5643  13.7272  13.7625
    13.7711  13.7964  13.8368  13.8753  13.8893  13.8930  13.9010  13.9088
    13.9090  13.9297  14.1985  14.2293  14.2733  14.4490  14.4538  14.4660
    14.4667  14.4891  14.5319  14.5969  14.6467  15.0043  15.1924  15.2117
    15.3572  15.4262  16.1302  16.3023  16.4905  16.7448  16.9937  17.0979

          k = 0.0000 0.1667 0.1649 ( 14853 PWs)   bands (ev):

   -46.0191 -46.0183 -46.0181 -46.0180 -46.0173 -46.0171 -46.0169 -46.0161
   -22.4589 -22.4557 -22.4553 -22.4529 -22.4161 -22.4140 -22.4137 -22.4119
   -22.4063 -22.4034 -22.4032 -22.4028 -22.4010 -22.4000 -22.3993 -22.3972
   -22.3550 -22.3532 -22.3527 -22.3511 -22.3511 -22.3494 -22.3492 -22.3477
   -14.5204 -14.4233 -14.4150 -14.4015 -14.3508 -14.3403 -14.3333 -14.2788
    -6.7952  -6.7856  -6.7469  -6.6003  -6.3205  -6.3046  -6.2393  -5.9554
    -5.9318  -5.9170  -5.8948  -5.8826  -5.8592  -5.8406  -5.8275  -5.7923
    -5.7803  -5.7779  -5.7750  -5.7581  -5.6699  -5.6485  -5.6106  -5.5924
    -0.3937  -0.3807  -0.2733   0.1741   0.1956   0.2100   0.2389   0.2524
     0.2833   0.3113   0.3369   0.3597   0.3904   0.4166   0.4226   0.4510
     0.4705   0.5159   0.5790   0.5811   0.6239   0.6425   0.6440   0.6838
     5.8130   5.9491   5.9713   6.0295   6.2091   6.2123   6.2573   6.2757
     6.3245   6.3293   6.4597   6.4661   6.4854   6.5235   6.5383   7.3702
     7.3818   7.3934   7.4235   7.4392   7.4393   7.4522   7.4799   7.4866
     7.5289   7.5365   7.5976   7.5978   7.6269   7.6848   7.7026   7.7629
     7.7751   7.8020   7.8306   7.8859   7.9366   8.1852   8.3072   8.3356
     8.3689   8.4000   8.4119   8.6145   8.6637   8.7530   8.7665   8.8015
     8.8550   8.8849   8.9213   9.0384   9.1532   9.1742   9.2159   9.2302
     9.2859   9.3118   9.3179   9.3191   9.3382   9.4729   9.4929   9.5811
     9.8204   9.8631   9.9575   9.9672  10.0036  10.0200  10.1612  10.1969
    12.2214  12.3418  12.5101  12.5465  12.6050  12.6648  13.7311  13.7567
    13.7766  13.7780  13.8003  13.8214  13.8396  13.8405  13.8419  13.8926
    13.8965  13.9435  14.1459  14.2250  14.2459  14.4009  14.4329  14.4486
    14.5059  14.5307  14.5985  14.7419  14.7886  15.1819  15.2201  15.3409
    15.4208  15.4874  16.2117  16.3661  16.3982  16.7823  17.0461  17.1146

          k = 0.0000 0.1667 0.3297 ( 14821 PWs)   bands (ev):

   -46.0189 -46.0185 -46.0179 -46.0178 -46.0174 -46.0173 -46.0167 -46.0163
   -22.4499 -22.4469 -22.4465 -22.4443 -22.4251 -22.4229 -22.4226 -22.4206
   -22.4057 -22.4040 -22.4027 -22.4022 -22.4014 -22.4006 -22.3989 -22.3977
   -22.3546 -22.3536 -22.3524 -22.3515 -22.3507 -22.3498 -22.3489 -22.3480
   -14.5002 -14.4442 -14.4016 -14.3887 -14.3645 -14.3534 -14.3219 -14.2905
    -6.7038  -6.6934  -6.6897  -6.6018  -6.4257  -6.3867  -6.2273  -5.9539
    -5.9495  -5.9073  -5.8892  -5.8810  -5.8735  -5.8524  -5.8384  -5.8245
    -5.7640  -5.7492  -5.7467  -5.7380  -5.6901  -5.6761  -5.6505  -5.6309
    -0.3020  -0.2642  -0.0919   0.0335   0.0679   0.2497   0.2813   0.2914
     0.2996   0.3280   0.3399   0.3784   0.3813   0.3879   0.3997   0.4205
     0.4413   0.5054   0.5303   0.5550   0.5782   0.5840   0.6046   0.6236
     5.8972   5.9500   6.0720   6.1490   6.1786   6.2902   6.4301   6.4497
     6.4890   6.4950   6.5511   6.6194   6.6689   6.7229   6.7515   7.1135
     7.1643   7.2911   7.3559   7.3629   7.3866   7.3899   7.4058   7.4154
     7.4322   7.5092   7.5201   7.5953   7.6146   7.7414   7.7435   7.7444
     7.7473   7.7500   7.8287   7.8782   7.9399   7.9653   8.1696   8.2565
     8.4332   8.4581   8.5544   8.5743   8.5821   8.7114   8.7182   8.8719
     8.8734   8.9640   8.9661   9.0285   9.0394   9.1593   9.1824   9.2016
     9.2320   9.2634   9.2923   9.3359   9.3515   9.3534   9.5531   9.5555
     9.7451   9.7574   9.7660   9.8191   9.8576   9.8663  10.1690  10.1923
    12.2452  12.3167  12.8088  12.8173  12.8786  12.9306  13.5234  13.5441
    13.5710  13.6018  13.7366  13.7591  13.8115  13.8530  13.8867  13.9230
    13.9526  14.0223  14.0409  14.1138  14.2677  14.2855  14.3226  14.4002
    14.5244  14.5290  14.8589  15.0482  15.1480  15.2098  15.3875  15.6897
    15.7482  15.8592  16.1211  16.4807  16.5946  16.6626  16.7115  17.0450

          k = 0.0000 0.1667-0.4946 ( 14826 PWs)   bands (ev):

   -46.0187 -46.0187 -46.0177 -46.0177 -46.0175 -46.0175 -46.0165 -46.0165
   -22.4375 -22.4375 -22.4349 -22.4349 -22.4346 -22.4345 -22.4324 -22.4324
   -22.4048 -22.4048 -22.4021 -22.4020 -22.4014 -22.4014 -22.3983 -22.3983
   -22.3541 -22.3541 -22.3519 -22.3519 -22.3503 -22.3503 -22.3485 -22.3484
   -14.4724 -14.4724 -14.3832 -14.3831 -14.3712 -14.3711 -14.3063 -14.3062
    -6.6346  -6.6345  -6.5714  -6.5712  -6.5483  -6.5481  -6.0949  -6.0948
    -5.9060  -5.9059  -5.8906  -5.8905  -5.8689  -5.8688  -5.8428  -5.8427
    -5.7259  -5.7257  -5.7132  -5.7130  -5.7013  -5.7012  -5.6841  -5.6840
    -0.1445  -0.1445  -0.1009  -0.1008   0.1440   0.1440   0.2786   0.2786
     0.3260   0.3261   0.3370   0.3371   0.3796   0.3797   0.4078   0.4079
     0.4882   0.4883   0.5364   0.5365   0.5542   0.5543   0.5773   0.5774
     5.9395   5.9396   6.1365   6.1366   6.2342   6.2343   6.4928   6.4929
     6.7349   6.7350   6.7594   6.7595   6.9645   6.9647   6.9985   6.9986
     7.0108   7.0109   7.0499   7.0500   7.1965   7.1967   7.3935   7.3936
     7.4206   7.4207   7.6310   7.6311   7.6906   7.6907   7.7236   7.7236
     7.7258   7.7259   7.8735   7.8736   7.9525   7.9526   8.1881   8.1882
     8.3887   8.3888   8.5779   8.5779   8.7702   8.7703   8.7784   8.7785
     8.8585   8.8586   8.9959   8.9960   9.0218   9.0218   9.0937   9.0937
     9.1124   9.1125   9.5232   9.5232   9.5711   9.5711   9.6184   9.6184
     9.6465   9.6466   9.6478   9.6478   9.6591   9.6592  10.1805  10.1807
    12.2813  12.2814  13.1751  13.1752  13.1898  13.1899  13.2339  13.2340
    13.2696  13.2696  13.7481  13.7481  13.8662  13.8663  13.8926  13.8926
    13.9987  13.9987  14.1061  14.1062  14.1741  14.1741  14.3411  14.3412
    14.5270  14.5270  15.0549  15.0550  15.2814  15.2814  15.7005  15.7006
    16.1676  16.1678  16.3381  16.3383  16.4138  16.4139  16.9227  16.9230

          k = 0.0000 0.3333 0.0000 ( 14826 PWs)   bands (ev):

   -46.0189 -46.0183 -46.0180 -46.0178 -46.0174 -46.0172 -46.0168 -46.0163
   -22.4615 -22.4596 -22.4579 -22.4566 -22.4123 -22.4112 -22.4101 -22.4091
   -22.4058 -22.4040 -22.4027 -22.4013 -22.3930 -22.3900 -22.3897 -22.3874
   -22.3653 -22.3630 -22.3628 -22.3607 -22.3508 -22.3497 -22.3489 -22.3479
   -14.5054 -14.4431 -14.4011 -14.3918 -14.3607 -14.3522 -14.3228 -14.2876
    -6.7644  -6.7294  -6.6722  -6.6292  -6.4629  -6.3810  -6.0675  -5.9360
    -5.9161  -5.9056  -5.8994  -5.8643  -5.8395  -5.8307  -5.8134  -5.8099
    -5.7854  -5.7757  -5.7739  -5.7615  -5.7401  -5.6788  -5.6724  -5.6212
    -0.3007  -0.2634  -0.2002   0.0471   0.1013   0.2654   0.2753   0.3201
     0.3244   0.3329   0.3401   0.3832   0.3886   0.3907   0.3927   0.4070
     0.4235   0.5015   0.5098   0.5644   0.5950   0.6131   0.6136   0.6164
     5.8483   5.9117   6.0448   6.0564   6.1237   6.1830   6.3251   6.4052
     6.4096   6.4315   6.5600   6.6412   6.6927   6.7551   6.7716   7.0836
     7.2293   7.3084   7.3935   7.4308   7.4401   7.4404   7.4523   7.4572
     7.4755   7.4792   7.5664   7.5883   7.5899   7.6460   7.6587   7.7346
     7.7784   7.8216   7.8401   7.8980   7.9754   7.9975   8.1119   8.4389
     8.5082   8.5448   8.5484   8.5583   8.5797   8.6777   8.7093   8.7184
     8.7375   8.9002   8.9924   9.0681   9.1271   9.2207   9.2233   9.2357
     9.2515   9.3160   9.3380   9.3653   9.3784   9.4705   9.4736   9.5249
     9.6781   9.7951   9.8530   9.8662   9.9820  10.0178  10.0590  10.0955
    12.4008  12.4721  12.6043  12.6906  12.6936  12.7766  13.4490  13.4693
    13.4917  13.5019  13.8704  13.8730  13.8974  13.8984  13.9020  13.9039
    14.0055  14.0100  14.0662  14.1019  14.3164  14.3184  14.3249  14.4441
    14.4779  14.4838  14.8186  14.8357  15.0210  15.0850  15.1481  15.6012
    15.7369  15.9133  15.9568  16.6212  16.6940  16.7516  16.7733  16.9400

          k = 0.0000 0.3333 0.1649 ( 14829 PWs)   bands (ev):

   -46.0189 -46.0183 -46.0181 -46.0177 -46.0175 -46.0172 -46.0169 -46.0163
   -22.4582 -22.4564 -22.4548 -22.4534 -22.4156 -22.4145 -22.4133 -22.4123
   -22.4056 -22.4038 -22.4029 -22.4015 -22.3928 -22.3902 -22.3895 -22.3875
   -22.3652 -22.3632 -22.3626 -22.3609 -22.3507 -22.3496 -22.3491 -22.3481
   -14.4985 -14.4377 -14.4082 -14.3873 -14.3663 -14.3479 -14.3275 -14.2920
    -6.7361  -6.6954  -6.6567  -6.6170  -6.4292  -6.3984  -6.1467  -5.9416
    -5.9127  -5.9090  -5.9048  -5.8796  -5.8591  -5.8388  -5.8215  -5.8047
    -5.7907  -5.7756  -5.7514  -5.7449  -5.7354  -5.6907  -5.6767  -5.6299
    -0.2844  -0.2616  -0.0978   0.0787   0.0873   0.2012   0.2673   0.2793
     0.2960   0.3180   0.3437   0.3660   0.3822   0.3837   0.4196   0.4356
     0.4377   0.4897   0.5266   0.5486   0.5777   0.5960   0.6001   0.6159
     5.9049   5.9690   6.0551   6.1265   6.1736   6.2251   6.3929   6.4605
     6.4673   6.5019   6.5815   6.6193   6.6942   6.7708   6.7914   7.1263
     7.1774   7.3038   7.3376   7.4244   7.4333   7.4492   7.4583   7.4748
     7.4953   7.4978   7.5088   7.5642   7.6284   7.6557   7.6843   7.7329
     7.7469   7.7677   7.8288   7.8492   7.8801   7.9431   8.0178   8.3709
     8.3993   8.4075   8.5745   8.5768   8.6021   8.6090   8.7693   8.8038
     8.8952   8.9676   8.9809   9.0698   9.1441   9.1443   9.2443   9.2587
     9.2603   9.2857   9.2961   9.3641   9.3664   9.4150   9.4158   9.4918
     9.6441   9.7446   9.7794   9.8538   9.9525  10.0093  10.0137  10.0582
    12.4973  12.5791  12.6275  12.6829  12.7525  12.8667  13.4548  13.4834
    13.4874  13.5555  13.7830  13.8034  13.8171  13.8830  13.9103  13.9234
    13.9322  13.9968  14.0022  14.1145  14.2530  14.2705  14.3078  14.3984
    14.5940  14.6072  14.8170  15.0166  15.1397  15.1666  15.2342  15.7136
    15.8646  15.9579  15.9949  16.6488  16.6580  16.7594  16.8506  17.0741

          k = 0.0000 0.3333 0.3297 ( 14846 PWs)   bands (ev):

   -46.0187 -46.0182 -46.0181 -46.0177 -46.0176 -46.0171 -46.0170 -46.0165
   -22.4493 -22.4476 -22.4460 -22.4447 -22.4247 -22.4234 -22.4222 -22.4210
   -22.4051 -22.4034 -22.4033 -22.4020 -22.3922 -22.3907 -22.3891 -22.3880
   -22.3648 -22.3636 -22.3623 -22.3613 -22.3503 -22.3494 -22.3493 -22.3484
   -14.4798 -14.4276 -14.4228 -14.3816 -14.3748 -14.3403 -14.3362 -14.3039
    -6.6587  -6.6206  -6.5994  -6.5943  -6.4576  -6.3345  -6.2964  -6.0454
    -5.9476  -5.9240  -5.9062  -5.8713  -5.8471  -5.8452  -5.8338  -5.8097
    -5.7819  -5.7607  -5.7364  -5.7244  -5.7225  -5.7186  -5.6886  -5.6542
    -0.2389  -0.1530   0.0495   0.0835   0.0848   0.1588   0.1672   0.2094
     0.2654   0.2806   0.3282   0.3315   0.3735   0.4257   0.4577   0.4652
     0.4690   0.4691   0.4799   0.5087   0.5639   0.5714   0.5824   0.6044
     5.9971   6.0525   6.0655   6.1500   6.3104   6.5018   6.5601   6.5870
     6.6528   6.6570   6.6758   6.6913   6.7017   6.8101   6.9322   7.0047
     7.1754   7.2246   7.2342   7.2441   7.2701   7.3980   7.4030   7.4349
     7.5235   7.5465   7.5514   7.5564   7.6016   7.6164   7.6807   7.7373
     7.7424   7.7611   7.7735   7.7761   7.7903   8.0336   8.0546   8.0873
     8.1341   8.1938   8.3819   8.4207   8.6581   8.6619   8.8109   8.8603
     9.0003   9.0373   9.1076   9.1315   9.1469   9.1544   9.2093   9.2199
     9.2479   9.2785   9.2824   9.3319   9.3431   9.4151   9.4822   9.5019
     9.5540   9.5935   9.6842   9.7977   9.8048   9.8550  10.0078  10.0185
    12.5978  12.6614  12.8387  12.8562  12.9381  13.0962  13.4614  13.4660
    13.5408  13.5411  13.5531  13.5864  13.6972  13.7007  13.8383  13.9064
    13.9531  13.9719  14.0150  14.0932  14.1548  14.1589  14.2554  14.2871
    14.7337  14.8091  14.8522  15.1091  15.4273  15.4847  15.7639  15.9314
    16.0130  16.2347  16.2639  16.3783  16.7625  16.8183  16.8796  16.9423

          k = 0.0000 0.3333-0.4946 ( 14820 PWs)   bands (ev):

   -46.0185 -46.0185 -46.0179 -46.0179 -46.0173 -46.0173 -46.0167 -46.0167
   -22.4370 -22.4370 -22.4355 -22.4355 -22.4341 -22.4341 -22.4329 -22.4329
   -22.4043 -22.4042 -22.4026 -22.4026 -22.3914 -22.3914 -22.3886 -22.3885
   -22.3642 -22.3642 -22.3618 -22.3617 -22.3499 -22.3499 -22.3489 -22.3488
   -14.4539 -14.4538 -14.4024 -14.4023 -14.3577 -14.3576 -14.3202 -14.3201
    -6.5919  -6.5918  -6.5546  -6.5544  -6.4580  -6.4579  -6.1975  -6.1974
    -5.9264  -5.9263  -5.9158  -5.9157  -5.8379  -5.8378  -5.8233  -5.8232
    -5.7543  -5.7542  -5.7444  -5.7443  -5.7054  -5.7053  -5.6887  -5.6886
    -0.1166  -0.1166  -0.0001   0.0000   0.1239   0.1239   0.2872   0.2872
     0.2879   0.2880   0.2934   0.2935   0.2938   0.2938   0.4150   0.4151
     0.5157   0.5158   0.5409   0.5409   0.5417   0.5417   0.5688   0.5688
     6.0405   6.0406   6.1207   6.1208   6.4656   6.4656   6.7081   6.7082
     6.8026   6.8027   6.8756   6.8757   6.8897   6.8898   6.9405   6.9406
     7.0269   7.0271   7.1451   7.1453   7.2191   7.2192   7.3734   7.3735
     7.3763   7.3764   7.5427   7.5429   7.7122   7.7122   7.7136   7.7138
     7.7688   7.7689   7.8270   7.8270   7.8541   7.8542   7.9682   7.9683
     8.1958   8.1958   8.2248   8.2249   8.7020   8.7021   8.8026   8.8026
     8.9982   8.9982   9.1110   9.1110   9.1534   9.1535   9.1605   9.1606
     9.3493   9.3494   9.3800   9.3800   9.4376   9.4376   9.5521   9.5521
     9.5867   9.5867   9.6133   9.6133   9.6715   9.6715  10.0072  10.0073
    12.6314  12.6314  13.2010  13.2011  13.2094  13.2095  13.2243  13.2244
    13.4031  13.4031  13.4844  13.4844  13.6667  13.6667  13.8933  13.8933
    13.9412  13.9412  14.0392  14.0393  14.1365  14.1366  14.2112  14.2113
    14.7892  14.7893  15.0272  15.0272  15.7825  15.7826  15.9529  15.9530
    16.3825  16.3827  16.4293  16.4295  16.7019  16.7020  16.7896  16.7898

          k = 0.0000-0.5000 0.0000 ( 14814 PWs)   bands (ev):

   -46.0186 -46.0186 -46.0177 -46.0177 -46.0175 -46.0175 -46.0165 -46.0165
   -22.4606 -22.4606 -22.4573 -22.4573 -22.4118 -22.4118 -22.4096 -22.4096
   -22.4049 -22.4049 -22.4020 -22.4020 -22.3792 -22.3792 -22.3765 -22.3765
   -22.3762 -22.3762 -22.3741 -22.3741 -22.3503 -22.3503 -22.3484 -22.3484
   -14.4745 -14.4745 -14.3810 -14.3810 -14.3721 -14.3721 -14.3053 -14.3053
    -6.6875  -6.6875  -6.6005  -6.6005  -6.5334  -6.5334  -5.9286  -5.9286
    -5.9181  -5.9181  -5.8699  -5.8699  -5.8383  -5.8383  -5.8362  -5.8362
    -5.7906  -5.7906  -5.7747  -5.7746  -5.7177  -5.7177  -5.6803  -5.6803
    -0.1297  -0.1297  -0.0803  -0.0803   0.0514   0.0515   0.3232   0.3232
     0.3258   0.3258   0.3629   0.3629   0.3776   0.3776   0.4410   0.4410
     0.4944   0.4944   0.5004   0.5004   0.5566   0.5566   0.5606   0.5606
     5.8964   5.8964   6.0897   6.0897   6.1327   6.1327   6.4072   6.4072
     6.6620   6.6620   6.7785   6.7786   6.9922   6.9922   7.0338   7.0339
     7.0524   7.0525   7.1226   7.1226   7.2108   7.2108   7.4346   7.4347
     7.4731   7.4732   7.6893   7.6893   7.7188   7.7188   7.7204   7.7204
     7.7326   7.7326   7.7813   7.7813   7.8332   7.8332   8.3108   8.3108
     8.5295   8.5295   8.6275   8.6275   8.7082   8.7082   8.7540   8.7540
     8.8095   8.8095   8.9685   8.9685   8.9977   8.9977   9.1465   9.1465
     9.1632   9.1632   9.4946   9.4946   9.6194   9.6194   9.6227   9.6227
     9.6403   9.6403   9.7340   9.7340   9.7595   9.7595  10.0758  10.0758
    12.4378  12.4378  13.0480  13.0480  13.0740  13.0740  13.1086  13.1087
    13.1286  13.1286  13.8967  13.8967  13.8987  13.8987  13.9414  13.9414
    13.9697  13.9697  14.1489  14.1489  14.1590  14.1590  14.3794  14.3794
    14.4846  14.4846  14.9840  14.9840  15.0354  15.0354  15.5517  15.5518
    16.1495  16.1495  16.2894  16.2894  16.5084  16.5084  17.1555  17.1555

          k = 0.0000-0.5000 0.1649 ( 14828 PWs)   bands (ev):

   -46.0186 -46.0186 -46.0178 -46.0178 -46.0175 -46.0175 -46.0166 -46.0166
   -22.4573 -22.4573 -22.4541 -22.4541 -22.4151 -22.4151 -22.4128 -22.4128
   -22.4047 -22.4047 -22.4021 -22.4021 -22.3790 -22.3790 -22.3767 -22.3767
   -22.3761 -22.3761 -22.3742 -22.3742 -22.3502 -22.3502 -22.3486 -22.3486
   -14.4683 -14.4683 -14.3874 -14.3874 -14.3677 -14.3677 -14.3098 -14.3098
    -6.6662  -6.6662  -6.5666  -6.5666  -6.5294  -6.5294  -6.0224  -6.0223
    -5.9211  -5.9211  -5.8653  -5.8653  -5.8295  -5.8295  -5.8212  -5.8211
    -5.7847  -5.7847  -5.7806  -5.7806  -5.7145  -5.7145  -5.6821  -5.6821
    -0.1079  -0.1079  -0.0945  -0.0945   0.1367   0.1367   0.2505   0.2505
     0.3092   0.3092   0.3339   0.3339   0.3890   0.3890   0.3996   0.3996
     0.5201   0.5201   0.5226   0.5226   0.5439   0.5440   0.5688   0.5688
     5.9543   5.9543   6.1262   6.1262   6.1843   6.1843   6.4640   6.4640
     6.7188   6.7188   6.7939   6.7939   6.9713   6.9713   7.0183   7.0183
     7.0383   7.0383   7.1552   7.1552   7.1919   7.1919   7.4409   7.4409
     7.5117   7.5117   7.6215   7.6216   7.7148   7.7148   7.7285   7.7286
     7.7370   7.7370   7.7847   7.7847   7.8024   7.8024   8.1299   8.1300
     8.4563   8.4563   8.4916   8.4916   8.7710   8.7710   8.8065   8.8066
     8.9001   8.9001   8.9972   8.9972   9.0263   9.0263   9.1347   9.1348
     9.1669   9.1669   9.4512   9.4512   9.5751   9.5751   9.5821   9.5821
     9.6380   9.6380   9.7222   9.7222   9.7479   9.7479  10.0225  10.0225
    12.5460  12.5460  13.0533  13.0534  13.1024  13.1024  13.1041  13.1041
    13.1936  13.1936  13.8104  13.8104  13.8588  13.8589  13.9142  13.9142
    13.9817  13.9817  14.0766  14.0766  14.1481  14.1482  14.3345  14.3345
    14.6072  14.6072  15.0315  15.0315  15.1857  15.1857  15.6315  15.6315
    16.2333  16.2334  16.4218  16.4218  16.5367  16.5367  17.1031  17.1031

          k = 0.0000-0.5000 0.3297 ( 14820 PWs)   bands (ev):

   -46.0184 -46.0184 -46.0179 -46.0179 -46.0173 -46.0173 -46.0168 -46.0168
   -22.4484 -22.4484 -22.4454 -22.4454 -22.4240 -22.4240 -22.4216 -22.4216
   -22.4042 -22.4042 -22.4027 -22.4027 -22.3785 -22.3785 -22.3772 -22.3772
   -22.3757 -22.3757 -22.3746 -22.3746 -22.3498 -22.3498 -22.3489 -22.3489
   -14.4515 -14.4515 -14.4048 -14.4048 -14.3556 -14.3556 -14.3222 -14.3222
    -6.6130  -6.6130  -6.5294  -6.5294  -6.4709  -6.4709  -6.1714  -6.1714
    -5.9303  -5.9303  -5.9102  -5.9102  -5.8127  -5.8126  -5.7933  -5.7932
    -5.7893  -5.7892  -5.7842  -5.7842  -5.7062  -5.7062  -5.6876  -5.6876
    -0.0996  -0.0996   0.0039   0.0039   0.1085   0.1085   0.2830   0.2831
     0.2887   0.2887   0.2889   0.2889   0.2930   0.2930   0.4205   0.4205
     0.5099   0.5099   0.5371   0.5371   0.5540   0.5540   0.5600   0.5600
     6.0484   6.0484   6.1142   6.1142   6.4300   6.4300   6.6844   6.6844
     6.8300   6.8300   6.8706   6.8706   6.9125   6.9126   6.9243   6.9243
     7.0523   7.0524   7.1545   7.1545   7.2766   7.2766   7.3691   7.3691
     7.3803   7.3803   7.5960   7.5960   7.6979   7.6979   7.7303   7.7303
     7.7383   7.7383   7.8233   7.8233   7.8305   7.8305   7.8829   7.8829
     8.1820   8.1820   8.2719   8.2719   8.7102   8.7103   8.8072   8.8072
     9.0762   9.0762   9.0795   9.0795   9.1364   9.1364   9.1884   9.1884
     9.2195   9.2195   9.3394   9.3394   9.4138   9.4138   9.6012   9.6012
     9.6673   9.6673   9.6924   9.6924   9.7266   9.7266   9.8636   9.8636
    12.8205  12.8205  13.0779  13.0779  13.0843  13.0843  13.2087  13.2087
    13.3802  13.3803  13.5651  13.5651  13.6533  13.6533  13.8841  13.8841
    13.9772  13.9772  14.0221  14.0221  14.1113  14.1113  14.2210  14.2210
    14.8223  14.8223  15.0077  15.0077  15.6899  15.6899  15.9035  15.9035
    16.4636  16.4637  16.5205  16.5205  16.7712  16.7712  16.8002  16.8002

          k = 0.0000-0.5000-0.4946 ( 14836 PWs)   bands (ev):

   -46.0182 -46.0182 -46.0182 -46.0182 -46.0170 -46.0170 -46.0170 -46.0170
   -22.4363 -22.4363 -22.4362 -22.4362 -22.4335 -22.4335 -22.4335 -22.4335
   -22.4034 -22.4034 -22.4034 -22.4034 -22.3779 -22.3779 -22.3779 -22.3779
   -22.3752 -22.3752 -22.3751 -22.3751 -22.3494 -22.3494 -22.3494 -22.3494
   -14.4283 -14.4283 -14.4282 -14.4282 -14.3390 -14.3390 -14.3389 -14.3389
    -6.5573  -6.5573  -6.5571  -6.5571  -6.3307  -6.3307  -6.3306  -6.3306
    -5.9342  -5.9342  -5.9341  -5.9341  -5.7957  -5.7956  -5.7956  -5.7955
    -5.7892  -5.7892  -5.7891  -5.7891  -5.6962  -5.6962  -5.6961  -5.6961
    -0.0223  -0.0223  -0.0223  -0.0223   0.1433   0.1433   0.1434   0.1434
     0.2743   0.2743   0.2743   0.2743   0.4362   0.4362   0.4362   0.4362
     0.4646   0.4646   0.4646   0.4647   0.5717   0.5718   0.5718   0.5718
     6.0949   6.0949   6.0950   6.0950   6.7155   6.7155   6.7156   6.7156
     6.8739   6.8739   6.8739   6.8740   7.0113   7.0113   7.0114   7.0114
     7.0847   7.0847   7.0848   7.0848   7.1617   7.1618   7.1619   7.1619
     7.5207   7.5207   7.5208   7.5208   7.6626   7.6626   7.6627   7.6627
     7.7262   7.7262   7.7263   7.7263   7.9521   7.9521   7.9521   7.9522
     8.0526   8.0526   8.0527   8.0527   8.7104   8.7104   8.7104   8.7104
     9.1599   9.1599   9.1599   9.1599   9.2027   9.2027   9.2027   9.2027
     9.2376   9.2376   9.2376   9.2376   9.5488   9.5488   9.5488   9.5489
     9.6593   9.6593   9.6593   9.6593   9.7249   9.7249   9.7250   9.7251
    13.0418  13.0418  13.0418  13.0419  13.2361  13.2361  13.2362  13.2362
    13.4046  13.4046  13.4046  13.4046  13.6301  13.6301  13.6302  13.6302
    14.0565  14.0565  14.0566  14.0566  14.0976  14.0976  14.0976  14.0976
    14.9523  14.9523  14.9523  14.9523  16.2338  16.2338  16.2339  16.2339
    16.3409  16.3409  16.3410  16.3410  16.7966  16.7966  16.7967  16.7968

          k = 0.1667 0.1667 0.0000 ( 14879 PWs)   bands (ev):

   -46.0191 -46.0181 -46.0181 -46.0181 -46.0171 -46.0171 -46.0171 -46.0162
   -22.4619 -22.4587 -22.4587 -22.4563 -22.4126 -22.4107 -22.4107 -22.4089
   -22.4028 -22.4028 -22.3998 -22.3996 -22.3996 -22.3996 -22.3973 -22.3972
   -22.3551 -22.3548 -22.3530 -22.3530 -22.3530 -22.3529 -22.3512 -22.3512
   -14.5198 -14.4145 -14.4145 -14.4104 -14.3431 -14.3410 -14.3410 -14.2794
    -6.7971  -6.7971  -6.7338  -6.6060  -6.3858  -6.2192  -6.2192  -5.9456
    -5.9341  -5.9341  -5.8894  -5.8894  -5.8609  -5.8181  -5.8055  -5.8049
    -5.7836  -5.7836  -5.7767  -5.7444  -5.7178  -5.6402  -5.6106  -5.6106
    -0.4133  -0.3378  -0.2919   0.1866   0.1866   0.2200   0.2653   0.2653
     0.2853   0.2886   0.3009   0.3665   0.3775   0.4252   0.4252   0.4604
     0.4605   0.5025   0.5787   0.5787   0.6382   0.6442   0.6442   0.6708
     5.8146   5.9671   5.9671   6.0108   6.1415   6.2443   6.2443   6.2946
     6.3265   6.3265   6.4470   6.4978   6.4978   6.5303   6.5410   7.3402
     7.4164   7.4164   7.4225   7.4225   7.4490   7.4749   7.4859   7.4859
     7.5262   7.5750   7.5750   7.5781   7.6170   7.7146   7.7626   7.7974
     7.8181   7.8181   7.8536   7.8623   7.9387   8.0312   8.0312   8.3923
     8.3923   8.5225   8.5383   8.5383   8.6625   8.6972   8.7536   8.8342
     8.8345   8.8345   9.0487   9.0752   9.0877   9.0877   9.2141   9.2642
     9.3009   9.3009   9.3623   9.3623   9.4342   9.4342   9.4366   9.4712
     9.8676   9.8898  10.0022  10.0022  10.0034  10.0617  10.1172  10.1210
    12.3209  12.4423  12.4731  12.4800  12.5529  12.5529  13.7343  13.7343
    13.7629  13.7730  13.7730  13.8018  13.8019  13.8264  13.8652  13.8884
    13.9239  13.9239  14.1707  14.2151  14.2151  14.3963  14.4309  14.4393
    14.6024  14.6024  14.6154  14.6920  14.7036  15.0191  15.3508  15.4178
    15.4178  15.4858  16.2280  16.2280  16.5585  16.8605  17.0248  17.1769

          k = 0.1667 0.1667 0.1649 ( 14837 PWs)   bands (ev):

   -46.0190 -46.0182 -46.0180 -46.0180 -46.0172 -46.0172 -46.0170 -46.0162
   -22.4586 -22.4555 -22.4555 -22.4531 -22.4159 -22.4139 -22.4139 -22.4121
   -22.4026 -22.4026 -22.3998 -22.3998 -22.3997 -22.3995 -22.3975 -22.3974
   -22.3549 -22.3547 -22.3531 -22.3530 -22.3529 -22.3529 -22.3513 -22.3513
   -14.5126 -14.4179 -14.4097 -14.4096 -14.3460 -14.3460 -14.3389 -14.2837
    -6.7645  -6.7645  -6.7143  -6.5990  -6.3524  -6.2706  -6.2706  -5.9506
    -5.9208  -5.9208  -5.8860  -5.8860  -5.8614  -5.8581  -5.8210  -5.7951
    -5.7718  -5.7712  -5.7711  -5.7695  -5.7066  -5.6520  -5.6238  -5.6238
    -0.3729  -0.3407  -0.1965   0.1751   0.2037   0.2037   0.2260   0.2720
     0.2721   0.2902   0.2914   0.3713   0.3828   0.3829   0.4120   0.4744
     0.4782   0.4783   0.5819   0.5843   0.5843   0.6312   0.6312   0.6660
     5.8709   6.0127   6.0307   6.0307   6.2459   6.3044   6.3044   6.3123
     6.3123   6.3904   6.5102   6.5310   6.5411   6.5457   6.5457   7.3603
     7.3757   7.3757   7.4266   7.4266   7.4703   7.4703   7.4807   7.5020
     7.5219   7.5554   7.6207   7.6207   7.6254   7.6511   7.6511   7.7004
     7.7567   7.7735   7.8064   7.8353   7.9678   7.9693   7.9693   8.3389
     8.4197   8.4197   8.5967   8.6204   8.7318   8.7748   8.7748   8.8001
     8.8001   8.8320   9.0735   9.0735   9.0844   9.1177   9.2084   9.2084
     9.2548   9.3118   9.3505   9.3505   9.3666   9.3666   9.3983   9.4611
     9.8117   9.8316   9.9290   9.9675   9.9675   9.9741  10.1220  10.1348
    12.3360  12.4635  12.5457  12.5715  12.6560  12.6560  13.7422  13.7422
    13.7722  13.7819  13.7819  13.7939  13.7939  13.7974  13.8060  13.8434
    13.8434  13.8626  14.1642  14.1643  14.1840  14.3721  14.3807  14.3978
    14.6958  14.7011  14.7511  14.7511  14.8039  15.2339  15.4125  15.4125
    15.4732  15.6127  16.2932  16.2932  16.4664  16.8822  17.1221  17.1652

          k = 0.1667 0.1667 0.3297 ( 14814 PWs)   bands (ev):

   -46.0188 -46.0184 -46.0178 -46.0178 -46.0174 -46.0174 -46.0168 -46.0164
   -22.4497 -22.4467 -22.4467 -22.4444 -22.4250 -22.4227 -22.4227 -22.4208
   -22.4020 -22.4020 -22.4004 -22.4004 -22.3992 -22.3990 -22.3979 -22.3978
   -22.3545 -22.3543 -22.3535 -22.3534 -22.3525 -22.3525 -22.3516 -22.3516
   -14.4929 -14.4382 -14.3964 -14.3964 -14.3597 -14.3596 -14.3273 -14.2955
    -6.6728  -6.6728  -6.6658  -6.5929  -6.3934  -6.3934  -6.2591  -5.9822
    -5.9492  -5.8955  -5.8955  -5.8794  -5.8794  -5.8503  -5.8398  -5.8289
    -5.7662  -5.7504  -5.7423  -5.7423  -5.7078  -5.6836  -5.6589  -5.6589
    -0.2660  -0.2613  -0.0113   0.0546   0.0691   0.2369   0.2369   0.3011
     0.3081   0.3108   0.3108   0.3228   0.3229   0.3542   0.4112   0.4268
     0.4580   0.4580   0.4954   0.5957   0.5957   0.6120   0.6120   0.6384
     5.9638   6.0154   6.1460   6.1460   6.2762   6.2762   6.4886   6.4886
     6.5324   6.5330   6.5381   6.6464   6.7285   6.7285   6.7487   7.1244
     7.1244   7.3184   7.3373   7.3600   7.3600   7.4335   7.4335   7.4376
     7.4692   7.4692   7.5149   7.5667   7.6225   7.7011   7.7351   7.7396
     7.7396   7.7505   7.7788   7.9095   7.9281   7.9618   7.9618   8.0498
     8.3898   8.4217   8.4875   8.4875   8.6622   8.6623   8.8281   8.8540
     8.9488   8.9488   9.0641   9.0662   9.0662   9.1612   9.1612   9.1799
     9.2527   9.2920   9.2920   9.3353   9.3353   9.3770   9.4261   9.5308
     9.6852   9.7285   9.7422   9.7892   9.8495   9.8495  10.1251  10.1376
    12.3677  12.4368  12.8285  12.8294  12.9224  12.9224  13.5178  13.5432
    13.5927  13.5927  13.7562  13.7562  13.7914  13.7914  13.8230  13.8230
    13.9218  13.9624  14.0389  14.0389  14.2257  14.2465  14.2541  14.3412
    14.6968  14.7012  15.0524  15.0524  15.2529  15.3791  15.3791  15.7638
    15.8055  15.9765  16.1857  16.5216  16.5216  16.7439  16.7837  17.1464

          k = 0.1667 0.1667-0.4946 ( 14824 PWs)   bands (ev):

   -46.0186 -46.0186 -46.0176 -46.0176 -46.0176 -46.0176 -46.0166 -46.0166
   -22.4374 -22.4373 -22.4348 -22.4348 -22.4348 -22.4348 -22.4326 -22.4326
   -22.4012 -22.4012 -22.4012 -22.4012 -22.3986 -22.3986 -22.3984 -22.3984
   -22.3541 -22.3540 -22.3539 -22.3539 -22.3521 -22.3521 -22.3521 -22.3521
   -14.4658 -14.4657 -14.3782 -14.3781 -14.3781 -14.3780 -14.3115 -14.3114
    -6.6154  -6.6153  -6.5399  -6.5399  -6.5398  -6.5398  -6.1259  -6.1258
    -5.9116  -5.9115  -5.8795  -5.8795  -5.8795  -5.8794  -5.8397  -5.8396
    -5.7263  -5.7262  -5.7256  -5.7255  -5.7032  -5.7032  -5.7031  -5.7031
    -0.1157  -0.1157  -0.1056  -0.1055   0.2123   0.2123   0.2726   0.2726
     0.2727   0.2727   0.3310   0.3311   0.3457   0.3457   0.3872   0.3872
     0.3873   0.3873   0.5783   0.5783   0.6043   0.6043   0.6043   0.6043
     6.0077   6.0078   6.2247   6.2247   6.2248   6.2248   6.5356   6.5357
     6.7737   6.7738   6.7738   6.7738   6.9317   6.9318   6.9663   6.9663
     7.0569   7.0569   7.0570   7.0570   7.2123   7.2124   7.4437   7.4437
     7.4438   7.4438   7.5666   7.5667   7.6805   7.6806   7.6908   7.6908
     7.7514   7.7514   7.8793   7.8793   7.8794   7.8794   8.1743   8.1744
     8.1878   8.1879   8.5613   8.5613   8.5613   8.5614   8.9579   8.9580
     8.9610   8.9611   8.9901   8.9901   8.9902   8.9902   9.1717   9.1717
     9.1718   9.1718   9.4746   9.4746   9.5586   9.5586   9.5694   9.5694
     9.6305   9.6305   9.6306   9.6306   9.6306   9.6307  10.1316  10.1318
    12.4009  12.4010  13.1740  13.1741  13.1910  13.1911  13.2621  13.2621
    13.2622  13.2622  13.7726  13.7726  13.7727  13.7727  13.9087  13.9087
    13.9087  13.9087  14.0849  14.0850  14.1015  14.1015  14.2856  14.2856
    14.6981  14.6981  15.2766  15.2766  15.2766  15.2766  15.7567  15.7569
    16.2638  16.2640  16.3707  16.3709  16.5227  16.5228  16.9299  16.9300

          k = 0.1667 0.3333 0.0000 ( 14830 PWs)   bands (ev):

   -46.0189 -46.0183 -46.0179 -46.0179 -46.0173 -46.0173 -46.0169 -46.0163
   -22.4613 -22.4594 -22.4582 -22.4568 -22.4122 -22.4111 -22.4103 -22.4093
   -22.4021 -22.4004 -22.3991 -22.3977 -22.3927 -22.3899 -22.3898 -22.3875
   -22.3651 -22.3629 -22.3629 -22.3609 -22.3545 -22.3534 -22.3526 -22.3515
   -14.4979 -14.4372 -14.3996 -14.3959 -14.3584 -14.3559 -14.3281 -14.2926
    -6.7390  -6.7125  -6.6378  -6.6225  -6.4742  -6.3461  -6.1206  -5.9272
    -5.9072  -5.8969  -5.8942  -5.8667  -5.8452  -5.8435  -5.8233  -5.8151
    -5.8024  -5.7828  -5.7753  -5.7529  -5.7515  -5.6925  -5.6675  -5.6514
    -0.3155  -0.2100  -0.1142   0.0394   0.1336   0.2073   0.2426   0.2975
     0.3085   0.3321   0.3446   0.3650   0.3727   0.3785   0.3851   0.4232
     0.4451   0.4934   0.5402   0.5764   0.5776   0.5795   0.5995   0.5996
     5.9028   5.9647   6.0494   6.1190   6.1319   6.2823   6.3829   6.4349
     6.4697   6.5204   6.6096   6.6156   6.7162   6.7638   6.7685   7.0435
     7.2487   7.3271   7.3833   7.4107   7.4212   7.4520   7.4625   7.4807
     7.4817   7.4855   7.5079   7.5904   7.6173   7.6359   7.6609   7.7404
     7.7650   7.7938   7.8133   7.8758   7.9818   8.0050   8.0207   8.1370
     8.4420   8.5001   8.5405   8.5571   8.5696   8.6242   8.7975   8.7977
     8.8312   8.9680   8.9744   8.9956   9.1322   9.1397   9.1587   9.2400
     9.2695   9.2848   9.2943   9.3086   9.4291   9.4463   9.4812   9.5227
     9.7358   9.7841   9.8420   9.8634   9.9117   9.9992  10.0111  10.0427
    12.4494  12.5283  12.6677  12.7109  12.7690  12.7825  13.4572  13.4797
    13.4906  13.5405  13.7660  13.7930  13.7981  13.8709  13.9012  13.9147
    13.9182  14.0045  14.0304  14.0866  14.2541  14.2642  14.3034  14.3912
    14.6194  14.6332  14.8467  15.0127  15.0316  15.1525  15.3757  15.7396
    15.8435  15.9561  16.0062  16.5412  16.7854  16.7855  16.8869  17.0510

          k = 0.1667 0.3333 0.1649 ( 14841 PWs)   bands (ev):

   -46.0188 -46.0182 -46.0180 -46.0178 -46.0174 -46.0172 -46.0170 -46.0164
   -22.4580 -22.4562 -22.4550 -22.4536 -22.4155 -22.4143 -22.4135 -22.4124
   -22.4019 -22.4002 -22.3993 -22.3979 -22.3926 -22.3900 -22.3897 -22.3877
   -22.3650 -22.3630 -22.3628 -22.3611 -22.3544 -22.3533 -22.3527 -22.3517
   -14.4913 -14.4318 -14.4029 -14.3949 -14.3614 -14.3541 -14.3330 -14.2971
    -6.7104  -6.6797  -6.6237  -6.6086  -6.4409  -6.3645  -6.1770  -5.9340
    -5.9312  -5.9058  -5.8958  -5.8893  -5.8622  -5.8433  -5.8173  -5.8064
    -5.7962  -5.7771  -5.7680  -5.7483  -5.7459  -5.7030  -5.6755  -5.6597
    -0.2823  -0.2253  -0.0173   0.0669   0.1160   0.1965   0.2133   0.2946
     0.2955   0.3053   0.3104   0.3120   0.3409   0.3622   0.4062   0.4253
     0.4542   0.4738   0.4953   0.5882   0.5918   0.6078   0.6199   0.6275
     5.9685   6.0298   6.1289   6.1308   6.2180   6.2706   6.4379   6.4730
     6.5136   6.5746   6.5931   6.6418   6.7202   6.7662   6.7988   7.0766
     7.1789   7.2982   7.3597   7.3848   7.4353   7.4413   7.4558   7.4979
     7.4997   7.5048   7.5177   7.5591   7.6472   7.6626   7.6691   7.7112
     7.7398   7.7705   7.7752   7.8761   7.8961   7.9004   8.0084   8.0620
     8.3614   8.3973   8.4649   8.5400   8.5466   8.7333   8.7660   8.8741
     8.8929   9.0035   9.0146   9.0500   9.0639   9.0967   9.1990   9.2503
     9.2627   9.2720   9.3139   9.3467   9.3537   9.4212   9.4537   9.4968
     9.6896   9.7305   9.7696   9.8467   9.8906   9.9685   9.9941  10.0147
    12.5429  12.6299  12.6916  12.7699  12.7736  12.8560  13.4649  13.4945
    13.5330  13.5449  13.7795  13.7797  13.8069  13.8129  13.8276  13.8301
    13.8946  13.9302  14.0204  14.0440  14.2117  14.2253  14.2483  14.3381
    14.7631  14.7777  15.0144  15.0251  15.2009  15.2449  15.3698  15.8432
    15.9556  15.9648  16.0677  16.5682  16.6909  16.8505  16.9387  17.1594

          k = 0.1667 0.3333 0.3297 ( 14825 PWs)   bands (ev):

   -46.0186 -46.0182 -46.0181 -46.0176 -46.0176 -46.0171 -46.0170 -46.0166
   -22.4490 -22.4474 -22.4463 -22.4449 -22.4245 -22.4232 -22.4223 -22.4212
   -22.4014 -22.3998 -22.3997 -22.3984 -22.3920 -22.3905 -22.3893 -22.3881
   -22.3646 -22.3634 -22.3624 -22.3614 -22.3540 -22.3531 -22.3529 -22.3520
   -14.4729 -14.4219 -14.4172 -14.3820 -14.3765 -14.3463 -14.3421 -14.3092
    -6.6319  -6.5921  -6.5873  -6.5807  -6.4263  -6.3475  -6.3046  -6.0643
    -5.9430  -5.9151  -5.8965  -5.8722  -5.8620  -5.8526  -5.8359  -5.8096
    -5.7837  -5.7578  -5.7559  -5.7393  -5.7304  -5.7268  -5.6974  -5.6818
    -0.2080  -0.1591   0.0680   0.1026   0.1426   0.1464   0.1621   0.2145
     0.2293   0.2760   0.2954   0.3062   0.3176   0.3435   0.3668   0.3848
     0.3965   0.5100   0.5158   0.5752   0.6226   0.6256   0.6444   0.6540
     6.0774   6.1296   6.1408   6.2419   6.3005   6.4843   6.5330   6.6133
     6.6188   6.6709   6.6867   6.7670   6.7737   6.7987   6.9335   7.0048
     7.1586   7.1797   7.1970   7.2005   7.3607   7.4333   7.4383   7.4713
     7.4785   7.5101   7.5361   7.5417   7.6528   7.6879   7.6887   7.7137
     7.7285   7.7394   7.7536   7.7551   7.7910   7.9757   8.0263   8.0272
     8.0745   8.1446   8.3014   8.3528   8.5396   8.6109   8.7234   8.8944
     9.0077   9.0593   9.0725   9.1520   9.1571   9.1642   9.2309   9.2385
     9.2483   9.3187   9.3347   9.3374   9.3925   9.4574   9.4633   9.4712
     9.5730   9.5972   9.6610   9.7649   9.7839   9.8326   9.9839   9.9851
    12.6664  12.7499  12.8656  12.8959  12.9549  13.0861  13.4834  13.4962
    13.5339  13.5555  13.5704  13.6087  13.6843  13.6901  13.8110  13.8551
    13.8594  13.8876  13.9209  14.0775  14.0854  14.0855  14.1862  14.2217
    14.9565  15.0136  15.0522  15.3411  15.4355  15.4841  15.7760  15.9283
    16.1254  16.2933  16.3171  16.4049  16.6840  16.8627  16.9618  17.0289

          k = 0.1667 0.3333-0.4946 ( 14804 PWs)   bands (ev):

   -46.0184 -46.0184 -46.0178 -46.0178 -46.0174 -46.0174 -46.0168 -46.0168
   -22.4368 -22.4368 -22.4353 -22.4353 -22.4343 -22.4343 -22.4331 -22.4331
   -22.4006 -22.4006 -22.3991 -22.3990 -22.3913 -22.3912 -22.3887 -22.3887
   -22.3640 -22.3640 -22.3619 -22.3619 -22.3536 -22.3535 -22.3525 -22.3524
   -14.4476 -14.4475 -14.3970 -14.3969 -14.3642 -14.3642 -14.3258 -14.3257
    -6.5705  -6.5704  -6.5260  -6.5258  -6.4532  -6.4531  -6.2129  -6.2127
    -5.9255  -5.9254  -5.9060  -5.9059  -5.8487  -5.8486  -5.8235  -5.8234
    -5.7603  -5.7602  -5.7470  -5.7469  -5.7232  -5.7231  -5.7088  -5.7087
    -0.0894  -0.0894  -0.0175  -0.0175   0.1361   0.1362   0.2544   0.2545
     0.2580   0.2580   0.2805   0.2805   0.3438   0.3438   0.3548   0.3548
     0.3614   0.3615   0.5926   0.5926   0.6350   0.6350   0.6450   0.6450
     6.1222   6.1223   6.2034   6.2035   6.4410   6.4410   6.7113   6.7114
     6.8046   6.8046   6.8352   6.8353   6.8897   6.8898   6.9303   6.9303
     7.0857   7.0858   7.2066   7.2067   7.2104   7.2105   7.3433   7.3434
     7.4212   7.4213   7.5743   7.5744   7.6195   7.6196   7.7140   7.7141
     7.7755   7.7755   7.8047   7.8047   7.9090   7.9090   7.9099   7.9100
     8.1157   8.1158   8.1768   8.1768   8.5267   8.5267   8.7494   8.7495
     9.0594   9.0595   9.1394   9.1394   9.1597   9.1597   9.2500   9.2500
     9.3760   9.3760   9.3932   9.3933   9.4489   9.4490   9.5497   9.5498
     9.5814   9.5814   9.5921   9.5921   9.6485   9.6485   9.9778   9.9780
    12.7136  12.7137  13.2048  13.2049  13.2373  13.2373  13.2457  13.2457
    13.3905  13.3906  13.5133  13.5134  13.6839  13.6840  13.8488  13.8488
    13.8769  13.8769  13.9530  13.9531  14.0522  14.0523  14.1440  14.1441
    15.0028  15.0028  15.2570  15.2570  15.7832  15.7832  15.9686  15.9687
    16.4005  16.4007  16.5248  16.5249  16.7017  16.7018  16.8515  16.8519

          k = 0.1667-0.5000 0.0000 ( 14820 PWs)   bands (ev):

   -46.0186 -46.0186 -46.0176 -46.0176 -46.0176 -46.0176 -46.0166 -46.0166
   -22.4603 -22.4603 -22.4575 -22.4575 -22.4116 -22.4116 -22.4097 -22.4097
   -22.4013 -22.4013 -22.3984 -22.3984 -22.3790 -22.3790 -22.3764 -22.3764
   -22.3764 -22.3764 -22.3742 -22.3742 -22.3540 -22.3540 -22.3521 -22.3521
   -14.4678 -14.4678 -14.3791 -14.3791 -14.3760 -14.3760 -14.3104 -14.3104
    -6.6706  -6.6706  -6.5946  -6.5946  -6.4988  -6.4988  -5.9817  -5.9817
    -5.9087  -5.9087  -5.8694  -5.8694  -5.8393  -5.8393  -5.8381  -5.8381
    -5.7857  -5.7857  -5.7826  -5.7826  -5.7102  -5.7102  -5.7046  -5.7046
    -0.1483  -0.1483  -0.0405  -0.0405   0.1263   0.1263   0.2484   0.2484
     0.2956   0.2956   0.3359   0.3359   0.3764   0.3764   0.4583   0.4583
     0.4735   0.4735   0.5290   0.5290   0.5497   0.5497   0.5655   0.5655
     5.9498   5.9498   6.0916   6.0916   6.2217   6.2217   6.4663   6.4663
     6.6693   6.6694   6.8509   6.8510   6.9579   6.9579   7.0139   7.0140
     7.0592   7.0593   7.1228   7.1228   7.2019   7.2019   7.4682   7.4682
     7.4793   7.4794   7.6389   7.6389   7.6917   7.6917   7.7192   7.7192
     7.7623   7.7623   7.7915   7.7915   7.8531   7.8531   8.2377   8.2377
     8.3313   8.3313   8.5133   8.5133   8.7380   8.7380   8.8061   8.8061
     8.8813   8.8813   8.9116   8.9116   8.9451   8.9451   9.1749   9.1749
     9.2126   9.2127   9.5126   9.5126   9.6099   9.6099   9.6246   9.6246
     9.6486   9.6486   9.6751   9.6752   9.7702   9.7702  10.0244  10.0244
    12.4928  12.4928  13.0662  13.0662  13.0914  13.0914  13.1194  13.1194
    13.1717  13.1717  13.7864  13.7864  13.8839  13.8839  13.8981  13.8981
    13.9609  13.9609  14.0764  14.0764  14.1409  14.1410  14.3274  14.3274
    14.6291  14.6292  14.9928  14.9928  15.2557  15.2558  15.6348  15.6348
    16.2706  16.2706  16.3877  16.3877  16.5406  16.5406  17.0157  17.0158

          k = 0.1667-0.5000 0.1649 ( 14830 PWs)   bands (ev):

   -46.0185 -46.0185 -46.0177 -46.0177 -46.0175 -46.0175 -46.0167 -46.0167
   -22.4571 -22.4571 -22.4543 -22.4543 -22.4149 -22.4149 -22.4130 -22.4130
   -22.4011 -22.4011 -22.3986 -22.3986 -22.3788 -22.3788 -22.3765 -22.3765
   -22.3763 -22.3763 -22.3744 -22.3744 -22.3538 -22.3538 -22.3522 -22.3522
   -14.4618 -14.4617 -14.3823 -14.3823 -14.3746 -14.3746 -14.3151 -14.3151
    -6.6485  -6.6485  -6.5614  -6.5614  -6.4960  -6.4960  -6.0497  -6.0497
    -5.9119  -5.9119  -5.8636  -5.8636  -5.8409  -5.8409  -5.8318  -5.8318
    -5.7904  -5.7904  -5.7798  -5.7798  -5.7108  -5.7108  -5.7068  -5.7068
    -0.1200  -0.1200  -0.0620  -0.0619   0.2071   0.2071   0.2440   0.2440
     0.2482   0.2482   0.3310   0.3310   0.3424   0.3424   0.3827   0.3827
     0.4209   0.4210   0.5716   0.5716   0.5952   0.5952   0.6024   0.6024
     6.0173   6.0173   6.1828   6.1828   6.2146   6.2146   6.5060   6.5060
     6.7168   6.7169   6.8473   6.8473   6.9400   6.9400   6.9759   6.9759
     7.0710   7.0711   7.1533   7.1533   7.2104   7.2104   7.4883   7.4883
     7.5101   7.5102   7.5720   7.5720   7.6767   7.6767   7.7021   7.7021
     7.7819   7.7819   7.7975   7.7975   7.8047   7.8047   8.1437   8.1438
     8.2440   8.2440   8.4285   8.4285   8.6808   8.6808   8.8128   8.8128
     8.9666   8.9666   8.9863   8.9863   8.9864   8.9864   9.1573   9.1573
     9.2402   9.2402   9.4881   9.4881   9.5487   9.5487   9.5933   9.5933
     9.6236   9.6236   9.6918   9.6919   9.7576   9.7576   9.9768   9.9768
    12.5938  12.5938  13.0804  13.0804  13.1186  13.1186  13.1630  13.1630
    13.1859  13.1860  13.8087  13.8087  13.8114  13.8114  13.8812  13.8812
    13.8987  13.8987  14.0486  14.0486  14.0780  14.0780  14.2741  14.2741
    14.7739  14.7739  15.1961  15.1961  15.2538  15.2538  15.6909  15.6910
    16.3478  16.3479  16.5071  16.5071  16.5561  16.5561  17.0199  17.0205

          k = 0.1667-0.5000 0.3297 ( 14826 PWs)   bands (ev):

   -46.0184 -46.0184 -46.0179 -46.0179 -46.0173 -46.0173 -46.0168 -46.0168
   -22.4482 -22.4482 -22.4456 -22.4456 -22.4239 -22.4239 -22.4218 -22.4218
   -22.4005 -22.4005 -22.3991 -22.3991 -22.3783 -22.3783 -22.3770 -22.3770
   -22.3759 -22.3759 -22.3748 -22.3748 -22.3535 -22.3535 -22.3525 -22.3525
   -14.4452 -14.4452 -14.3993 -14.3993 -14.3622 -14.3622 -14.3278 -14.3278
    -6.5926  -6.5926  -6.4995  -6.4995  -6.4683  -6.4683  -6.1832  -6.1832
    -5.9221  -5.9221  -5.9060  -5.9060  -5.8168  -5.8168  -5.8124  -5.8124
    -5.7955  -5.7955  -5.7828  -5.7828  -5.7141  -5.7141  -5.7123  -5.7123
    -0.0760  -0.0760  -0.0119  -0.0119   0.1199   0.1199   0.2478   0.2478
     0.2526   0.2526   0.2821   0.2821   0.3407   0.3407   0.3565   0.3565
     0.3740   0.3740   0.5873   0.5873   0.6311   0.6311   0.6473   0.6473
     6.1280   6.1280   6.1979   6.1979   6.4136   6.4136   6.6806   6.6806
     6.8401   6.8402   6.8592   6.8592   6.8621   6.8622   6.9265   6.9265
     7.1039   7.1039   7.2112   7.2112   7.2568   7.2568   7.3494   7.3495
     7.4293   7.4293   7.6108   7.6108   7.6111   7.6112   7.7278   7.7279
     7.7428   7.7428   7.8222   7.8222   7.8540   7.8540   7.8973   7.8973
     8.1447   8.1447   8.1507   8.1507   8.5881   8.5881   8.6652   8.6652
     9.0782   9.0782   9.1369   9.1369   9.1442   9.1442   9.2655   9.2655
     9.2833   9.2833   9.3987   9.3987   9.4120   9.4121   9.5797   9.5798
     9.6440   9.6440   9.6788   9.6788   9.7310   9.7310   9.8391   9.8391
    12.8533  12.8533  13.1135  13.1135  13.1416  13.1416  13.2234  13.2234
    13.3706  13.3706  13.5694  13.5694  13.6729  13.6729  13.8671  13.8671
    13.8787  13.8787  13.9373  13.9373  14.0283  14.0283  14.1491  14.1491
    15.0360  15.0360  15.2393  15.2393  15.6996  15.6996  15.9153  15.9154
    16.5317  16.5318  16.5649  16.5650  16.7706  16.7706  16.8528  16.8528

          k = 0.1667-0.5000-0.4946 ( 14832 PWs)   bands (ev):

   -46.0181 -46.0181 -46.0181 -46.0181 -46.0171 -46.0171 -46.0171 -46.0171
   -22.4361 -22.4361 -22.4361 -22.4361 -22.4337 -22.4337 -22.4337 -22.4337
   -22.3998 -22.3998 -22.3998 -22.3998 -22.3777 -22.3777 -22.3777 -22.3777
   -22.3754 -22.3754 -22.3753 -22.3753 -22.3530 -22.3530 -22.3530 -22.3530
   -14.4224 -14.4224 -14.4224 -14.4223 -14.3451 -14.3451 -14.3450 -14.3450
    -6.5324  -6.5324  -6.5323  -6.5323  -6.3334  -6.3334  -6.3332  -6.3332
    -5.9278  -5.9278  -5.9278  -5.9278  -5.8054  -5.8054  -5.8053  -5.8053
    -5.7913  -5.7913  -5.7912  -5.7912  -5.7165  -5.7165  -5.7164  -5.7164
    -0.0026  -0.0026  -0.0026  -0.0026   0.1135   0.1135   0.1136   0.1136
     0.2540   0.2540   0.2540   0.2540   0.3493   0.3493   0.3493   0.3493
     0.4985   0.4986   0.4986   0.4986   0.6597   0.6598   0.6598   0.6598
     6.1770   6.1770   6.1771   6.1771   6.6714   6.6714   6.6714   6.6714
     6.8263   6.8263   6.8263   6.8263   7.0828   7.0828   7.0829   7.0829
     7.0834   7.0835   7.0835   7.0835   7.2208   7.2208   7.2208   7.2208
     7.4454   7.4454   7.4454   7.4455   7.7231   7.7231   7.7232   7.7232
     7.7290   7.7290   7.7291   7.7291   7.9192   7.9192   7.9192   7.9192
     7.9957   7.9957   7.9957   7.9958   8.5598   8.5598   8.5598   8.5598
     9.1719   9.1720   9.1720   9.1720   9.2616   9.2616   9.2616   9.2616
     9.3089   9.3089   9.3090   9.3090   9.5474   9.5474   9.5474   9.5474
     9.6311   9.6311   9.6311   9.6311   9.7232   9.7232   9.7234   9.7234
    13.0899  13.0899  13.0900  13.0900  13.2579  13.2580  13.2580  13.2580
    13.4242  13.4242  13.4243  13.4243  13.6149  13.6150  13.6150  13.6150
    13.9670  13.9670  13.9670  13.9670  14.0149  14.0149  14.0149  14.0149
    15.1853  15.1853  15.1853  15.1853  16.2459  16.2459  16.2460  16.2460
    16.3374  16.3374  16.3375  16.3375  17.1050  17.1050  17.1050  17.1050

          k = 0.3333 0.3333 0.0000 ( 14828 PWs)   bands (ev):

   -46.0187 -46.0181 -46.0181 -46.0177 -46.0175 -46.0171 -46.0171 -46.0166
   -22.4606 -22.4588 -22.4588 -22.4573 -22.4118 -22.4107 -22.4107 -22.4097
   -22.3921 -22.3921 -22.3908 -22.3902 -22.3893 -22.3893 -22.3882 -22.3879
   -22.3650 -22.3643 -22.3634 -22.3634 -22.3627 -22.3623 -22.3613 -22.3613
   -14.4775 -14.4208 -14.4208 -14.3818 -14.3753 -14.3427 -14.3426 -14.3061
    -6.6715  -6.6715  -6.6152  -6.5414  -6.5142  -6.2486  -6.2486  -5.9598
    -5.9005  -5.8803  -5.8803  -5.8727  -5.8727  -5.8503  -5.8442  -5.8183
    -5.8083  -5.7824  -5.7731  -5.7479  -5.7479  -5.7272  -5.7272  -5.6797
    -0.2622  -0.0965   0.0465   0.0466   0.0676   0.1925   0.2217   0.2218
     0.2346   0.2729   0.3185   0.3186   0.3640   0.4509   0.4560   0.4560
     0.4590   0.4591   0.4778   0.5161   0.5628   0.5640   0.5870   0.5870
     5.9919   6.0505   6.0505   6.1077   6.2999   6.5303   6.5303   6.5502
     6.5502   6.6441   6.7854   6.8026   6.8026   6.8072   6.8148   6.8939
     7.1609   7.2228   7.3190   7.3190   7.3733   7.3811   7.4369   7.4369
     7.5525   7.5748   7.5748   7.6069   7.6161   7.6161   7.6764   7.6764
     7.7420   7.7444   7.7822   7.8013   7.8302   8.0911   8.0911   8.1474
     8.1475   8.1840   8.4252   8.4551   8.4551   8.4708   8.6172   8.7594
     8.9342   8.9342   9.0206   9.0627   9.1595   9.1880   9.2475   9.2647
     9.3251   9.3251   9.3660   9.3660   9.3805   9.3805   9.5651   9.5651
     9.6737   9.7343   9.7469   9.7849   9.8587   9.8587   9.9194   9.9304
    12.6089  12.7434  12.7434  12.7942  12.8791  13.0225  13.4055  13.4832
    13.4832  13.5311  13.5311  13.5790  13.6762  13.6762  13.8535  13.8909
    13.9304  13.9789  13.9789  14.0824  14.1354  14.1354  14.2449  14.2670
    14.8098  14.8631  14.8631  15.0404  15.4237  15.4646  15.9208  15.9208
    16.1338  16.1383  16.3090  16.3090  16.9110  16.9862  17.0107  17.0107

          k = 0.3333 0.3333 0.1649 ( 14842 PWs)   bands (ev):

   -46.0186 -46.0180 -46.0180 -46.0178 -46.0174 -46.0172 -46.0172 -46.0166
   -22.4573 -22.4557 -22.4557 -22.4542 -22.4151 -22.4139 -22.4139 -22.4128
   -22.3920 -22.3920 -22.3906 -22.3900 -22.3895 -22.3895 -22.3884 -22.3880
   -22.3649 -22.3642 -22.3633 -22.3633 -22.3628 -22.3624 -22.3615 -22.3615
   -14.4713 -14.4157 -14.4156 -14.3884 -14.3707 -14.3480 -14.3480 -14.3108
    -6.6419  -6.6419  -6.5967  -6.5322  -6.4819  -6.2707  -6.2707  -6.0117
    -5.9099  -5.8873  -5.8873  -5.8705  -5.8705  -5.8458  -5.8309  -5.8261
    -5.8094  -5.7870  -5.7743  -5.7469  -5.7469  -5.7339  -5.7339  -5.6895
    -0.2299  -0.1202   0.0668   0.0668   0.1569   0.1914   0.1914   0.1983
     0.2002   0.2680   0.2934   0.2934   0.3173   0.3284   0.3840   0.3840
     0.4020   0.5120   0.5121   0.5765   0.6132   0.6310   0.6425   0.6426
     6.0727   6.1294   6.1294   6.2011   6.2915   6.5264   6.5264   6.5526
     6.5526   6.6538   6.8061   6.8120   6.8128   6.8375   6.8375   6.9193
     7.1575   7.1827   7.2548   7.2548   7.3948   7.4476   7.4634   7.4634
     7.5034   7.5034   7.5665   7.5940   7.6885   7.6885   7.6894   7.6894
     7.6980   7.7406   7.7414   7.7946   7.8207   7.9573   7.9573   8.1392
     8.1392   8.1695   8.3144   8.3497   8.4638   8.4638   8.5694   8.7065
     9.0264   9.0289   9.0289   9.1440   9.2087   9.2166   9.2483   9.2483
     9.2981   9.3029   9.3173   9.3173   9.4452   9.4452   9.5363   9.5363
     9.6153   9.7122   9.7156   9.7379   9.8342   9.8342   9.9082   9.9211
    12.6946  12.8289  12.8289  12.8472  12.8983  13.0150  13.4636  13.5024
    13.5024  13.5447  13.5447  13.6173  13.6623  13.6623  13.8038  13.8489
    13.8710  13.8943  13.8943  14.0646  14.0675  14.0675  14.1814  14.2048
    15.0070  15.0423  15.0423  15.2527  15.4302  15.4614  15.9190  15.9190
    16.2164  16.2453  16.3298  16.3298  16.8131  17.0164  17.0817  17.0818

          k = 0.3333 0.3333 0.3297 ( 14833 PWs)   bands (ev):

   -46.0184 -46.0180 -46.0178 -46.0178 -46.0174 -46.0174 -46.0173 -46.0168
   -22.4485 -22.4469 -22.4469 -22.4454 -22.4241 -22.4228 -22.4228 -22.4216
   -22.3914 -22.3914 -22.3902 -22.3900 -22.3900 -22.3896 -22.3888 -22.3884
   -22.3644 -22.3638 -22.3632 -22.3629 -22.3629 -22.3628 -22.3618 -22.3618
   -14.4540 -14.4061 -14.4016 -14.4015 -14.3625 -14.3625 -14.3582 -14.3236
    -6.5606  -6.5606  -6.5538  -6.5158  -6.3919  -6.3412  -6.3412  -6.1261
    -5.9267  -5.8899  -5.8899  -5.8821  -5.8690  -5.8690  -5.8336  -5.8028
    -5.7996  -5.7850  -5.7784  -5.7490  -5.7490  -5.7475  -5.7475  -5.7158
    -0.1409  -0.1050   0.1072   0.1219   0.1219   0.1446   0.1601   0.1601
     0.2139   0.2276   0.2276   0.2542   0.2683   0.2892   0.2893   0.3148
     0.3244   0.5982   0.6056   0.6056   0.6609   0.6886   0.6886   0.6950
     6.2177   6.2778   6.2838   6.2838   6.4375   6.4670   6.4670   6.6775
     6.6775   6.7640   6.8056   6.8089   6.8882   6.9539   6.9539   6.9741
     7.0267   7.0908   7.0908   7.2177   7.4317   7.4317   7.4341   7.5034
     7.5159   7.5159   7.5355   7.5556   7.6365   7.6444   7.6444   7.7361
     7.7361   7.7371   7.7407   7.7407   7.8416   7.8416   7.8738   8.0047
     8.0842   8.1175   8.1176   8.1234   8.2965   8.2965   8.4797   8.5438
     9.1497   9.1972   9.1972   9.2104   9.2104   9.2535   9.2536   9.3300
     9.3300   9.3590   9.3844   9.4071   9.4770   9.4770   9.4943   9.4943
     9.5403   9.5964   9.6219   9.6523   9.7515   9.7515   9.8858   9.8979
    12.8664  12.9851  13.0034  13.0121  13.0564  13.0564  13.5531  13.5531
    13.5641  13.6009  13.6009  13.6100  13.6100  13.6139  13.6146  13.6956
    13.6956  13.7108  13.9088  13.9088  13.9128  13.9993  14.0302  14.0648
    15.4370  15.4533  15.4533  15.4550  15.4869  15.7819  15.8961  15.8961
    16.4306  16.4306  16.4494  16.5119  16.5607  17.0863  17.1186  17.1187

          k = 0.3333 0.3333-0.4946 ( 14858 PWs)   bands (ev):

   -46.0182 -46.0182 -46.0176 -46.0176 -46.0176 -46.0176 -46.0171 -46.0171
   -22.4363 -22.4363 -22.4349 -22.4349 -22.4348 -22.4348 -22.4336 -22.4336
   -22.3907 -22.3907 -22.3907 -22.3907 -22.3895 -22.3895 -22.3890 -22.3890
   -22.3638 -22.3638 -22.3633 -22.3633 -22.3624 -22.3624 -22.3624 -22.3624
   -14.4303 -14.4302 -14.3822 -14.3821 -14.3821 -14.3820 -14.3410 -14.3410
    -6.5187  -6.5186  -6.4492  -6.4492  -6.4491  -6.4491  -6.2637  -6.2636
    -5.9227  -5.9226  -5.8780  -5.8780  -5.8780  -5.8779  -5.8168  -5.8166
    -5.7873  -5.7872  -5.7530  -5.7530  -5.7529  -5.7529  -5.7509  -5.7508
    -0.0179  -0.0179  -0.0126  -0.0125   0.1687   0.1687   0.1688   0.1688
     0.2038   0.2038   0.2039   0.2039   0.2345   0.2345   0.2659   0.2659
     0.4896   0.4896   0.6746   0.6746   0.6747   0.6747   0.7066   0.7066
     6.2690   6.2691   6.3887   6.3887   6.3888   6.3888   6.7198   6.7199
     6.8055   6.8056   6.8937   6.8937   6.8937   6.8937   6.9364   6.9364
     7.1974   7.1974   7.1975   7.1975   7.2470   7.2470   7.3244   7.3245
     7.4951   7.4952   7.5627   7.5627   7.5627   7.5628   7.7339   7.7339
     7.7617   7.7617   7.8076   7.8076   7.8076   7.8076   7.8828   7.8829
     7.9694   7.9695   8.1377   8.1377   8.1377   8.1377   8.4428   8.4429
     9.2041   9.2041   9.2041   9.2041   9.2853   9.2854   9.3759   9.3759
     9.4548   9.4548   9.4549   9.4549   9.4901   9.4901   9.5023   9.5024
     9.5249   9.5249   9.5920   9.5920   9.5920   9.5920   9.8797   9.8799
    12.9410  12.9410  13.2688  13.2689  13.2986  13.2987  13.3549  13.3549
    13.3549  13.3549  13.6070  13.6070  13.6071  13.6071  13.7308  13.7308
    13.7308  13.7308  13.8113  13.8113  13.8556  13.8556  13.9719  13.9720
    15.4477  15.4477  15.7788  15.7788  15.7788  15.7788  16.0415  16.0416
    16.4160  16.4162  16.7117  16.7117  16.7118  16.7118  16.7930  16.7932

          k = 0.3333-0.5000 0.0000 ( 14852 PWs)   bands (ev):

   -46.0184 -46.0184 -46.0178 -46.0178 -46.0174 -46.0174 -46.0168 -46.0168
   -22.4597 -22.4597 -22.4581 -22.4581 -22.4112 -22.4112 -22.4102 -22.4102
   -22.3913 -22.3913 -22.3887 -22.3887 -22.3785 -22.3785 -22.3770 -22.3770
   -22.3759 -22.3759 -22.3747 -22.3747 -22.3640 -22.3640 -22.3619 -22.3619
   -14.4494 -14.4493 -14.3982 -14.3982 -14.3623 -14.3623 -14.3245 -14.3245
    -6.6310  -6.6310  -6.5862  -6.5862  -6.4018  -6.4018  -6.1094  -6.1094
    -5.8799  -5.8799  -5.8620  -5.8620  -5.8436  -5.8436  -5.8401  -5.8401
    -5.8108  -5.8108  -5.7641  -5.7641  -5.7603  -5.7602  -5.7115  -5.7115
    -0.1302  -0.1302   0.0599   0.0599   0.0975   0.0975   0.2615   0.2615
     0.2754   0.2754   0.2818   0.2818   0.3468   0.3468   0.4090   0.4090
     0.4947   0.4947   0.5311   0.5311   0.5465   0.5465   0.5675   0.5675
     6.0361   6.0361   6.0915   6.0915   6.4505   6.4505   6.6512   6.6512
     6.6921   6.6921   6.8999   6.9000   6.9242   6.9242   7.0276   7.0276
     7.1269   7.1269   7.1729   7.1730   7.1871   7.1871   7.3923   7.3923
     7.4428   7.4428   7.5846   7.5846   7.7097   7.7097   7.7222   7.7222
     7.7535   7.7535   7.8939   7.8939   7.9028   7.9028   7.9222   7.9222
     8.2369   8.2369   8.3438   8.3438   8.3909   8.3910   8.5148   8.5148
     9.0344   9.0344   9.0479   9.0479   9.2095   9.2095   9.2327   9.2327
     9.2885   9.2885   9.5055   9.5055   9.5254   9.5254   9.5915   9.5915
     9.5915   9.5915   9.6774   9.6774   9.7832   9.7832   9.8645   9.8645
    12.6984  12.6984  13.0855  13.0855  13.1066  13.1066  13.1901  13.1901
    13.3505  13.3505  13.5092  13.5092  13.6619  13.6619  13.8722  13.8722
    13.9397  13.9397  14.0049  14.0049  14.0987  14.0987  14.1972  14.1972
    14.8576  14.8576  14.9999  14.9999  15.7663  15.7663  15.9237  15.9237
    16.5337  16.5337  16.5564  16.5565  16.7249  16.7249  16.7615  16.7615

          k = 0.3333-0.5000 0.1649 ( 14844 PWs)   bands (ev):

   -46.0183 -46.0183 -46.0177 -46.0177 -46.0175 -46.0175 -46.0169 -46.0169
   -22.4565 -22.4565 -22.4549 -22.4549 -22.4145 -22.4145 -22.4134 -22.4134
   -22.3911 -22.3911 -22.3889 -22.3889 -22.3783 -22.3783 -22.3768 -22.3768
   -22.3761 -22.3761 -22.3748 -22.3748 -22.3639 -22.3639 -22.3620 -22.3620
   -14.4436 -14.4436 -14.3933 -14.3933 -14.3683 -14.3683 -14.3295 -14.3295
    -6.6066  -6.6066  -6.5553  -6.5553  -6.4032  -6.4032  -6.1403  -6.1403
    -5.8834  -5.8834  -5.8620  -5.8620  -5.8608  -5.8608  -5.8353  -5.8353
    -5.8123  -5.8123  -5.7672  -5.7672  -5.7637  -5.7637  -5.7174  -5.7174
    -0.1038  -0.1038   0.0291   0.0291   0.1102   0.1103   0.2316   0.2316
     0.2703   0.2703   0.2964   0.2964   0.3410   0.3410   0.3522   0.3522
     0.3604   0.3604   0.5910   0.5910   0.6315   0.6315   0.6372   0.6372
     6.1188   6.1188   6.1776   6.1776   6.4295   6.4295   6.6508   6.6508
     6.7173   6.7173   6.8537   6.8537   6.9369   6.9369   7.0039   7.0039
     7.1588   7.1588   7.1865   7.1865   7.2166   7.2166   7.4122   7.4122
     7.4358   7.4358   7.6035   7.6035   7.6175   7.6175   7.7238   7.7238
     7.7665   7.7665   7.8745   7.8745   7.8762   7.8762   7.9390   7.9390
     8.1215   8.1215   8.3052   8.3052   8.3197   8.3197   8.4797   8.4797
     9.1056   9.1056   9.1229   9.1230   9.1993   9.1993   9.2154   9.2154
     9.3530   9.3530   9.4584   9.4584   9.4854   9.4854   9.5953   9.5953
     9.6153   9.6153   9.6455   9.6455   9.7659   9.7659   9.8385   9.8385
    12.7856  12.7856  13.1395  13.1396  13.1533  13.1533  13.2060  13.2060
    13.3394  13.3394  13.5395  13.5395  13.6780  13.6780  13.8546  13.8546
    13.8558  13.8558  13.9275  13.9276  14.0271  14.0271  14.1339  14.1339
    15.0473  15.0474  15.2052  15.2052  15.7688  15.7688  15.9320  15.9321
    16.5412  16.5413  16.6413  16.6414  16.7621  16.7903  16.7904  17.0692

          k = 0.3333-0.5000 0.3297 ( 14854 PWs)   bands (ev):

   -46.0182 -46.0182 -46.0177 -46.0177 -46.0176 -46.0176 -46.0171 -46.0171
   -22.4477 -22.4477 -22.4462 -22.4462 -22.4234 -22.4234 -22.4222 -22.4222
   -22.3907 -22.3907 -22.3893 -22.3893 -22.3778 -22.3778 -22.3765 -22.3765
   -22.3764 -22.3764 -22.3753 -22.3753 -22.3635 -22.3635 -22.3624 -22.3624
   -14.4279 -14.4279 -14.3844 -14.3844 -14.3800 -14.3800 -14.3432 -14.3431
    -6.5431  -6.5431  -6.4697  -6.4697  -6.4191  -6.4191  -6.2284  -6.2284
    -5.8970  -5.8970  -5.8957  -5.8957  -5.8515  -5.8515  -5.8281  -5.8281
    -5.8080  -5.8080  -5.7756  -5.7756  -5.7700  -5.7700  -5.7345  -5.7345
    -0.0335  -0.0335   0.0183   0.0183   0.1448   0.1448   0.1483   0.1483
     0.2097   0.2097   0.2345   0.2345   0.2389   0.2389   0.2550   0.2550
     0.4921   0.4921   0.6696   0.6696   0.6766   0.6766   0.7038   0.7038
     6.2710   6.2710   6.3753   6.3753   6.3839   6.3839   6.7292   6.7292
     6.7361   6.7361   6.8397   6.8397   6.9558   6.9558   6.9758   6.9759
     7.1917   7.1917   7.2336   7.2336   7.3015   7.3015   7.3122   7.3122
     7.4845   7.4845   7.5616   7.5616   7.5751   7.5752   7.7342   7.7342
     7.7915   7.7915   7.8098   7.8098   7.8219   7.8219   7.9254   7.9254
     7.9510   7.9510   8.0593   8.0593   8.2203   8.2203   8.3005   8.3005
     9.2090   9.2090   9.2435   9.2435   9.2693   9.2693   9.3265   9.3265
     9.4242   9.4242   9.4313   9.4313   9.4334   9.4334   9.5796   9.5796
     9.5903   9.5903   9.6150   9.6150   9.7254   9.7254   9.7613   9.7613
    13.0066  13.0066  13.2270  13.2270  13.2782  13.2782  13.3067  13.3067
    13.3341  13.3342  13.6268  13.6268  13.6289  13.6289  13.7216  13.7216
    13.7240  13.7240  13.7915  13.7915  13.8515  13.8515  13.9744  13.9744
    15.4689  15.4689  15.7144  15.7144  15.7664  15.7664  16.0027  16.0027
    16.5273  16.5273  16.7633  16.7634  16.7736  16.7737  16.8616  16.8618

          k = 0.3333-0.5000-0.4946 ( 14860 PWs)   bands (ev):

   -46.0179 -46.0179 -46.0179 -46.0179 -46.0173 -46.0173 -46.0173 -46.0173
   -22.4356 -22.4356 -22.4356 -22.4356 -22.4342 -22.4342 -22.4342 -22.4342
   -22.3900 -22.3900 -22.3900 -22.3900 -22.3772 -22.3772 -22.3772 -22.3772
   -22.3758 -22.3758 -22.3758 -22.3758 -22.3630 -22.3630 -22.3630 -22.3630
   -14.4063 -14.4063 -14.4063 -14.4062 -14.3617 -14.3617 -14.3616 -14.3616
    -6.4690  -6.4690  -6.4689  -6.4689  -6.3502  -6.3502  -6.3501  -6.3501
    -5.9091  -5.9091  -5.9090  -5.9090  -5.8356  -5.8356  -5.8355  -5.8355
    -5.7932  -5.7932  -5.7931  -5.7930  -5.7570  -5.7570  -5.7569  -5.7569
     0.0490   0.0490   0.0490   0.0491   0.0891   0.0891   0.0891   0.0891
     0.1917   0.1917   0.1918   0.1918   0.2171   0.2171   0.2171   0.2172
     0.6135   0.6135   0.6135   0.6135   0.7212   0.7213   0.7213   0.7213
     6.3407   6.3407   6.3408   6.3408   6.5653   6.5653   6.5654   6.5654
     6.8919   6.8919   6.8920   6.8920   7.0884   7.0884   7.0885   7.0885
     7.1104   7.1104   7.1105   7.1105   7.3424   7.3424   7.3424   7.3424
     7.4266   7.4266   7.4266   7.4266   7.7367   7.7367   7.7367   7.7367
     7.7451   7.7451   7.7451   7.7451   7.8476   7.8476   7.8477   7.8477
     7.8924   7.8924   7.8924   7.8924   8.1723   8.1723   8.1724   8.1724
     9.2955   9.2955   9.2955   9.2955   9.3320   9.3320   9.3320   9.3320
     9.4671   9.4671   9.4672   9.4672   9.5214   9.5214   9.5214   9.5214
     9.5579   9.5579   9.5579   9.5579   9.7024   9.7024   9.7026   9.7026
    13.2364  13.2364  13.2364  13.2365  13.3539  13.3539  13.3540  13.3540
    13.4735  13.4736  13.4736  13.4736  13.5743  13.5743  13.5743  13.5743
    13.7514  13.7514  13.7514  13.7514  13.8052  13.8052  13.8052  13.8052
    15.7216  15.7216  15.7216  15.7216  16.2743  16.2744  16.2745  16.2745
    16.3269  16.3270  16.3270  16.3271  16.8117  16.8117  16.8117  16.8117

          k =-0.5000-0.5000 0.0000 ( 14852 PWs)   bands (ev):

   -46.0181 -46.0181 -46.0181 -46.0181 -46.0171 -46.0171 -46.0171 -46.0171
   -22.4589 -22.4589 -22.4589 -22.4589 -22.4107 -22.4107 -22.4107 -22.4107
   -22.3782 -22.3782 -22.3782 -22.3782 -22.3773 -22.3773 -22.3773 -22.3773
   -22.3755 -22.3755 -22.3755 -22.3755 -22.3751 -22.3751 -22.3751 -22.3751
   -14.4240 -14.4239 -14.4239 -14.4239 -14.3435 -14.3435 -14.3435 -14.3435
    -6.5961  -6.5961  -6.5961  -6.5961  -6.2621  -6.2621  -6.2621  -6.2620
    -5.8520  -5.8520  -5.8520  -5.8520  -5.8349  -5.8348  -5.8348  -5.8348
    -5.8276  -5.8276  -5.8276  -5.8276  -5.7319  -5.7319  -5.7319  -5.7319
    -0.0432  -0.0432  -0.0432  -0.0432   0.2003   0.2004   0.2004   0.2004
     0.2543   0.2543   0.2543   0.2543   0.4258   0.4258   0.4259   0.4259
     0.4542   0.4543   0.4543   0.4543   0.5721   0.5721   0.5721   0.5721
     6.0788   6.0788   6.0788   6.0789   6.7075   6.7075   6.7075   6.7075
     6.7243   6.7243   6.7243   6.7243   7.1430   7.1430   7.1430   7.1430
     7.1449   7.1449   7.1449   7.1449   7.2121   7.2122   7.2122   7.2122
     7.5108   7.5108   7.5108   7.5108   7.6771   7.6771   7.6771   7.6771
     7.7474   7.7474   7.7474   7.7474   8.0554   8.0554   8.0554   8.0554
     8.0655   8.0656   8.0656   8.0656   8.3595   8.3595   8.3595   8.3595
     9.1045   9.1045   9.1045   9.1045   9.3353   9.3354   9.3354   9.3354
     9.3667   9.3667   9.3667   9.3667   9.5433   9.5433   9.5433   9.5433
     9.6292   9.6292   9.6292   9.6292   9.7580   9.7580   9.7580   9.7580
    12.9800  12.9800  12.9800  12.9800  13.2089  13.2089  13.2089  13.2089
    13.3959  13.3959  13.3959  13.3959  13.6071  13.6071  13.6071  13.6071
    14.0318  14.0318  14.0318  14.0318  14.0732  14.0732  14.0732  14.0732
    14.9708  14.9708  14.9708  14.9708  16.2801  16.2801  16.2801  16.2801
    16.3603  16.3603  16.3603  16.3603  16.9075  16.9076  16.9076  16.9076

          k =-0.5000-0.5000 0.1649 ( 14876 PWs)   bands (ev):

   -46.0180 -46.0180 -46.0180 -46.0180 -46.0172 -46.0172 -46.0172 -46.0172
   -22.4557 -22.4557 -22.4557 -22.4557 -22.4140 -22.4140 -22.4140 -22.4140
   -22.3780 -22.3780 -22.3780 -22.3780 -22.3772 -22.3772 -22.3772 -22.3772
   -22.3757 -22.3757 -22.3757 -22.3757 -22.3752 -22.3752 -22.3752 -22.3752
   -14.4187 -14.4186 -14.4186 -14.4186 -14.3490 -14.3490 -14.3490 -14.3490
    -6.5684  -6.5683  -6.5683  -6.5683  -6.2729  -6.2729  -6.2729  -6.2728
    -5.8634  -5.8634  -5.8634  -5.8634  -5.8359  -5.8359  -5.8359  -5.8359
    -5.8282  -5.8282  -5.8282  -5.8282  -5.7391  -5.7391  -5.7391  -5.7391
    -0.0232  -0.0232  -0.0232  -0.0232   0.1582   0.1582   0.1582   0.1582
     0.2345   0.2345   0.2345   0.2345   0.3479   0.3480   0.3480   0.3480
     0.4971   0.4971   0.4971   0.4971   0.6548   0.6548   0.6548   0.6548
     6.1637   6.1637   6.1637   6.1638   6.6652   6.6652   6.6652   6.6652
     6.7209   6.7209   6.7209   6.7209   7.1449   7.1450   7.1450   7.1450
     7.2063   7.2064   7.2064   7.2064   7.2234   7.2234   7.2234   7.2234
     7.4277   7.4277   7.4277   7.4278   7.7316   7.7316   7.7316   7.7316
     7.7528   7.7528   7.7528   7.7529   8.0114   8.0114   8.0114   8.0114
     8.0117   8.0117   8.0117   8.0117   8.2862   8.2862   8.2862   8.2862
     9.1824   9.1824   9.1824   9.1824   9.2997   9.2997   9.2997   9.2997
     9.3824   9.3824   9.3825   9.3825   9.5405   9.5405   9.5405   9.5405
     9.6335   9.6335   9.6335   9.6335   9.7341   9.7341   9.7341   9.7341
    13.0514  13.0514  13.0514  13.0514  13.2450  13.2450  13.2450  13.2450
    13.4140  13.4140  13.4140  13.4140  13.5903  13.5903  13.5903  13.5903
    13.9541  13.9541  13.9541  13.9541  13.9960  13.9961  13.9961  13.9961
    15.1749  15.1749  15.1749  15.1749  16.2881  16.2881  16.2881  16.2881
    16.3565  16.3565  16.3565  16.3565  16.9876  16.9877  16.9877  16.9877

          k =-0.5000-0.5000 0.3297 ( 14852 PWs)   bands (ev):

   -46.0179 -46.0179 -46.0179 -46.0179 -46.0174 -46.0174 -46.0174 -46.0174
   -22.4469 -22.4469 -22.4469 -22.4469 -22.4228 -22.4228 -22.4228 -22.4228
   -22.3775 -22.3775 -22.3775 -22.3775 -22.3767 -22.3767 -22.3767 -22.3767
   -22.3762 -22.3762 -22.3762 -22.3762 -22.3756 -22.3756 -22.3756 -22.3756
   -14.4041 -14.4041 -14.4041 -14.4041 -14.3639 -14.3639 -14.3639 -14.3639
    -6.4937  -6.4937  -6.4937  -6.4937  -6.3155  -6.3155  -6.3155  -6.3155
    -5.8802  -5.8802  -5.8802  -5.8802  -5.8564  -5.8564  -5.8564  -5.8564
    -5.8098  -5.8098  -5.8098  -5.8098  -5.7584  -5.7584  -5.7584  -5.7584
     0.0315   0.0315   0.0316   0.0316   0.1176   0.1176   0.1176   0.1176
     0.1803   0.1803   0.1803   0.1803   0.2179   0.2179   0.2179   0.2179
     0.6159   0.6159   0.6160   0.6160   0.7174   0.7174   0.7174   0.7174
     6.3367   6.3367   6.3367   6.3367   6.5641   6.5641   6.5641   6.5641
     6.8131   6.8132   6.8132   6.8132   7.1541   7.1542   7.1542   7.1542
     7.1900   7.1900   7.1900   7.1900   7.3027   7.3027   7.3027   7.3027
     7.4108   7.4108   7.4108   7.4108   7.7636   7.7636   7.7636   7.7636
     7.7744   7.7744   7.7744   7.7744   7.9080   7.9081   7.9081   7.9081
     7.9094   7.9094   7.9094   7.9094   8.0192   8.0192   8.0192   8.0192
     9.3251   9.3251   9.3251   9.3251   9.3366   9.3366   9.3366   9.3366
     9.4229   9.4229   9.4229   9.4229   9.5142   9.5142   9.5142   9.5142
     9.6309   9.6309   9.6309   9.6309   9.6755   9.6755   9.6755   9.6755
    13.2421  13.2422  13.2422  13.2422  13.3544  13.3544  13.3544  13.3544
    13.4622  13.4622  13.4622  13.4622  13.5489  13.5489  13.5489  13.5490
    13.7565  13.7565  13.7565  13.7565  13.7991  13.7991  13.7991  13.7991
    15.6903  15.6904  15.6904  15.6904  16.3084  16.3085  16.3085  16.3085
    16.3461  16.3461  16.3461  16.3461  16.8189  16.8189  16.8189  16.8189

          k =-0.5000-0.5000-0.4946 ( 14872 PWs)   bands (ev):

   -46.0176 -46.0176 -46.0176 -46.0176 -46.0176 -46.0176 -46.0176 -46.0176
   -22.4349 -22.4349 -22.4349 -22.4349 -22.4349 -22.4349 -22.4349 -22.4349
   -22.3768 -22.3768 -22.3768 -22.3768 -22.3768 -22.3768 -22.3768 -22.3768
   -22.3762 -22.3762 -22.3762 -22.3762 -22.3762 -22.3762 -22.3762 -22.3762
   -14.3842 -14.3842 -14.3841 -14.3841 -14.3841 -14.3840 -14.3840 -14.3840
    -6.3974  -6.3974  -6.3974  -6.3973  -6.3972  -6.3972  -6.3972  -6.3972
    -5.8770  -5.8770  -5.8770  -5.8770  -5.8770  -5.8770  -5.8770  -5.8769
    -5.7844  -5.7844  -5.7844  -5.7844  -5.7843  -5.7843  -5.7843  -5.7843
     0.1060   0.1060   0.1060   0.1060   0.1061   0.1061   0.1061   0.1061
     0.1351   0.1351   0.1352   0.1352   0.1352   0.1352   0.1352   0.1353
     0.7019   0.7019   0.7019   0.7019   0.7019   0.7020   0.7020   0.7020
     6.4575   6.4575   6.4575   6.4576   6.4576   6.4576   6.4576   6.4576
     7.0785   7.0785   7.0785   7.0785   7.0786   7.0786   7.0786   7.0786
     7.1703   7.1703   7.1703   7.1703   7.1703   7.1704   7.1704   7.1704
     7.6716   7.6716   7.6716   7.6716   7.6716   7.6716   7.6716   7.6717
     7.8140   7.8140   7.8140   7.8140   7.8140   7.8140   7.8140   7.8141
     7.8230   7.8230   7.8230   7.8230   7.8231   7.8231   7.8231   7.8231
     9.4316   9.4316   9.4316   9.4316   9.4316   9.4316   9.4316   9.4316
     9.4362   9.4362   9.4362   9.4362   9.4363   9.4363   9.4363   9.4363
     9.6270   9.6270   9.6270   9.6270   9.6271   9.6271   9.6271   9.6271
    13.4601  13.4601  13.4601  13.4601  13.4601  13.4602  13.4602  13.4602
    13.5311  13.5311  13.5311  13.5311  13.5311  13.5311  13.5311  13.5311
    13.5647  13.5647  13.5647  13.5647  13.5647  13.5647  13.5648  13.5648
    16.2982  16.2982  16.2982  16.2982  16.2983  16.2983  16.2983  16.2984
    16.3293  16.3293  16.3293  16.3293  16.3293  16.3293  16.3293  16.3293

     highest occupied, lowest unoccupied level (ev):    10.2708   12.0620

!    total energy              =   -5886.99887413 Ry
     total all-electron energy =   -147371.452447 Ry
     estimated scf accuracy    <          3.8E-11 Ry

     The total energy is the sum of the following terms:
     one-electron contribution =    -547.87141316 Ry
     hartree contribution      =     480.41872357 Ry
     xc contribution           =    -485.44669799 Ry
     ewald contribution        =   -1653.96634398 Ry
     one-center paw contrib.   =   -3680.13314257 Ry

     convergence has been achieved in  28 iterations

     Forces acting on atoms (cartesian axes, Ry/au):

     atom    1 type  1   force =     0.00000000    0.00000000   -0.00148999
     atom    2 type  1   force =     0.00000000    0.00000000   -0.00146071
     atom    3 type  1   force =     0.00000000    0.00000000   -0.00147939
     atom    4 type  1   force =     0.00000000    0.00000000   -0.00146641
     atom    5 type  1   force =     0.00000000    0.00000000   -0.00147939
     atom    6 type  1   force =     0.00000000    0.00000000   -0.00146641
     atom    7 type  1   force =     0.00000000    0.00000000   -0.00149387
     atom    8 type  1   force =     0.00000000    0.00000000   -0.00145855
     atom    9 type  2   force =    -0.00000067   -0.00000067   -0.00233467
     atom   10 type  2   force =    -0.00000108   -0.00000108   -0.00232659
     atom   11 type  2   force =    -0.00000067    0.00000067   -0.00233467
     atom   12 type  2   force =    -0.00000108    0.00000108   -0.00232659
     atom   13 type  2   force =     0.00000067   -0.00000067   -0.00233467
     atom   14 type  2   force =     0.00000108   -0.00000108   -0.00232659
     atom   15 type  2   force =     0.00000067    0.00000067   -0.00233467
     atom   16 type  2   force =     0.00000108    0.00000108   -0.00232659
     atom   17 type  3   force =    -0.00000142   -0.00000142    0.00362110
     atom   18 type  3   force =    -0.00000231   -0.00000231    0.00362956
     atom   19 type  3   force =    -0.00000142    0.00000142    0.00362110
     atom   20 type  3   force =    -0.00000231    0.00000231    0.00362956
     atom   21 type  3   force =     0.00000142   -0.00000142    0.00362110
     atom   22 type  3   force =     0.00000231   -0.00000231    0.00362956
     atom   23 type  3   force =     0.00000142    0.00000142    0.00362110
     atom   24 type  3   force =     0.00000231    0.00000231    0.00362956
     atom   25 type  3   force =    -0.00000195    0.00000000    0.00008428
     atom   26 type  3   force =    -0.00000532    0.00000000    0.00008853
     atom   27 type  3   force =     0.00000092    0.00000000    0.00008880
     atom   28 type  3   force =     0.00000284    0.00000000    0.00009767
     atom   29 type  3   force =     0.00000195    0.00000000    0.00008428
     atom   30 type  3   force =     0.00000532    0.00000000    0.00008853
     atom   31 type  3   force =    -0.00000092    0.00000000    0.00008880
     atom   32 type  3   force =    -0.00000284    0.00000000    0.00009767
     atom   33 type  3   force =     0.00000000   -0.00000195    0.00008428
     atom   34 type  3   force =     0.00000000   -0.00000532    0.00008853
     atom   35 type  3   force =     0.00000000    0.00000195    0.00008428
     atom   36 type  3   force =     0.00000000    0.00000532    0.00008853
     atom   37 type  3   force =     0.00000000    0.00000092    0.00008880
     atom   38 type  3   force =     0.00000000    0.00000284    0.00009767
     atom   39 type  3   force =     0.00000000   -0.00000092    0.00008880
     atom   40 type  3   force =     0.00000000   -0.00000284    0.00009767

     Total force =     0.012889     Total SCF correction =     0.000002


     Computing stress (Cartesian axis) and pressure

          total   stress  (Ry/bohr**3)                   (kbar)     P=      -65.92
  -0.00048814   0.00000000   0.00000000          -71.81        0.00        0.00
   0.00000000  -0.00048814   0.00000000            0.00      -71.81        0.00
   0.00000000   0.00000000  -0.00036804            0.00        0.00      -54.14


     Writing all to output data dir ./tmp/40_ecut_6_kmesh_PBE.save/ :
     XML data file, charge density, pseudopotentials, collected wavefunctions

     init_run     :      1.70s CPU      1.93s WALL (       1 calls)
     electrons    :     68.28s CPU     70.96s WALL (       1 calls)
     forces       :      0.42s CPU      0.45s WALL (       1 calls)
     stress       :      0.98s CPU      1.05s WALL (       1 calls)

     Called by init_run:
     wfcinit      :      0.74s CPU      0.82s WALL (       1 calls)
     potinit      :      0.47s CPU      0.50s WALL (       1 calls)
     hinit0       :      0.34s CPU      0.44s WALL (       1 calls)

     Called by electrons:
     c_bands      :     61.49s CPU     63.73s WALL (      28 calls)
     sum_band     :      4.57s CPU      4.83s WALL (      28 calls)
     v_of_rho     :      0.30s CPU      0.38s WALL (      29 calls)
     newd         :      0.23s CPU      0.25s WALL (      29 calls)
     PAW_pot      :      1.34s CPU      1.37s WALL (      29 calls)
     mix_rho      :      0.07s CPU      0.07s WALL (      28 calls)

     Called by c_bands:
     init_us_2    :      0.68s CPU      0.69s WALL (     295 calls)
     cegterg      :     52.10s CPU     54.25s WALL (     145 calls)

     Called by *egterg:
     cdiaghg      :     15.78s CPU     16.86s WALL (     934 calls)
     h_psi        :     21.60s CPU     22.28s WALL (     944 calls)
     s_psi        :      3.17s CPU      3.21s WALL (     944 calls)
     g_psi        :      0.03s CPU      0.03s WALL (     794 calls)

     Called by h_psi:
     h_psi:calbec :      4.81s CPU      5.18s WALL (     944 calls)
     vloc_psi     :     13.41s CPU     13.68s WALL (     944 calls)
                                        0.00s GPU  (     944 calls)
     add_vuspsi   :      3.29s CPU      3.32s WALL (     944 calls)

     General routines
     calbec       :      7.38s CPU      7.99s WALL (    1169 calls)
     fft          :      0.49s CPU      0.60s WALL (     400 calls)
     ffts         :      0.22s CPU      0.22s WALL (      57 calls)
     fftw         :     14.66s CPU     14.96s WALL (  193550 calls)
     interpolate  :      0.23s CPU      0.24s WALL (      29 calls)

     Parallel routines

     PWSCF        :     72.72s CPU     77.25s WALL


   This run was terminated on:   3:34:22  21May2026            

=------------------------------------------------------------------------------=
   JOB DONE.
=------------------------------------------------------------------------------=
