
     Program PWSCF v.7.5 starts on 21May2026 at  3:55:20 

     This program is part of the open-source Quantum ESPRESSO suite
     for quantum simulation of materials; please cite
         "P. Giannozzi et al., J. Phys.:Condens. Matter 21 395502 (2009);
         "P. Giannozzi et al., J. Phys.:Condens. Matter 29 465901 (2017);
         "P. Giannozzi et al., J. Chem. Phys. 152 154105 (2020);
          URL http://www.quantum-espresso.org", 
     in publications or presentations arising from this work. More details at
     http://www.quantum-espresso.org/quote

     Parallel version (MPI & OpenMP), running on     192 processor cores
     Number of MPI processes:               192
     Threads/MPI process:                     1

     MPI processes distributed on     1 nodes
     498580 MiB available memory on the printing compute node when the environment starts

     Waiting for input...
     Reading input from standard input

     Current dimensions of program PWSCF are:
     Max number of different atomic species (ntypx) = 10
     Max number of k-points (npk) =  40000
     Max angular momentum in pseudopotentials (lmaxx) =  4
     file Ba.pbe-spn-kjpaw_psl.1.0.0.UPF: wavefunction(s)  5S 6S renormalized
     file Ti.pbe-spn-kjpaw_psl.1.0.0.UPF: wavefunction(s)  3S 3P 3D renormalized
     file O.pbe-n-kjpaw_psl.1.0.0.UPF: wavefunction(s)  2S 2P renormalized

     IMPORTANT: XC functional enforced from input :
     Exchange-correlation= PBESOL
                           (   1   4  10   8   0   0   0)
     Any further DFT definition will be discarded
     Please, verify this is what you really want

     Found identity + ( -0.5000 -0.5000  0.0000) symmetry
     This is a supercell, fractional translations are disabled

     K-points division:     npool     =       8
     R & G space division:  proc/nbgrp/npool/nimage =      24
     Subspace diagonalization in iterative solution of the eigenvalue problem:
     one sub-group per band group will be used
     ELPA distributed-memory algorithm (size of sub-group:  2*  2 procs)


     Parallelization info
     --------------------
     sticks:   dense  smooth     PW     G-vecs:    dense   smooth      PW
     Min         362     181     50                25696     9081    1304
     Max         363     182     51                25701     9084    1307
     Sum        8693    4349   1201               616735   217983   31311

     Using Slab Decomposition



     bravais-lattice index     =            6
     lattice parameter (alat)  =      15.0876  a.u.
     unit-cell volume          =    3472.3239 (a.u.)^3
     number of atoms/cell      =           40
     number of atomic types    =            3
     number of electrons       =       320.00
     number of Kohn-Sham states=          200
     kinetic-energy cutoff     =      60.0000  Ry
     charge density cutoff     =     480.0000  Ry
     scf convergence threshold =      1.0E-10
     mixing beta               =       0.3000
     number of iterations used =           16  plain     mixing
     Exchange-correlation= PBESOL
                           (   1   4  10   8   0   0   0)

     celldm(1)=  15.087600  celldm(2)=   0.000000  celldm(3)=   1.011020
     celldm(4)=   0.000000  celldm(5)=   0.000000  celldm(6)=   0.000000

     crystal axes: (cart. coord. in units of alat)
               a(1) = (   1.000000   0.000000   0.000000 )  
               a(2) = (   0.000000   1.000000   0.000000 )  
               a(3) = (   0.000000   0.000000   1.011020 )  

     reciprocal axes: (cart. coord. in units 2 pi/alat)
               b(1) = (  1.000000  0.000000  0.000000 )  
               b(2) = (  0.000000  1.000000  0.000000 )  
               b(3) = (  0.000000  0.000000  0.989100 )  


     PseudoPot. # 1 for Ba read from file:
     /home/kylay/scratch/BTO/pseuds/Ba.pbe-spn-kjpaw_psl.1.0.0.UPF
     MD5 check sum: 7cfe25f1fe7574a4710541d5a11d6531
     Pseudo is Projector augmented-wave + core cor, Zval = 10.0
     Generated using &quot;atomic&quot; code by A. Dal Corso  v.6.2.2
     Shape of augmentation charge: PSQ
     Using radial grid of 1251 points,  7 beta functions with: 
                l(1) =   0
                l(2) =   0
                l(3) =   0
                l(4) =   1
                l(5) =   1
                l(6) =   2
                l(7) =   2
     Q(r) pseudized with 0 coefficients 


     PseudoPot. # 2 for Ti read from file:
     /home/kylay/scratch/BTO/pseuds/Ti.pbe-spn-kjpaw_psl.1.0.0.UPF
     MD5 check sum: 01f69b0d8ba4438b2e03ac6ea4af1c0b
     Pseudo is Projector augmented-wave + core cor, Zval = 12.0
     Generated using &quot;atomic&quot; code by A. Dal Corso  v.6.2.2
     Shape of augmentation charge: PSQ
     Using radial grid of 1177 points,  6 beta functions with: 
                l(1) =   0
                l(2) =   0
                l(3) =   1
                l(4) =   1
                l(5) =   2
                l(6) =   2
     Q(r) pseudized with 0 coefficients 


     PseudoPot. # 3 for O  read from file:
     /home/kylay/scratch/BTO/pseuds/O.pbe-n-kjpaw_psl.1.0.0.UPF
     MD5 check sum: e99d9cef9b487d1ca56f5b95ecd0fd7a
     Pseudo is Projector augmented-wave + core cor, Zval =  6.0
     Generated using &quot;atomic&quot; code by A. Dal Corso  v.6.3
     Shape of augmentation charge: PSQ
     Using radial grid of 1095 points,  4 beta functions with: 
                l(1) =   0
                l(2) =   0
                l(3) =   1
                l(4) =   1
     Q(r) pseudized with 0 coefficients 


     atomic species   valence    mass     pseudopotential
     Ba               10.00   137.32700     Ba( 1.00)
     Ti               12.00    47.86700     Ti( 1.00)
     O                 6.00    15.99900     O ( 1.00)

      8 Sym. Ops. (no inversion) found



   Cartesian axes

     site n.     atom                  positions (alat units)
         1        Ba     tau(   1) = (   0.0000000   0.0000000  -0.0010787  )
         2        Ba     tau(   2) = (   0.0000000   0.0000000   0.5044220  )
         3        Ba     tau(   3) = (   0.0000000   0.5000000  -0.0010832  )
         4        Ba     tau(   4) = (   0.0000000   0.5000000   0.5044235  )
         5        Ba     tau(   5) = (   0.5000000   0.0000000  -0.0010832  )
         6        Ba     tau(   6) = (   0.5000000   0.0000000   0.5044235  )
         7        Ba     tau(   7) = (   0.5000000   0.5000000  -0.0010766  )
         8        Ba     tau(   8) = (   0.5000000   0.5000000   0.5044202  )
         9        Ti     tau(   9) = (   0.2500002   0.2500002   0.2436990  )
        10        Ti     tau(  10) = (   0.2500007   0.2500007   0.7492042  )
        11        Ti     tau(  11) = (   0.2500002   0.7499998   0.2436990  )
        12        Ti     tau(  12) = (   0.2500007   0.7499993   0.7492042  )
        13        Ti     tau(  13) = (   0.7499998   0.2500002   0.2436990  )
        14        Ti     tau(  14) = (   0.7499993   0.2500007   0.7492042  )
        15        Ti     tau(  15) = (   0.7499998   0.7499998   0.2436990  )
        16        Ti     tau(  16) = (   0.7499993   0.7499993   0.7492042  )
        17        O      tau(  17) = (   0.2500011   0.2500011   0.0113903  )
        18        O      tau(  18) = (   0.2500007   0.2500007   0.5168954  )
        19        O      tau(  19) = (   0.2500011   0.7499989   0.0113903  )
        20        O      tau(  20) = (   0.2500007   0.7499993   0.5168954  )
        21        O      tau(  21) = (   0.7499989   0.2500011   0.0113903  )
        22        O      tau(  22) = (   0.7499993   0.2500007   0.5168954  )
        23        O      tau(  23) = (   0.7499989   0.7499989   0.0113903  )
        24        O      tau(  24) = (   0.7499993   0.7499993   0.5168954  )
        25        O      tau(  25) = (   0.2500005   0.0000000   0.2592128  )
        26        O      tau(  26) = (   0.2500020   0.0000000   0.7647195  )
        27        O      tau(  27) = (   0.2499999   0.5000000   0.2592107  )
        28        O      tau(  28) = (   0.2499998   0.5000000   0.7647148  )
        29        O      tau(  29) = (   0.7499995   0.0000000   0.2592128  )
        30        O      tau(  30) = (   0.7499980   0.0000000   0.7647195  )
        31        O      tau(  31) = (   0.7500001   0.5000000   0.2592107  )
        32        O      tau(  32) = (   0.7500002   0.5000000   0.7647148  )
        33        O      tau(  33) = (   0.0000000   0.2500005   0.2592128  )
        34        O      tau(  34) = (   0.0000000   0.2500020   0.7647195  )
        35        O      tau(  35) = (   0.0000000   0.7499995   0.2592128  )
        36        O      tau(  36) = (   0.0000000   0.7499980   0.7647195  )
        37        O      tau(  37) = (   0.5000000   0.2499999   0.2592107  )
        38        O      tau(  38) = (   0.5000000   0.2499998   0.7647148  )
        39        O      tau(  39) = (   0.5000000   0.7500001   0.2592107  )
        40        O      tau(  40) = (   0.5000000   0.7500002   0.7647148  )

     number of k points=    18
                       cart. coord. in units 2pi/alat
        k(    1) = (   0.0000000   0.0000000   0.0000000), wk =   0.0312500
        k(    2) = (   0.0000000   0.0000000   0.2472750), wk =   0.0625000
        k(    3) = (   0.0000000   0.0000000  -0.4945501), wk =   0.0312500
        k(    4) = (   0.0000000   0.2500000   0.0000000), wk =   0.1250000
        k(    5) = (   0.0000000   0.2500000   0.2472750), wk =   0.2500000
        k(    6) = (   0.0000000   0.2500000  -0.4945501), wk =   0.1250000
        k(    7) = (   0.0000000  -0.5000000   0.0000000), wk =   0.0625000
        k(    8) = (   0.0000000  -0.5000000   0.2472750), wk =   0.1250000
        k(    9) = (   0.0000000  -0.5000000  -0.4945501), wk =   0.0625000
        k(   10) = (   0.2500000   0.2500000   0.0000000), wk =   0.1250000
        k(   11) = (   0.2500000   0.2500000   0.2472750), wk =   0.2500000
        k(   12) = (   0.2500000   0.2500000  -0.4945501), wk =   0.1250000
        k(   13) = (   0.2500000  -0.5000000   0.0000000), wk =   0.1250000
        k(   14) = (   0.2500000  -0.5000000   0.2472750), wk =   0.2500000
        k(   15) = (   0.2500000  -0.5000000  -0.4945501), wk =   0.1250000
        k(   16) = (  -0.5000000  -0.5000000   0.0000000), wk =   0.0312500
        k(   17) = (  -0.5000000  -0.5000000   0.2472750), wk =   0.0625000
        k(   18) = (  -0.5000000  -0.5000000  -0.4945501), wk =   0.0312500

     Dense  grid:   616735 G-vectors     FFT dimensions: ( 108, 108, 108)

     Smooth grid:   217983 G-vectors     FFT dimensions: (  75,  75,  75)

     Estimated max dynamical RAM per process >      75.85 MB

     Estimated total dynamical RAM >      12.16 GB

     Check: negative core charge=   -0.000002
     Cannot read rho : file not found

     Initial potential from superposition of free atoms

     starting charge     319.8521, renormalised to     320.0000
     Message from routine qexsd_readschema :
     xml data file ./tmp/60_ecut_4_kmesh_PBE.save/data-file-schema.xml not found
     Cannot read wfcs: file not found
     Starting wfcs are  216 randomized atomic wfcs
     Checking if some PAW data can be deallocated... 

     total cpu time spent up to now is        3.1 secs

     per-process dynamical memory:   148.9 Mb

     Self-consistent Calculation

     iteration #  1     ecut=    60.00 Ry     beta= 0.30
     Davidson diagonalization with overlap
     c_bands:  2 eigenvalues not converged
     ethr =  1.00E-05,  avg # of iterations = 39.2

     total cpu time spent up to now is       12.8 secs

     total energy              =   -5884.35786956 Ry
     estimated scf accuracy    <      13.69249199 Ry

     iteration #  2     ecut=    60.00 Ry     beta= 0.30
     Davidson diagonalization with overlap
     ethr =  4.28E-03,  avg # of iterations =  2.0

     total cpu time spent up to now is       14.2 secs

     total energy              =   -5886.02410138 Ry
     estimated scf accuracy    <       0.61118372 Ry

     iteration #  3     ecut=    60.00 Ry     beta= 0.30
     Davidson diagonalization with overlap
     ethr =  1.91E-04,  avg # of iterations = 14.8

     total cpu time spent up to now is       18.0 secs

     total energy              =   -5886.97979241 Ry
     estimated scf accuracy    <       1.15479777 Ry

     iteration #  4     ecut=    60.00 Ry     beta= 0.30
     Davidson diagonalization with overlap
     ethr =  1.91E-04,  avg # of iterations =  2.0

     total cpu time spent up to now is       19.4 secs

     total energy              =   -5887.08199522 Ry
     estimated scf accuracy    <       0.19212503 Ry

     iteration #  5     ecut=    60.00 Ry     beta= 0.30
     Davidson diagonalization with overlap
     ethr =  6.00E-05,  avg # of iterations = 10.8

     total cpu time spent up to now is       22.3 secs

     total energy              =   -5886.96440473 Ry
     estimated scf accuracy    <       0.92704908 Ry

     iteration #  6     ecut=    60.00 Ry     beta= 0.30
     Davidson diagonalization with overlap
     ethr =  6.00E-05,  avg # of iterations =  5.7

     total cpu time spent up to now is       24.6 secs

     total energy              =   -5887.09679551 Ry
     estimated scf accuracy    <       0.20307934 Ry

     iteration #  7     ecut=    60.00 Ry     beta= 0.30
     Davidson diagonalization with overlap
     ethr =  6.00E-05,  avg # of iterations =  2.1

     total cpu time spent up to now is       26.0 secs

     total energy              =   -5887.10702006 Ry
     estimated scf accuracy    <       0.04242617 Ry

     iteration #  8     ecut=    60.00 Ry     beta= 0.30
     Davidson diagonalization with overlap
     ethr =  1.33E-05,  avg # of iterations = 10.2

     total cpu time spent up to now is       29.0 secs

     total energy              =   -5887.11529763 Ry
     estimated scf accuracy    <       0.06583984 Ry

     iteration #  9     ecut=    60.00 Ry     beta= 0.30
     Davidson diagonalization with overlap
     ethr =  1.33E-05,  avg # of iterations =  7.2

     total cpu time spent up to now is       31.4 secs

     total energy              =   -5887.13358150 Ry
     estimated scf accuracy    <       0.01097168 Ry

     iteration # 10     ecut=    60.00 Ry     beta= 0.30
     Davidson diagonalization with overlap
     ethr =  3.43E-06,  avg # of iterations =  4.9

     total cpu time spent up to now is       33.2 secs

     total energy              =   -5887.13387004 Ry
     estimated scf accuracy    <       0.00251878 Ry

     iteration # 11     ecut=    60.00 Ry     beta= 0.30
     Davidson diagonalization with overlap
     ethr =  7.87E-07,  avg # of iterations =  6.9

     total cpu time spent up to now is       35.4 secs

     total energy              =   -5887.13480774 Ry
     estimated scf accuracy    <       0.00048175 Ry

     iteration # 12     ecut=    60.00 Ry     beta= 0.30
     Davidson diagonalization with overlap
     ethr =  1.51E-07,  avg # of iterations =  6.4

     total cpu time spent up to now is       37.8 secs

     total energy              =   -5887.13456013 Ry
     estimated scf accuracy    <       0.00099897 Ry

     iteration # 13     ecut=    60.00 Ry     beta= 0.30
     Davidson diagonalization with overlap
     ethr =  1.51E-07,  avg # of iterations =  6.6

     total cpu time spent up to now is       39.8 secs

     total energy              =   -5887.13488005 Ry
     estimated scf accuracy    <       0.00015297 Ry

     iteration # 14     ecut=    60.00 Ry     beta= 0.30
     Davidson diagonalization with overlap
     ethr =  4.78E-08,  avg # of iterations =  5.2

     total cpu time spent up to now is       41.9 secs

     total energy              =   -5887.13486315 Ry
     estimated scf accuracy    <       0.00055653 Ry

     iteration # 15     ecut=    60.00 Ry     beta= 0.30
     Davidson diagonalization with overlap
     ethr =  4.78E-08,  avg # of iterations =  1.2

     total cpu time spent up to now is       43.3 secs

     total energy              =   -5887.13484269 Ry
     estimated scf accuracy    <       0.00022539 Ry

     iteration # 16     ecut=    60.00 Ry     beta= 0.30
     Davidson diagonalization with overlap
     ethr =  4.78E-08,  avg # of iterations =  2.0

     total cpu time spent up to now is       44.8 secs

     total energy              =   -5887.13483779 Ry
     estimated scf accuracy    <       0.00006885 Ry

     iteration # 17     ecut=    60.00 Ry     beta= 0.30
     Davidson diagonalization with overlap
     ethr =  2.15E-08,  avg # of iterations =  2.0

     total cpu time spent up to now is       46.3 secs

     total energy              =   -5887.13484424 Ry
     estimated scf accuracy    <       0.00000998 Ry

     iteration # 18     ecut=    60.00 Ry     beta= 0.30
     Davidson diagonalization with overlap
     ethr =  3.12E-09,  avg # of iterations =  6.6

     total cpu time spent up to now is       48.6 secs

     total energy              =   -5887.13484979 Ry
     estimated scf accuracy    <       0.00000155 Ry

     iteration # 19     ecut=    60.00 Ry     beta= 0.30
     Davidson diagonalization with overlap
     ethr =  4.83E-10,  avg # of iterations =  6.7

     total cpu time spent up to now is       50.7 secs

     total energy              =   -5887.13485101 Ry
     estimated scf accuracy    <       0.00000092 Ry

     iteration # 20     ecut=    60.00 Ry     beta= 0.30
     Davidson diagonalization with overlap
     ethr =  2.88E-10,  avg # of iterations =  5.9

     total cpu time spent up to now is       52.7 secs

     total energy              =   -5887.13485261 Ry
     estimated scf accuracy    <       0.00000353 Ry

     iteration # 21     ecut=    60.00 Ry     beta= 0.30
     Davidson diagonalization with overlap
     ethr =  2.88E-10,  avg # of iterations =  5.5

     total cpu time spent up to now is       54.9 secs

     total energy              =   -5887.13485249 Ry
     estimated scf accuracy    <       0.00001058 Ry

     iteration # 22     ecut=    60.00 Ry     beta= 0.30
     Davidson diagonalization with overlap
     ethr =  2.88E-10,  avg # of iterations =  1.9

     total cpu time spent up to now is       56.2 secs

     total energy              =   -5887.13484868 Ry
     estimated scf accuracy    <       0.00000955 Ry

     iteration # 23     ecut=    60.00 Ry     beta= 0.30
     Davidson diagonalization with overlap
     ethr =  2.88E-10,  avg # of iterations =  5.0

     total cpu time spent up to now is       58.6 secs

     total energy              =   -5887.13485028 Ry
     estimated scf accuracy    <       0.00000003 Ry

     iteration # 24     ecut=    60.00 Ry     beta= 0.30
     Davidson diagonalization with overlap
     ethr =  1.04E-11,  avg # of iterations =  6.7

     total cpu time spent up to now is       60.8 secs

     total energy              =   -5887.13485030 Ry
     estimated scf accuracy    <       0.00000005 Ry

     iteration # 25     ecut=    60.00 Ry     beta= 0.30
     Davidson diagonalization with overlap
     ethr =  1.04E-11,  avg # of iterations =  5.7

     total cpu time spent up to now is       63.4 secs

     total energy              =   -5887.13485034 Ry
     estimated scf accuracy    <       0.00000042 Ry

     iteration # 26     ecut=    60.00 Ry     beta= 0.30
     Davidson diagonalization with overlap
     ethr =  1.04E-11,  avg # of iterations =  2.0

     total cpu time spent up to now is       64.9 secs

     total energy              =   -5887.13485036 Ry
     estimated scf accuracy    <       0.00000027 Ry

     iteration # 27     ecut=    60.00 Ry     beta= 0.30
     Davidson diagonalization with overlap
     ethr =  1.04E-11,  avg # of iterations =  1.8

     total cpu time spent up to now is       66.2 secs

     total energy              =   -5887.13485036 Ry
     estimated scf accuracy    <       0.00000031 Ry

     iteration # 28     ecut=    60.00 Ry     beta= 0.30
     Davidson diagonalization with overlap
     ethr =  1.04E-11,  avg # of iterations =  2.0

     total cpu time spent up to now is       67.6 secs

     total energy              =   -5887.13485037 Ry
     estimated scf accuracy    <       0.00000027 Ry

     iteration # 29     ecut=    60.00 Ry     beta= 0.30
     Davidson diagonalization with overlap
     ethr =  1.04E-11,  avg # of iterations =  1.4

     total cpu time spent up to now is       69.0 secs

     total energy              =   -5887.13485031 Ry
     estimated scf accuracy    <       0.00000031 Ry

     iteration # 30     ecut=    60.00 Ry     beta= 0.30
     Davidson diagonalization with overlap
     ethr =  1.04E-11,  avg # of iterations =  2.1

     total cpu time spent up to now is       70.6 secs

     total energy              =   -5887.13485030 Ry
     estimated scf accuracy    <       0.00000016 Ry

     iteration # 31     ecut=    60.00 Ry     beta= 0.30
     Davidson diagonalization with overlap
     ethr =  1.04E-11,  avg # of iterations =  3.0

     total cpu time spent up to now is       72.3 secs

     total energy              =   -5887.13485030 Ry
     estimated scf accuracy    <       0.00000010 Ry

     iteration # 32     ecut=    60.00 Ry     beta= 0.30
     Davidson diagonalization with overlap
     ethr =  1.04E-11,  avg # of iterations =  2.0

     total cpu time spent up to now is       73.7 secs

     total energy              =   -5887.13485030 Ry
     estimated scf accuracy    <       0.00000007 Ry

     iteration # 33     ecut=    60.00 Ry     beta= 0.30
     Davidson diagonalization with overlap
     ethr =  1.04E-11,  avg # of iterations =  1.2

     total cpu time spent up to now is       75.1 secs

     total energy              =   -5887.13485031 Ry
     estimated scf accuracy    <       0.00000007 Ry

     iteration # 34     ecut=    60.00 Ry     beta= 0.30
     Davidson diagonalization with overlap
     ethr =  1.04E-11,  avg # of iterations =  1.1

     total cpu time spent up to now is       76.4 secs

     total energy              =   -5887.13485029 Ry
     estimated scf accuracy    <       0.00000007 Ry

     iteration # 35     ecut=    60.00 Ry     beta= 0.30
     Davidson diagonalization with overlap
     ethr =  1.04E-11,  avg # of iterations =  2.0

     total cpu time spent up to now is       77.7 secs

     total energy              =   -5887.13485029 Ry
     estimated scf accuracy    <       0.00000003 Ry

     iteration # 36     ecut=    60.00 Ry     beta= 0.30
     Davidson diagonalization with overlap
     ethr =  8.81E-12,  avg # of iterations =  2.0

     total cpu time spent up to now is       79.1 secs

     total energy              =   -5887.13485030 Ry
     estimated scf accuracy    <       0.00000002 Ry

     iteration # 37     ecut=    60.00 Ry     beta= 0.30
     Davidson diagonalization with overlap
     ethr =  7.13E-12,  avg # of iterations =  1.0

     total cpu time spent up to now is       80.4 secs

     total energy              =   -5887.13485030 Ry
     estimated scf accuracy    <       0.00000004 Ry

     iteration # 38     ecut=    60.00 Ry     beta= 0.30
     Davidson diagonalization with overlap
     ethr =  7.13E-12,  avg # of iterations =  1.0

     total cpu time spent up to now is       81.6 secs

     total energy              =   -5887.13485029 Ry
     estimated scf accuracy    <       0.00000004 Ry

     iteration # 39     ecut=    60.00 Ry     beta= 0.30
     Davidson diagonalization with overlap
     ethr =  7.13E-12,  avg # of iterations =  1.6

     total cpu time spent up to now is       83.0 secs

     total energy              =   -5887.13485029 Ry
     estimated scf accuracy    <       0.00000002 Ry

     iteration # 40     ecut=    60.00 Ry     beta= 0.30
     Davidson diagonalization with overlap
     ethr =  6.29E-12,  avg # of iterations =  1.9

     total cpu time spent up to now is       84.4 secs

     total energy              =   -5887.13485029 Ry
     estimated scf accuracy    <       0.00000001 Ry

     iteration # 41     ecut=    60.00 Ry     beta= 0.30
     Davidson diagonalization with overlap
     ethr =  3.83E-12,  avg # of iterations =  1.6

     total cpu time spent up to now is       85.7 secs

     total energy              =   -5887.13485029 Ry
     estimated scf accuracy    <          9.1E-09 Ry

     iteration # 42     ecut=    60.00 Ry     beta= 0.30
     Davidson diagonalization with overlap
     ethr =  2.84E-12,  avg # of iterations =  2.0

     total cpu time spent up to now is       87.1 secs

     total energy              =   -5887.13485029 Ry
     estimated scf accuracy    <          6.2E-09 Ry

     iteration # 43     ecut=    60.00 Ry     beta= 0.30
     Davidson diagonalization with overlap
     ethr =  1.95E-12,  avg # of iterations =  1.4

     total cpu time spent up to now is       88.4 secs

     total energy              =   -5887.13485029 Ry
     estimated scf accuracy    <          5.8E-09 Ry

     iteration # 44     ecut=    60.00 Ry     beta= 0.30
     Davidson diagonalization with overlap
     ethr =  1.81E-12,  avg # of iterations =  1.4

     total cpu time spent up to now is       89.7 secs

     total energy              =   -5887.13485029 Ry
     estimated scf accuracy    <          4.1E-09 Ry

     iteration # 45     ecut=    60.00 Ry     beta= 0.30
     Davidson diagonalization with overlap
     ethr =  1.29E-12,  avg # of iterations =  1.1

     total cpu time spent up to now is       91.1 secs

     total energy              =   -5887.13485029 Ry
     estimated scf accuracy    <          4.7E-09 Ry

     iteration # 46     ecut=    60.00 Ry     beta= 0.30
     Davidson diagonalization with overlap
     ethr =  1.29E-12,  avg # of iterations =  1.2

     total cpu time spent up to now is       92.4 secs

     total energy              =   -5887.13485029 Ry
     estimated scf accuracy    <          4.1E-09 Ry

     iteration # 47     ecut=    60.00 Ry     beta= 0.30
     Davidson diagonalization with overlap
     ethr =  1.28E-12,  avg # of iterations =  2.0

     total cpu time spent up to now is       93.8 secs

     total energy              =   -5887.13485029 Ry
     estimated scf accuracy    <          8.6E-10 Ry

     iteration # 48     ecut=    60.00 Ry     beta= 0.30
     Davidson diagonalization with overlap
     ethr =  2.68E-13,  avg # of iterations =  5.5

     total cpu time spent up to now is       96.0 secs

     End of self-consistent calculation

          k = 0.0000 0.0000 0.0000 ( 27305 PWs)   bands (ev):

   -45.9849 -45.9839 -45.9838 -45.9838 -45.9829 -45.9829 -45.9827 -45.9818
   -22.4341 -22.4304 -22.4304 -22.4276 -22.3845 -22.3823 -22.3823 -22.3802
   -22.3791 -22.3791 -22.3757 -22.3757 -22.3754 -22.3754 -22.3730 -22.3730
   -22.3235 -22.3235 -22.3215 -22.3215 -22.3213 -22.3213 -22.3194 -22.3194
   -14.5420 -14.4272 -14.4176 -14.4176 -14.3466 -14.3466 -14.3384 -14.2762
    -6.8476  -6.8476  -6.7982  -6.5962  -6.3063  -6.1986  -6.1986  -5.9541
    -5.9541  -5.9519  -5.8905  -5.8905  -5.8602  -5.8265  -5.7992  -5.7992
    -5.7960  -5.7960  -5.7751  -5.7083  -5.6204  -5.6204  -5.5579  -5.5579
    -0.4722  -0.4722  -0.4097   0.2095   0.2095   0.2259   0.2259   0.2730
     0.2824   0.2824   0.2838   0.2838   0.4424   0.4424   0.4466   0.4466
     0.4649   0.4649   0.6614   0.6665   0.6665   0.6893   0.6893   0.7334
     5.7141   5.8859   5.9131   5.9131   6.0828   6.0828   6.1347   6.1605
     6.2318   6.2318   6.3968   6.3968   6.3978   6.4167   6.4330   7.3363
     7.3363   7.3923   7.3923   7.4396   7.4396   7.4399   7.4399   7.4471
     7.4471   7.5451   7.5451   7.7695   7.7695   7.7959   7.8905   7.9104
     7.9104   7.9221   7.9221   8.2196   8.2196   8.2652   8.2753   8.2818
     8.2819   8.3809   8.3809   8.4565   8.5260   8.5260   8.5437   8.5437
     8.8895   8.8895   9.0676   9.1903   9.1904   9.2308   9.2308   9.3243
     9.3243   9.3354   9.3354   9.3506   9.3506   9.5644   9.5644   9.8570
     9.9155   9.9155  10.0342  10.0342  10.1053  10.1053  10.1947  10.2662
    12.0430  12.1960  12.3679  12.3679  12.4897  12.4897  13.8069  13.8069
    13.8372  13.8372  13.8639  13.8639  13.8705  13.8705  13.8863  13.8863
    13.8883  13.8883  14.2259  14.2259  14.2552  14.3565  14.3569  14.4387
    14.4387  14.4840  14.4840  14.4908  14.5035  14.9707  15.0679  15.1832
    15.1832  15.2149  16.1744  16.1744  16.3766  16.6785  16.8761  16.8761

          k = 0.0000 0.0000 0.2473 ( 27286 PWs)   bands (ev):

   -45.9847 -45.9841 -45.9837 -45.9837 -45.9830 -45.9830 -45.9826 -45.9819
   -22.4269 -22.4234 -22.4234 -22.4207 -22.3919 -22.3894 -22.3894 -22.3872
   -22.3786 -22.3786 -22.3762 -22.3762 -22.3750 -22.3750 -22.3733 -22.3733
   -22.3232 -22.3232 -22.3218 -22.3218 -22.3210 -22.3210 -22.3197 -22.3197
   -14.5255 -14.4444 -14.4074 -14.4074 -14.3572 -14.3571 -14.3294 -14.2854
    -6.7727  -6.7727  -6.7493  -6.5966  -6.3372  -6.3372  -6.2332  -5.9521
    -5.9043  -5.9043  -5.8826  -5.8826  -5.8579  -5.8553  -5.8315  -5.7718
    -5.7718  -5.7700  -5.7635  -5.7635  -5.6477  -5.6477  -5.5928  -5.5928
    -0.3773  -0.3773  -0.2779   0.1037   0.1037   0.2877   0.2877   0.3008
     0.3008   0.3061   0.3061   0.3414   0.4164   0.4165   0.4182   0.4182
     0.4714   0.4929   0.4929   0.6155   0.6155   0.6354   0.6354   0.6666
     5.8005   5.8876   6.0218   6.0218   6.2035   6.2035   6.2446   6.2446
     6.3982   6.4098   6.4191   6.4307   6.5367   6.5367   6.5846   7.3472
     7.3472   7.3651   7.3651   7.3819   7.3819   7.3864   7.3864   7.5284
     7.5284   7.5299   7.5299   7.5769   7.6209   7.6607   7.6607   7.7509
     7.7509   7.8752   7.8752   8.0474   8.2504   8.2504   8.2730   8.2730
     8.3661   8.4354   8.4355   8.4505   8.5999   8.6000   8.7295   8.7295
     8.9292   9.0623   9.0623   9.0655   9.0655   9.1347   9.1347   9.1960
     9.1960   9.2191   9.2191   9.3124   9.3124   9.5329   9.6109   9.6109
     9.8614   9.8614   9.9308   9.9308   9.9430   9.9430  10.2050  10.2555
    12.0646  12.1728  12.6166  12.6166  12.7148  12.7148  13.6682  13.6682
    13.6935  13.6935  13.8119  13.8119  13.8332  13.8332  13.8751  13.8751
    13.9661  13.9661  14.1300  14.1300  14.2883  14.3554  14.3560  14.3810
    14.3810  14.4549  14.7032  14.7032  14.8807  15.1613  15.1613  15.3613
    15.4205  15.5070  16.1685  16.3653  16.3653  16.6625  16.7933  17.2041

          k = 0.0000 0.0000-0.4946 ( 27198 PWs)   bands (ev):

   -45.9844 -45.9844 -45.9833 -45.9833 -45.9833 -45.9833 -45.9822 -45.9822
   -22.4095 -22.4094 -22.4064 -22.4064 -22.4064 -22.4064 -22.4040 -22.4039
   -22.3774 -22.3774 -22.3774 -22.3774 -22.3742 -22.3742 -22.3742 -22.3742
   -22.3225 -22.3225 -22.3224 -22.3224 -22.3203 -22.3203 -22.3203 -22.3203
   -14.4854 -14.4853 -14.3825 -14.3825 -14.3824 -14.3824 -14.3076 -14.3075
    -6.6490  -6.6488  -6.5764  -6.5764  -6.5763  -6.5763  -6.0504  -6.0503
    -5.8918  -5.8917  -5.8752  -5.8752  -5.8752  -5.8752  -5.8435  -5.8434
    -5.7114  -5.7114  -5.7112  -5.7112  -5.6778  -5.6778  -5.6777  -5.6777
    -0.1422  -0.1422  -0.1421  -0.1421   0.0689   0.0691   0.3527   0.3528
     0.3529   0.3529   0.3611   0.3611   0.3612   0.3612   0.4456   0.4456
     0.4456   0.4456   0.5048   0.5049   0.5626   0.5626   0.5626   0.5626
     5.8767   5.8768   6.1388   6.1388   6.1389   6.1389   6.4248   6.4249
     6.7013   6.7013   6.7014   6.7014   6.9933   6.9934   7.0043   7.0043
     7.0044   7.0044   7.0200   7.0201   7.2220   7.2222   7.3692   7.3692
     7.3693   7.3693   7.6716   7.6716   7.6716   7.6716   7.7262   7.7262
     7.7263   7.7263   7.9481   7.9481   7.9482   7.9482   8.4489   8.4489
     8.4490   8.4490   8.6296   8.6297   8.8056   8.8056   8.8056   8.8056
     8.8194   8.8194   8.8195   8.8195   8.9262   8.9263   9.0408   9.0408
     9.0409   9.0409   9.5752   9.5752   9.5752   9.5752   9.6274   9.6274
     9.6274   9.6274   9.7314   9.7314   9.7315   9.7315  10.2300  10.2302
    12.1178  12.1179  13.1636  13.1636  13.1637  13.1637  13.2188  13.2188
    13.2189  13.2189  13.8230  13.8230  13.8231  13.8231  13.9606  13.9606
    13.9606  13.9606  14.1627  14.1627  14.1628  14.1628  14.3551  14.3552
    14.3703  14.3704  15.0391  15.0391  15.0392  15.0392  15.5999  15.6000
    16.0653  16.0656  16.2725  16.2727  16.2795  16.2796  16.9645  16.9647

          k = 0.0000 0.2500 0.0000 ( 27273 PWs)   bands (ev):

   -45.9847 -45.9839 -45.9838 -45.9836 -45.9830 -45.9829 -45.9827 -45.9820
   -22.4336 -22.4309 -22.4299 -22.4280 -22.3842 -22.3827 -22.3820 -22.3805
   -22.3786 -22.3760 -22.3753 -22.3734 -22.3710 -22.3678 -22.3675 -22.3652
   -22.3316 -22.3295 -22.3292 -22.3273 -22.3231 -22.3216 -22.3212 -22.3197
   -14.5242 -14.4363 -14.4156 -14.4062 -14.3586 -14.3502 -14.3364 -14.2867
    -6.7954  -6.7765  -6.7230  -6.6087  -6.3974  -6.3074  -6.1196  -5.9401
    -5.9289  -5.9193  -5.8964  -5.8720  -5.8501  -5.8133  -5.8040  -5.8017
    -5.7839  -5.7745  -5.7604  -5.7437  -5.7098  -5.6482  -5.6279  -5.5920
    -0.3754  -0.3498  -0.2963   0.1172   0.1725   0.2383   0.2510   0.2729
     0.2971   0.3091   0.3420   0.3446   0.4034   0.4120   0.4198   0.4370
     0.4658   0.4734   0.4837   0.6123   0.6293   0.6311   0.6317   0.6610
     5.8083   5.9121   6.0000   6.0101   6.1374   6.1985   6.2066   6.3010
     6.3660   6.3974   6.4043   6.4665   6.5568   6.5961   6.6052   7.2774
     7.3620   7.4159   7.4369   7.4409   7.4485   7.4493   7.4769   7.4949
     7.5274   7.5470   7.5477   7.5559   7.5616   7.6126   7.6575   7.7481
     7.7863   7.8546   7.8779   7.9917   8.0283   8.0857   8.1280   8.4076
     8.4135   8.4284   8.5122   8.5355   8.6308   8.6470   8.6660   8.7540
     8.8139   8.9740   9.0211   9.0879   9.1403   9.1536   9.1693   9.2690
     9.2719   9.3214   9.3592   9.3751   9.4049   9.4125   9.4439   9.5343
     9.7606   9.8677   9.9398   9.9484  10.0445  10.0780  10.0945  10.1089
    12.3378  12.4130  12.4685  12.4853  12.5249  12.6299  13.5869  13.6182
    13.6240  13.6439  13.8264  13.8423  13.8693  13.8724  13.8836  13.8838
    13.9198  13.9341  14.1127  14.1439  14.2638  14.3661  14.3719  14.4476
    14.4516  14.4592  14.6547  14.6986  14.8260  14.9987  15.1561  15.3744
    15.5163  15.6461  16.0164  16.4073  16.5697  16.7708  16.9134  17.1425

          k = 0.0000 0.2500 0.2473 ( 27257 PWs)   bands (ev):

   -45.9846 -45.9839 -45.9838 -45.9835 -45.9831 -45.9828 -45.9827 -45.9821
   -22.4264 -22.4239 -22.4230 -22.4211 -22.3915 -22.3898 -22.3891 -22.3875
   -22.3781 -22.3758 -22.3756 -22.3738 -22.3705 -22.3683 -22.3672 -22.3655
   -22.3313 -22.3298 -22.3290 -22.3276 -22.3228 -22.3215 -22.3213 -22.3200
   -14.5086 -14.4319 -14.4251 -14.3962 -14.3702 -14.3468 -14.3411 -14.2961
    -6.7278  -6.7015  -6.6828  -6.5946  -6.3800  -6.3234  -6.2646  -5.9476
    -5.9207  -5.9190  -5.8924  -5.8752  -5.8625  -5.8452  -5.8248  -5.7959
    -5.7808  -5.7602  -5.7467  -5.7442  -5.6994  -5.6648  -5.6575  -5.6176
    -0.3311  -0.2858  -0.1155   0.1134   0.1648   0.1718   0.1836   0.2548
     0.2768   0.3048   0.3322   0.3707   0.3761   0.3989   0.4292   0.4482
     0.4641   0.5061   0.5086   0.5336   0.5500   0.6017   0.6017   0.6341
     5.9087   6.0006   6.0193   6.1527   6.1755   6.3657   6.3694   6.4282
     6.4606   6.5046   6.5270   6.5384   6.5603   6.6415   6.6990   7.2327
     7.3303   7.3448   7.3627   7.3925   7.4073   7.4472   7.4508   7.4824
     7.4839   7.4894   7.5376   7.5916   7.6123   7.6599   7.6824   7.6887
     7.7137   7.7549   7.7551   7.8324   7.8428   8.1355   8.1592   8.2045
     8.2679   8.4103   8.5323   8.5444   8.5958   8.6341   8.7187   8.9711
     8.9821   8.9851   9.0109   9.0311   9.1375   9.1540   9.2165   9.2184
     9.2185   9.2816   9.2976   9.3271   9.3345   9.3439   9.4106   9.4254
     9.6947   9.7607   9.7842   9.8817   9.9145   9.9402  10.0952  10.1142
    12.3739  12.4659  12.6382  12.6961  12.7074  12.8366  13.5936  13.6083
    13.6421  13.6421  13.6718  13.6992  13.7450  13.7480  13.8421  13.8911
    13.9073  13.9532  13.9896  14.1667  14.1761  14.2460  14.3297  14.3518
    14.5945  14.6533  14.7081  15.0314  15.0796  15.1346  15.4485  15.6346
    15.6391  15.8018  16.2056  16.3585  16.5234  16.8465  16.9592  17.0495

          k = 0.0000 0.2500-0.4946 ( 27256 PWs)   bands (ev):

   -45.9842 -45.9842 -45.9835 -45.9835 -45.9832 -45.9832 -45.9824 -45.9824
   -22.4090 -22.4090 -22.4069 -22.4069 -22.4061 -22.4061 -22.4043 -22.4043
   -22.3769 -22.3769 -22.3747 -22.3747 -22.3694 -22.3694 -22.3664 -22.3663
   -22.3306 -22.3306 -22.3283 -22.3283 -22.3222 -22.3221 -22.3207 -22.3206
   -14.4706 -14.4706 -14.3979 -14.3978 -14.3717 -14.3716 -14.3187 -14.3186
    -6.6104  -6.6103  -6.5580  -6.5579  -6.5049  -6.5048  -6.1350  -6.1349
    -5.9108  -5.9107  -5.8973  -5.8973  -5.8505  -5.8504  -5.8305  -5.8304
    -5.7330  -5.7328  -5.7166  -5.7164  -5.7048  -5.7047  -5.6812  -5.6810
    -0.1438  -0.1437  -0.0627  -0.0626   0.1984   0.1985   0.2063   0.2064
     0.2989   0.2990   0.3082   0.3082   0.3525   0.3526   0.3891   0.3892
     0.5106   0.5107   0.5315   0.5315   0.5496   0.5496   0.5628   0.5628
     5.9902   5.9903   6.1239   6.1239   6.3331   6.3332   6.5673   6.5673
     6.7625   6.7626   6.8148   6.8149   6.9266   6.9267   6.9674   6.9674
     7.0157   7.0159   7.1124   7.1125   7.1684   7.1686   7.3984   7.3985
     7.4731   7.4732   7.5163   7.5164   7.6975   7.6976   7.7208   7.7209
     7.7671   7.7671   7.8093   7.8093   7.9517   7.9518   8.0154   8.0155
     8.3100   8.3101   8.3805   8.3805   8.7260   8.7261   8.8125   8.8126
     8.9147   8.9148   9.0718   9.0719   9.1222   9.1222   9.1334   9.1334
     9.1586   9.1587   9.4514   9.4514   9.5451   9.5452   9.5541   9.5541
     9.5970   9.5970   9.6104   9.6104   9.6550   9.6551  10.1020  10.1022
    12.4202  12.4203  13.1673  13.1674  13.1736  13.1736  13.2041  13.2042
    13.3013  13.3014  13.6101  13.6101  13.7660  13.7661  13.8757  13.8757
    13.9865  13.9866  13.9917  13.9918  14.1329  14.1330  14.2558  14.2559
    14.6437  14.6437  15.0225  15.0225  15.4904  15.4905  15.7801  15.7802
    16.2751  16.2753  16.3450  16.3452  16.5677  16.5678  16.8005  16.8007

          k = 0.0000-0.5000 0.0000 ( 27234 PWs)   bands (ev):

   -45.9843 -45.9843 -45.9834 -45.9834 -45.9832 -45.9832 -45.9823 -45.9823
   -22.4322 -22.4322 -22.4290 -22.4290 -22.3835 -22.3835 -22.3812 -22.3812
   -22.3773 -22.3773 -22.3743 -22.3743 -22.3514 -22.3514 -22.3487 -22.3487
   -22.3484 -22.3484 -22.3463 -22.3463 -22.3224 -22.3224 -22.3204 -22.3204
   -14.4807 -14.4807 -14.3873 -14.3873 -14.3785 -14.3784 -14.3117 -14.3117
    -6.6832  -6.6832  -6.5960  -6.5960  -6.5293  -6.5293  -5.9238  -5.9238
    -5.9133  -5.9133  -5.8645  -5.8644  -5.8329  -5.8329  -5.8314  -5.8314
    -5.7860  -5.7860  -5.7700  -5.7700  -5.7129  -5.7129  -5.6755  -5.6755
    -0.1349  -0.1349  -0.0856  -0.0856   0.0459   0.0459   0.3177   0.3177
     0.3203   0.3203   0.3572   0.3572   0.3718   0.3718   0.4359   0.4359
     0.4890   0.4891   0.4952   0.4952   0.5506   0.5506   0.5546   0.5546
     5.8952   5.8952   6.0892   6.0892   6.1266   6.1266   6.4007   6.4007
     6.6582   6.6583   6.7743   6.7743   6.9875   6.9875   7.0286   7.0286
     7.0488   7.0488   7.1189   7.1189   7.2053   7.2053   7.4319   7.4319
     7.4708   7.4708   7.6839   7.6839   7.7175   7.7176   7.7181   7.7181
     7.7269   7.7269   7.7774   7.7774   7.8284   7.8284   8.3062   8.3062
     8.5238   8.5238   8.6237   8.6237   8.7030   8.7030   8.7484   8.7484
     8.8051   8.8051   8.9662   8.9662   8.9932   8.9932   9.1416   9.1416
     9.1593   9.1593   9.4877   9.4877   9.6144   9.6144   9.6192   9.6192
     9.6343   9.6343   9.7274   9.7274   9.7535   9.7536  10.0701  10.0701
    12.4196  12.4196  13.0242  13.0242  13.0522  13.0522  13.0872  13.0872
    13.1056  13.1056  13.8718  13.8718  13.8776  13.8776  13.9185  13.9185
    13.9448  13.9448  14.1240  14.1240  14.1311  14.1311  14.3555  14.3555
    14.4625  14.4625  14.9622  14.9622  15.0160  15.0160  15.5310  15.5311
    16.1438  16.1439  16.2841  16.2841  16.4869  16.4869  17.0746  17.0746

          k = 0.0000-0.5000 0.2473 ( 27230 PWs)   bands (ev):

   -45.9842 -45.9842 -45.9835 -45.9835 -45.9831 -45.9831 -45.9824 -45.9824
   -22.4251 -22.4251 -22.4220 -22.4220 -22.3906 -22.3906 -22.3883 -22.3883
   -22.3768 -22.3768 -22.3748 -22.3748 -22.3510 -22.3510 -22.3491 -22.3491
   -22.3481 -22.3481 -22.3466 -22.3466 -22.3221 -22.3221 -22.3207 -22.3207
   -14.4673 -14.4673 -14.4013 -14.4013 -14.3688 -14.3688 -14.3216 -14.3216
    -6.6378  -6.6378  -6.5232  -6.5232  -6.5211  -6.5210  -6.0889  -6.0888
    -5.9202  -5.9202  -5.8832  -5.8832  -5.8170  -5.8170  -5.7975  -5.7975
    -5.7810  -5.7810  -5.7786  -5.7785  -5.7059  -5.7059  -5.6795  -5.6795
    -0.1177  -0.1177  -0.0573  -0.0573   0.1763   0.1763   0.2047   0.2047
     0.2898   0.2898   0.3062   0.3062   0.3459   0.3459   0.3968   0.3968
     0.5232   0.5232   0.5322   0.5322   0.5379   0.5379   0.5558   0.5558
     6.0023   6.0023   6.1159   6.1159   6.2925   6.2925   6.5444   6.5444
     6.7819   6.7819   6.8068   6.8069   6.9450   6.9450   6.9713   6.9713
     7.0404   7.0405   7.1679   7.1680   7.1976   7.1976   7.4282   7.4282
     7.5070   7.5070   7.5497   7.5497   7.7063   7.7063   7.7342   7.7342
     7.7475   7.7475   7.7659   7.7659   7.8290   7.8290   7.9793   7.9793
     8.3404   8.3404   8.3690   8.3690   8.7332   8.7332   8.8341   8.8341
     9.0293   9.0293   9.0358   9.0358   9.0445   9.0445   9.1209   9.1210
     9.1764   9.1764   9.3945   9.3945   9.4963   9.4963   9.5723   9.5723
     9.6485   9.6485   9.7021   9.7021   9.7320   9.7320   9.9483   9.9483
    12.6500  12.6500  13.0399  13.0400  13.0735  13.0735  13.1253  13.1253
    13.2576  13.2576  13.6822  13.6822  13.7443  13.7443  13.9187  13.9187
    13.9668  13.9668  13.9731  13.9731  14.1021  14.1022  14.2558  14.2558
    14.6979  14.6979  15.0026  15.0026  15.3929  15.3930  15.7172  15.7173
    16.3262  16.3262  16.5223  16.5223  16.5777  16.5777  16.9063  16.9063

          k = 0.0000-0.5000-0.4946 ( 27248 PWs)   bands (ev):

   -45.9839 -45.9839 -45.9839 -45.9839 -45.9828 -45.9828 -45.9828 -45.9828
   -22.4080 -22.4080 -22.4080 -22.4080 -22.4052 -22.4052 -22.4052 -22.4052
   -22.3758 -22.3758 -22.3758 -22.3758 -22.3500 -22.3500 -22.3500 -22.3500
   -22.3474 -22.3474 -22.3474 -22.3474 -22.3214 -22.3214 -22.3214 -22.3214
   -14.4346 -14.4346 -14.4345 -14.4345 -14.3454 -14.3454 -14.3453 -14.3453
    -6.5530  -6.5530  -6.5528  -6.5528  -6.3260  -6.3260  -6.3258  -6.3258
    -5.9292  -5.9292  -5.9291  -5.9291  -5.7907  -5.7907  -5.7906  -5.7905
    -5.7846  -5.7846  -5.7845  -5.7845  -5.6914  -5.6914  -5.6912  -5.6912
    -0.0279  -0.0279  -0.0278  -0.0278   0.1382   0.1382   0.1382   0.1383
     0.2689   0.2689   0.2689   0.2689   0.4306   0.4306   0.4306   0.4306
     0.4587   0.4587   0.4588   0.4588   0.5663   0.5663   0.5663   0.5663
     6.0894   6.0894   6.0895   6.0895   6.7146   6.7146   6.7147   6.7147
     6.8698   6.8699   6.8699   6.8699   7.0070   7.0070   7.0071   7.0071
     7.0811   7.0811   7.0811   7.0812   7.1580   7.1580   7.1581   7.1582
     7.5176   7.5176   7.5177   7.5177   7.6609   7.6609   7.6610   7.6610
     7.7215   7.7215   7.7216   7.7216   7.9479   7.9479   7.9479   7.9479
     8.0489   8.0489   8.0490   8.0490   8.7067   8.7067   8.7067   8.7067
     9.1554   9.1554   9.1554   9.1554   9.1978   9.1978   9.1979   9.1979
     9.2322   9.2322   9.2322   9.2323   9.5426   9.5426   9.5426   9.5426
     9.6538   9.6538   9.6538   9.6538   9.7180   9.7181   9.7182   9.7182
    13.0235  13.0235  13.0236  13.0236  13.2163  13.2163  13.2164  13.2164
    13.3847  13.3848  13.3848  13.3848  13.6095  13.6095  13.6096  13.6096
    14.0284  14.0284  14.0284  14.0284  14.0701  14.0701  14.0701  14.0701
    14.9328  14.9328  14.9328  14.9328  16.2034  16.2035  16.2036  16.2036
    16.3166  16.3167  16.3168  16.3168  16.7895  16.7895  16.7896  16.7897

          k = 0.2500 0.2500 0.0000 ( 27250 PWs)   bands (ev):

   -45.9845 -45.9838 -45.9838 -45.9836 -45.9830 -45.9829 -45.9829 -45.9821
   -22.4330 -22.4305 -22.4305 -22.4284 -22.3839 -22.3823 -22.3823 -22.3808
   -22.3705 -22.3705 -22.3682 -22.3678 -22.3674 -22.3674 -22.3657 -22.3654
   -22.3315 -22.3311 -22.3296 -22.3296 -22.3293 -22.3291 -22.3276 -22.3276
   -14.5073 -14.4239 -14.4239 -14.4042 -14.3631 -14.3482 -14.3482 -14.2973
    -6.7333  -6.7333  -6.6474  -6.6070  -6.4469  -6.2300  -6.2300  -5.9231
    -5.9023  -5.9023  -5.8777  -5.8777  -5.8519  -5.8293  -5.8112  -5.8065
    -5.7982  -5.7700  -5.7626  -5.7603  -5.7603  -5.6594  -5.6594  -5.6525
    -0.3539  -0.2327  -0.1358   0.1195   0.1195   0.2211   0.2381   0.2382
     0.2745   0.2900   0.3222   0.3619   0.3715   0.3716   0.4370   0.4519
     0.4519   0.5023   0.5023   0.5383   0.5841   0.5987   0.6042   0.6042
     5.9107   6.0123   6.0124   6.1224   6.1373   6.3794   6.3794   6.4228
     6.4228   6.4960   6.5174   6.6260   6.6260   6.6429   6.6485   7.1230
     7.3688   7.3916   7.3916   7.4330   7.4601   7.4700   7.4700   7.4869
     7.5040   7.5276   7.5276   7.6063   7.6063   7.6161   7.6792   7.6792
     7.7473   7.7511   7.7977   7.8254   7.8477   8.0698   8.0698   8.2595
     8.2595   8.4345   8.5202   8.5202   8.5424   8.5942   8.8492   8.8492
     8.9422   8.9516   8.9769   9.0454   9.0564   9.1166   9.1834   9.2605
     9.2605   9.2888   9.2888   9.3224   9.3628   9.3628   9.4575   9.4575
     9.7960   9.7999   9.8937   9.9282   9.9406   9.9406  10.0064  10.0264
    12.4550  12.5956  12.6018  12.6093  12.6093  12.7133  13.5806  13.6063
    13.6063  13.6332  13.6332  13.7001  13.7174  13.7174  13.8440  13.8767
    13.9230  13.9230  14.0090  14.1507  14.1507  14.2381  14.3260  14.3357
    14.6903  14.7166  14.7166  15.0067  15.0187  15.0321  15.6290  15.6290
    15.6810  15.7759  16.2391  16.2391  16.6954  17.0429  17.0909  17.0939

          k = 0.2500 0.2500 0.2473 ( 27249 PWs)   bands (ev):

   -45.9844 -45.9837 -45.9836 -45.9836 -45.9830 -45.9830 -45.9829 -45.9822
   -22.4259 -22.4235 -22.4235 -22.4215 -22.3912 -22.3894 -22.3894 -22.3878
   -22.3700 -22.3700 -22.3679 -22.3679 -22.3679 -22.3675 -22.3660 -22.3658
   -22.3312 -22.3308 -22.3296 -22.3294 -22.3293 -22.3293 -22.3279 -22.3279
   -14.4925 -14.4196 -14.4130 -14.4130 -14.3595 -14.3595 -14.3536 -14.3071
    -6.6646  -6.6646  -6.6154  -6.5822  -6.3738  -6.3078  -6.3078  -5.9740
    -5.9366  -5.8968  -5.8968  -5.8720  -5.8720  -5.8441  -5.8239  -5.8061
    -5.7851  -5.7557  -5.7535  -5.7463  -5.7463  -5.6811  -5.6811  -5.6762
    -0.2728  -0.2372   0.0464   0.1332   0.1592   0.1592   0.1928   0.2194
     0.2194   0.2773   0.2831   0.2882   0.3008   0.3008   0.3995   0.3996
     0.4182   0.5331   0.5552   0.5613   0.5613   0.6411   0.6411   0.6551
     6.0413   6.1390   6.1520   6.1520   6.3383   6.3870   6.3870   6.4841
     6.4841   6.6287   6.6321   6.6425   6.6467   6.7249   6.7249   7.1781
     7.2225   7.2225   7.3050   7.3180   7.4763   7.4763   7.4805   7.4869
     7.4869   7.5289   7.6115   7.6115   7.6318   7.6472   7.6773   7.6777
     7.6777   7.7162   7.7376   7.7473   7.8878   7.8878   7.9027   8.1924
     8.2884   8.2885   8.3271   8.3536   8.5667   8.5667   8.7971   8.9845
     9.0064   9.0341   9.0341   9.0722   9.1433   9.1433   9.1513   9.2320
     9.2320   9.2706   9.2876   9.3509   9.3509   9.3835   9.4008   9.4008
     9.6672   9.7176   9.7518   9.8106   9.8687   9.8687  10.0104  10.0183
    12.5685  12.6926  12.7301  12.7544  12.8158  12.8158  13.6272  13.6272
    13.6436  13.6655  13.6656  13.6815  13.6851  13.6851  13.6873  13.7524
    13.7524  13.7751  14.0288  14.0288  14.0422  14.1860  14.2073  14.2293
    15.0119  15.0274  15.0469  15.0469  15.0915  15.4674  15.6148  15.6148
    15.9121  16.0403  16.3492  16.3492  16.4765  16.9949  17.4230  17.4244

          k = 0.2500 0.2500-0.4946 ( 27298 PWs)   bands (ev):

   -45.9841 -45.9841 -45.9833 -45.9833 -45.9833 -45.9833 -45.9826 -45.9826
   -22.4086 -22.4086 -22.4065 -22.4065 -22.4065 -22.4065 -22.4047 -22.4047
   -22.3690 -22.3690 -22.3690 -22.3690 -22.3670 -22.3670 -22.3666 -22.3666
   -22.3304 -22.3304 -22.3301 -22.3301 -22.3286 -22.3286 -22.3286 -22.3286
   -14.4564 -14.4564 -14.3865 -14.3865 -14.3864 -14.3864 -14.3305 -14.3304
    -6.5681  -6.5680  -6.4919  -6.4919  -6.4917  -6.4917  -6.1877  -6.1876
    -5.9163  -5.9162  -5.8738  -5.8738  -5.8738  -5.8737  -5.8253  -5.8252
    -5.7444  -5.7443  -5.7319  -5.7317  -5.7217  -5.7217  -5.7215  -5.7215
    -0.0795  -0.0794  -0.0731  -0.0731   0.2106   0.2107   0.2107   0.2107
     0.2832   0.2833   0.2898   0.2898   0.2898   0.2899   0.3077   0.3078
     0.3406   0.3406   0.6370   0.6370   0.6371   0.6371   0.6409   0.6409
     6.1377   6.1378   6.3034   6.3034   6.3035   6.3035   6.6436   6.6437
     6.8228   6.8228   6.8228   6.8228   6.8460   6.8461   6.9219   6.9219
     7.1232   7.1232   7.1233   7.1233   7.2451   7.2452   7.3955   7.3955
     7.5067   7.5067   7.5068   7.5068   7.6061   7.6062   7.7028   7.7028
     7.7687   7.7687   7.8294   7.8294   7.8295   7.8295   8.0078   8.0079
     8.0626   8.0627   8.3497   8.3497   8.3497   8.3497   8.7630   8.7630
     9.0948   9.0948   9.0948   9.0948   9.1334   9.1335   9.2982   9.2982
     9.2983   9.2983   9.3987   9.3988   9.4976   9.4976   9.5417   9.5418
     9.5460   9.5460   9.6135   9.6135   9.6135   9.6135  10.0086  10.0088
    12.6400  12.6401  13.1803  13.1804  13.2075  13.2076  13.2797  13.2797
    13.2798  13.2798  13.6705  13.6705  13.6706  13.6706  13.8026  13.8026
    13.8027  13.8027  13.9379  13.9380  13.9715  13.9715  14.1245  14.1246
    15.0201  15.0201  15.4850  15.4850  15.4851  15.4851  15.8684  15.8685
    16.3855  16.3857  16.4859  16.4861  16.7652  16.7654  16.8130  16.8131

          k = 0.2500-0.5000 0.0000 ( 27244 PWs)   bands (ev):

   -45.9842 -45.9842 -45.9834 -45.9834 -45.9832 -45.9832 -45.9825 -45.9825
   -22.4318 -22.4318 -22.4294 -22.4294 -22.3831 -22.3831 -22.3816 -22.3816
   -22.3693 -22.3693 -22.3665 -22.3665 -22.3510 -22.3510 -22.3489 -22.3489
   -22.3483 -22.3483 -22.3467 -22.3467 -22.3304 -22.3304 -22.3284 -22.3284
   -14.4660 -14.4660 -14.3937 -14.3937 -14.3764 -14.3764 -14.3229 -14.3229
    -6.6477  -6.6477  -6.5849  -6.5849  -6.4530  -6.4530  -6.0351  -6.0351
    -5.8920  -5.8920  -5.8609  -5.8609  -5.8355  -5.8355  -5.8349  -5.8349
    -5.7929  -5.7929  -5.7682  -5.7682  -5.7269  -5.7269  -5.7034  -5.7034
    -0.1529  -0.1529  -0.0022  -0.0022   0.1700   0.1700   0.1917   0.1917
     0.2709   0.2709   0.3013   0.3013   0.3846   0.3846   0.4042   0.4042
     0.4886   0.4886   0.5356   0.5356   0.5460   0.5461   0.5516   0.5516
     5.9967   5.9967   6.0916   6.0916   6.3202   6.3202   6.5398   6.5398
     6.6752   6.6752   6.9259   6.9259   6.9291   6.9292   6.9635   6.9636
     7.0963   7.0964   7.1208   7.1209   7.1844   7.1844   7.4440   7.4440
     7.5260   7.5260   7.5487   7.5487   7.7002   7.7002   7.7154   7.7154
     7.7502   7.7502   7.8376   7.8376   7.8757   7.8757   8.0665   8.0665
     8.2907   8.2907   8.4412   8.4412   8.5380   8.5380   8.6592   8.6592
     8.9629   8.9629   8.9702   8.9703   9.0803   9.0803   9.1848   9.1848
     9.2376   9.2376   9.5325   9.5325   9.5948   9.5948   9.5956   9.5956
     9.6078   9.6078   9.6423   9.6423   9.7725   9.7725   9.9519   9.9519
    12.5571  12.5571  13.0638  13.0638  13.0851  13.0852  13.1062  13.1062
    13.2286  13.2286  13.6408  13.6408  13.7607  13.7607  13.8888  13.8888
    13.9566  13.9566  13.9615  13.9615  14.0971  14.0971  14.2408  14.2408
    14.7320  14.7320  14.9771  14.9772  15.4702  15.4702  15.7299  15.7299
    16.3969  16.3970  16.5159  16.5159  16.5312  16.5313  16.8843  16.8844

          k = 0.2500-0.5000 0.2473 ( 27256 PWs)   bands (ev):

   -45.9840 -45.9840 -45.9834 -45.9834 -45.9833 -45.9833 -45.9826 -45.9826
   -22.4247 -22.4247 -22.4225 -22.4225 -22.3903 -22.3903 -22.3886 -22.3886
   -22.3689 -22.3689 -22.3669 -22.3669 -22.3506 -22.3506 -22.3487 -22.3487
   -22.3485 -22.3485 -22.3470 -22.3470 -22.3301 -22.3301 -22.3287 -22.3287
   -14.4532 -14.4531 -14.3898 -14.3898 -14.3835 -14.3835 -14.3335 -14.3335
    -6.5981  -6.5981  -6.5140  -6.5140  -6.4532  -6.4532  -6.1337  -6.1336
    -5.9001  -5.9001  -5.8771  -5.8771  -5.8372  -5.8372  -5.8230  -5.8230
    -5.7979  -5.7978  -5.7710  -5.7710  -5.7322  -5.7322  -5.7118  -5.7118
    -0.0928  -0.0928  -0.0336  -0.0335   0.1853   0.1854   0.1866   0.1866
     0.2860   0.2860   0.2913   0.2914   0.2987   0.2987   0.3216   0.3216
     0.3412   0.3412   0.6294   0.6294   0.6369   0.6369   0.6381   0.6381
     6.1433   6.1433   6.2785   6.2785   6.2959   6.2959   6.6074   6.6074
     6.7649   6.7649   6.8707   6.8707   6.8914   6.8914   6.9177   6.9177
     7.1262   7.1262   7.1877   7.1878   7.2375   7.2375   7.4264   7.4264
     7.5327   7.5328   7.5364   7.5364   7.6040   7.6041   7.7093   7.7093
     7.7881   7.7881   7.7905   7.7906   7.8200   7.8200   8.0242   8.0243
     8.0751   8.0751   8.2507   8.2507   8.4574   8.4574   8.5795   8.5795
     9.0992   9.0992   9.1072   9.1072   9.1380   9.1380   9.2034   9.2034
     9.3183   9.3183   9.4630   9.4630   9.4641   9.4641   9.5682   9.5682
     9.6100   9.6100   9.6566   9.6567   9.7422   9.7422   9.8654   9.8654
    12.7602  12.7602  13.1152  13.1153  13.1627  13.1627  13.2070  13.2071
    13.2334  13.2334  13.6984  13.6984  13.6999  13.6999  13.7862  13.7862
    13.7931  13.7931  13.9111  13.9111  13.9570  13.9570  14.1208  14.1208
    15.0670  15.0670  15.4088  15.4089  15.4668  15.4668  15.8148  15.8148
    16.5391  16.5391  16.5658  16.5659  16.7378  16.7378  16.9102  16.9105

          k = 0.2500-0.5000-0.4946 ( 27252 PWs)   bands (ev):

   -45.9837 -45.9837 -45.9837 -45.9837 -45.9829 -45.9829 -45.9829 -45.9829
   -22.4076 -22.4076 -22.4075 -22.4075 -22.4056 -22.4056 -22.4056 -22.4056
   -22.3679 -22.3679 -22.3679 -22.3679 -22.3497 -22.3497 -22.3496 -22.3496
   -22.3478 -22.3478 -22.3478 -22.3478 -22.3294 -22.3294 -22.3294 -22.3294
   -14.4218 -14.4218 -14.4217 -14.4217 -14.3587 -14.3587 -14.3586 -14.3586
    -6.4996  -6.4996  -6.4995  -6.4995  -6.3342  -6.3342  -6.3340  -6.3340
    -5.9150  -5.9150  -5.9149  -5.9149  -5.8129  -5.8129  -5.8128  -5.8128
    -5.7883  -5.7883  -5.7882  -5.7881  -5.7320  -5.7320  -5.7318  -5.7318
     0.0148   0.0148   0.0149   0.0149   0.0901   0.0901   0.0901   0.0902
     0.2234   0.2234   0.2235   0.2235   0.2714   0.2714   0.2714   0.2714
     0.5500   0.5500   0.5500   0.5500   0.6942   0.6942   0.6943   0.6943
     6.2568   6.2568   6.2569   6.2569   6.6211   6.6211   6.6212   6.6212
     6.8286   6.8286   6.8286   6.8286   7.0815   7.0815   7.0816   7.0816
     7.0977   7.0977   7.0977   7.0977   7.3084   7.3084   7.3084   7.3085
     7.3937   7.3937   7.3938   7.3938   7.7296   7.7297   7.7297   7.7297
     7.7375   7.7375   7.7375   7.7376   7.8804   7.8804   7.8805   7.8805
     7.9396   7.9396   7.9397   7.9397   8.3799   8.3799   8.3800   8.3800
     9.2193   9.2193   9.2193   9.2193   9.2865   9.2865   9.2865   9.2865
     9.3826   9.3826   9.3827   9.3827   9.5344   9.5344   9.5344   9.5344
     9.5921   9.5921   9.5921   9.5921   9.7113   9.7113   9.7115   9.7115
    13.1302  13.1303  13.1303  13.1303  13.2720  13.2720  13.2721  13.2721
    13.4253  13.4253  13.4254  13.4254  13.5778  13.5778  13.5778  13.5778
    13.8474  13.8474  13.8474  13.8475  13.8968  13.8968  13.8968  13.8968
    15.4101  15.4101  15.4101  15.4101  16.2314  16.2315  16.2316  16.2316
    16.3087  16.3088  16.3089  16.3089  16.9864  16.9864  16.9865  16.9865

          k =-0.5000-0.5000 0.0000 ( 27260 PWs)   bands (ev):

   -45.9838 -45.9838 -45.9838 -45.9838 -45.9829 -45.9829 -45.9829 -45.9829
   -22.4306 -22.4306 -22.4306 -22.4306 -22.3824 -22.3824 -22.3824 -22.3824
   -22.3503 -22.3503 -22.3503 -22.3503 -22.3495 -22.3495 -22.3495 -22.3495
   -22.3477 -22.3477 -22.3477 -22.3477 -22.3473 -22.3473 -22.3473 -22.3473
   -14.4302 -14.4302 -14.4302 -14.4302 -14.3499 -14.3499 -14.3498 -14.3498
    -6.5915  -6.5915  -6.5915  -6.5915  -6.2577  -6.2577  -6.2577  -6.2577
    -5.8464  -5.8464  -5.8464  -5.8464  -5.8303  -5.8303  -5.8303  -5.8303
    -5.8228  -5.8227  -5.8227  -5.8227  -5.7272  -5.7272  -5.7272  -5.7272
    -0.0488  -0.0488  -0.0488  -0.0487   0.1951   0.1951   0.1952   0.1952
     0.2489   0.2489   0.2489   0.2489   0.4203   0.4203   0.4203   0.4203
     0.4484   0.4484   0.4484   0.4484   0.5666   0.5666   0.5667   0.5667
     6.0787   6.0787   6.0787   6.0787   6.7061   6.7061   6.7061   6.7061
     6.7198   6.7198   6.7198   6.7199   7.1363   7.1364   7.1364   7.1364
     7.1416   7.1416   7.1416   7.1416   7.2071   7.2072   7.2072   7.2072
     7.5067   7.5067   7.5067   7.5067   7.6755   7.6755   7.6755   7.6755
     7.7425   7.7425   7.7425   7.7425   8.0506   8.0506   8.0506   8.0507
     8.0617   8.0617   8.0617   8.0617   8.3558   8.3558   8.3558   8.3558
     9.1001   9.1001   9.1001   9.1002   9.3320   9.3320   9.3320   9.3320
     9.3608   9.3608   9.3608   9.3608   9.5362   9.5362   9.5362   9.5362
     9.6244   9.6244   9.6244   9.6245   9.7530   9.7530   9.7530   9.7530
    12.9613  12.9613  12.9613  12.9613  13.1891  13.1891  13.1891  13.1891
    13.3774  13.3774  13.3774  13.3774  13.5852  13.5852  13.5852  13.5852
    14.0077  14.0077  14.0077  14.0077  14.0441  14.0441  14.0441  14.0441
    14.9503  14.9504  14.9504  14.9504  16.2530  16.2531  16.2531  16.2531
    16.3401  16.3401  16.3401  16.3401  16.9007  16.9008  16.9008  16.9008

          k =-0.5000-0.5000 0.2473 ( 27236 PWs)   bands (ev):

   -45.9837 -45.9837 -45.9837 -45.9837 -45.9830 -45.9830 -45.9830 -45.9830
   -22.4236 -22.4236 -22.4236 -22.4236 -22.3895 -22.3895 -22.3895 -22.3895
   -22.3500 -22.3500 -22.3500 -22.3500 -22.3492 -22.3492 -22.3492 -22.3492
   -22.3481 -22.3481 -22.3481 -22.3481 -22.3476 -22.3476 -22.3476 -22.3476
   -14.4187 -14.4186 -14.4186 -14.4186 -14.3619 -14.3618 -14.3618 -14.3618
    -6.5311  -6.5311  -6.5311  -6.5311  -6.2847  -6.2847  -6.2847  -6.2846
    -5.8678  -5.8678  -5.8678  -5.8678  -5.8403  -5.8403  -5.8403  -5.8403
    -5.8157  -5.8157  -5.8157  -5.8157  -5.7428  -5.7428  -5.7428  -5.7428
    -0.0049  -0.0049  -0.0049  -0.0049   0.1269   0.1270   0.1270   0.1270
     0.2055   0.2055   0.2056   0.2056   0.2734   0.2735   0.2735   0.2735
     0.5516   0.5516   0.5517   0.5517   0.6892   0.6892   0.6892   0.6892
     6.2505   6.2505   6.2505   6.2505   6.6173   6.6173   6.6173   6.6173
     6.7401   6.7401   6.7401   6.7401   7.1424   7.1424   7.1424   7.1424
     7.1940   7.1940   7.1940   7.1940   7.3045   7.3045   7.3045   7.3045
     7.3675   7.3675   7.3675   7.3675   7.7490   7.7490   7.7490   7.7490
     7.7560   7.7560   7.7560   7.7560   7.9564   7.9564   7.9564   7.9564
     7.9600   7.9600   7.9600   7.9600   8.1739   8.1739   8.1739   8.1739
     9.2534   9.2535   9.2535   9.2535   9.2916   9.2916   9.2916   9.2916
     9.3958   9.3958   9.3958   9.3958   9.5278   9.5278   9.5278   9.5278
     9.6281   9.6281   9.6281   9.6281   9.7017   9.7017   9.7017   9.7017
    13.1172  13.1173  13.1173  13.1173  13.2692  13.2692  13.2692  13.2692
    13.4141  13.4141  13.4141  13.4141  13.5527  13.5527  13.5527  13.5527
    13.8423  13.8423  13.8423  13.8423  13.8842  13.8842  13.8842  13.8842
    15.3847  15.3847  15.3847  15.3847  16.2726  16.2726  16.2726  16.2726
    16.3321  16.3322  16.3322  16.3322  17.0799  17.0801  17.0802  17.0802

          k =-0.5000-0.5000-0.4946 ( 27256 PWs)   bands (ev):

   -45.9833 -45.9833 -45.9833 -45.9833 -45.9833 -45.9833 -45.9833 -45.9833
   -22.4066 -22.4066 -22.4066 -22.4066 -22.4066 -22.4066 -22.4066 -22.4066
   -22.3490 -22.3490 -22.3490 -22.3490 -22.3490 -22.3490 -22.3490 -22.3490
   -22.3484 -22.3484 -22.3484 -22.3484 -22.3484 -22.3484 -22.3484 -22.3484
   -14.3905 -14.3905 -14.3904 -14.3904 -14.3904 -14.3904 -14.3904 -14.3904
    -6.3927  -6.3927  -6.3927  -6.3927  -6.3926  -6.3926  -6.3926  -6.3926
    -5.8720  -5.8720  -5.8720  -5.8720  -5.8719  -5.8719  -5.8719  -5.8719
    -5.7798  -5.7798  -5.7798  -5.7798  -5.7797  -5.7796  -5.7796  -5.7796
     0.1005   0.1005   0.1006   0.1006   0.1006   0.1006   0.1006   0.1006
     0.1296   0.1296   0.1297   0.1297   0.1297   0.1297   0.1297   0.1297
     0.6963   0.6963   0.6963   0.6964   0.6964   0.6964   0.6964   0.6964
     6.4568   6.4568   6.4568   6.4568   6.4568   6.4569   6.4569   6.4569
     7.0757   7.0757   7.0757   7.0757   7.0758   7.0758   7.0758   7.0758
     7.1645   7.1645   7.1645   7.1645   7.1646   7.1646   7.1646   7.1646
     7.6697   7.6697   7.6697   7.6698   7.6698   7.6698   7.6698   7.6698
     7.8082   7.8082   7.8082   7.8083   7.8083   7.8083   7.8083   7.8083
     7.8184   7.8184   7.8184   7.8184   7.8185   7.8185   7.8185   7.8185
     9.4273   9.4273   9.4273   9.4273   9.4273   9.4273   9.4273   9.4273
     9.4311   9.4311   9.4311   9.4311   9.4312   9.4312   9.4312   9.4312
     9.6212   9.6213   9.6213   9.6213   9.6214   9.6214   9.6214   9.6214
    13.4389  13.4389  13.4389  13.4390  13.4390  13.4390  13.4390  13.4390
    13.5130  13.5130  13.5130  13.5130  13.5131  13.5131  13.5131  13.5131
    13.5438  13.5438  13.5438  13.5438  13.5439  13.5439  13.5439  13.5439
    16.2714  16.2714  16.2714  16.2715  16.2716  16.2716  16.2716  16.2716
    16.3076  16.3076  16.3076  16.3076  16.3076  16.3076  16.3076  16.3076

     highest occupied, lowest unoccupied level (ev):    10.2662   12.0430

!    total energy              =   -5887.13485029 Ry
     total all-electron energy =   -147371.588423 Ry
     estimated scf accuracy    <          6.8E-11 Ry

     The total energy is the sum of the following terms:
     one-electron contribution =    -548.14861974 Ry
     hartree contribution      =     480.62868995 Ry
     xc contribution           =    -485.46307920 Ry
     ewald contribution        =   -1653.96634398 Ry
     one-center paw contrib.   =   -3680.18549732 Ry

     convergence has been achieved in  48 iterations

     Forces acting on atoms (cartesian axes, Ry/au):

     atom    1 type  1   force =     0.00000000    0.00000000   -0.00146009
     atom    2 type  1   force =     0.00000000    0.00000000   -0.00143085
     atom    3 type  1   force =     0.00000000    0.00000000   -0.00144941
     atom    4 type  1   force =     0.00000000    0.00000000   -0.00143658
     atom    5 type  1   force =     0.00000000    0.00000000   -0.00144941
     atom    6 type  1   force =     0.00000000    0.00000000   -0.00143658
     atom    7 type  1   force =     0.00000000    0.00000000   -0.00146384
     atom    8 type  1   force =     0.00000000    0.00000000   -0.00142871
     atom    9 type  2   force =    -0.00000069   -0.00000069   -0.00152658
     atom   10 type  2   force =    -0.00000121   -0.00000121   -0.00151858
     atom   11 type  2   force =    -0.00000069    0.00000069   -0.00152658
     atom   12 type  2   force =    -0.00000121    0.00000121   -0.00151858
     atom   13 type  2   force =     0.00000069   -0.00000069   -0.00152658
     atom   14 type  2   force =     0.00000121   -0.00000121   -0.00151858
     atom   15 type  2   force =     0.00000069    0.00000069   -0.00152658
     atom   16 type  2   force =     0.00000121    0.00000121   -0.00151858
     atom   17 type  3   force =    -0.00000139   -0.00000139    0.00277104
     atom   18 type  3   force =    -0.00000228   -0.00000228    0.00277901
     atom   19 type  3   force =    -0.00000139    0.00000139    0.00277104
     atom   20 type  3   force =    -0.00000228    0.00000228    0.00277901
     atom   21 type  3   force =     0.00000139   -0.00000139    0.00277104
     atom   22 type  3   force =     0.00000228   -0.00000228    0.00277901
     atom   23 type  3   force =     0.00000139    0.00000139    0.00277104
     atom   24 type  3   force =     0.00000228    0.00000228    0.00277901
     atom   25 type  3   force =    -0.00000195    0.00000000    0.00009057
     atom   26 type  3   force =    -0.00000526    0.00000000    0.00009465
     atom   27 type  3   force =     0.00000092    0.00000000    0.00009500
     atom   28 type  3   force =     0.00000283    0.00000000    0.00010376
     atom   29 type  3   force =     0.00000195    0.00000000    0.00009057
     atom   30 type  3   force =     0.00000526    0.00000000    0.00009465
     atom   31 type  3   force =    -0.00000092    0.00000000    0.00009500
     atom   32 type  3   force =    -0.00000283    0.00000000    0.00010376
     atom   33 type  3   force =     0.00000000   -0.00000195    0.00009057
     atom   34 type  3   force =     0.00000000   -0.00000526    0.00009465
     atom   35 type  3   force =     0.00000000    0.00000195    0.00009057
     atom   36 type  3   force =     0.00000000    0.00000526    0.00009465
     atom   37 type  3   force =     0.00000000    0.00000092    0.00009500
     atom   38 type  3   force =     0.00000000    0.00000283    0.00010376
     atom   39 type  3   force =     0.00000000   -0.00000092    0.00009500
     atom   40 type  3   force =     0.00000000   -0.00000283    0.00010376

     Total force =     0.009848     Total SCF correction =     0.000004


     Computing stress (Cartesian axis) and pressure

          total   stress  (Ry/bohr**3)                   (kbar)     P=      -23.09
  -0.00018747   0.00000000   0.00000000          -27.58        0.00        0.00
   0.00000000  -0.00018747   0.00000000            0.00      -27.58        0.00
   0.00000000   0.00000000  -0.00009586            0.00        0.00      -14.10


     Writing all to output data dir ./tmp/60_ecut_4_kmesh_PBE.save/ :
     XML data file, charge density, pseudopotentials, collected wavefunctions

     init_run     :      1.83s CPU      1.90s WALL (       1 calls)
     electrons    :     90.27s CPU     92.93s WALL (       1 calls)
     forces       :      0.39s CPU      0.40s WALL (       1 calls)
     stress       :      0.88s CPU      0.90s WALL (       1 calls)

     Called by init_run:
     wfcinit      :      0.73s CPU      0.75s WALL (       1 calls)
     potinit      :      0.44s CPU      0.45s WALL (       1 calls)
     hinit0       :      0.42s CPU      0.43s WALL (       1 calls)

     Called by electrons:
     c_bands      :     77.15s CPU     79.13s WALL (      48 calls)
     sum_band     :      8.60s CPU      8.86s WALL (      48 calls)
     v_of_rho     :      1.06s CPU      1.29s WALL (      49 calls)
     newd         :      0.88s CPU      0.90s WALL (      49 calls)
     PAW_pot      :      2.09s CPU      2.13s WALL (      49 calls)
     mix_rho      :      0.19s CPU      0.21s WALL (      48 calls)

     Called by c_bands:
     init_us_2    :      1.33s CPU      1.35s WALL (     297 calls)
     cegterg      :     69.47s CPU     71.34s WALL (     147 calls)

     Called by *egterg:
     cdiaghg      :     13.46s CPU     14.13s WALL (     804 calls)
     h_psi        :     34.01s CPU     34.65s WALL (     810 calls)
     s_psi        :      4.72s CPU      4.77s WALL (     810 calls)
     g_psi        :      0.06s CPU      0.06s WALL (     660 calls)

     Called by h_psi:
     h_psi:calbec :      6.19s CPU      6.45s WALL (     810 calls)
     vloc_psi     :     22.81s CPU     23.11s WALL (     810 calls)
                                        0.00s GPU  (     810 calls)
     add_vuspsi   :      4.78s CPU      4.86s WALL (     810 calls)

     General routines
     calbec       :      9.09s CPU      9.45s WALL (    1005 calls)
     fft          :      1.00s CPU      1.31s WALL (     660 calls)
     ffts         :      0.17s CPU      0.18s WALL (      97 calls)
     fftw         :     25.57s CPU     25.89s WALL (  182934 calls)
     interpolate  :      0.21s CPU      0.24s WALL (      49 calls)

     Parallel routines

     PWSCF        :     94.62s CPU     98.75s WALL


   This run was terminated on:   3:56:59  21May2026            

=------------------------------------------------------------------------------=
   JOB DONE.
=------------------------------------------------------------------------------=
