
     Program PWSCF v.7.5 starts on 21May2026 at  4: 2: 6 

     This program is part of the open-source Quantum ESPRESSO suite
     for quantum simulation of materials; please cite
         "P. Giannozzi et al., J. Phys.:Condens. Matter 21 395502 (2009);
         "P. Giannozzi et al., J. Phys.:Condens. Matter 29 465901 (2017);
         "P. Giannozzi et al., J. Chem. Phys. 152 154105 (2020);
          URL http://www.quantum-espresso.org", 
     in publications or presentations arising from this work. More details at
     http://www.quantum-espresso.org/quote

     Parallel version (MPI & OpenMP), running on     192 processor cores
     Number of MPI processes:               192
     Threads/MPI process:                     1

     MPI processes distributed on     1 nodes
     417091 MiB available memory on the printing compute node when the environment starts

     Waiting for input...
     Reading input from standard input

     Current dimensions of program PWSCF are:
     Max number of different atomic species (ntypx) = 10
     Max number of k-points (npk) =  40000
     Max angular momentum in pseudopotentials (lmaxx) =  4
     file Ba.pbe-spn-kjpaw_psl.1.0.0.UPF: wavefunction(s)  5S 6S renormalized
     file Ti.pbe-spn-kjpaw_psl.1.0.0.UPF: wavefunction(s)  3S 3P 3D renormalized
     file O.pbe-n-kjpaw_psl.1.0.0.UPF: wavefunction(s)  2S 2P renormalized

     IMPORTANT: XC functional enforced from input :
     Exchange-correlation= PBESOL
                           (   1   4  10   8   0   0   0)
     Any further DFT definition will be discarded
     Please, verify this is what you really want

     Found identity + ( -0.5000 -0.5000  0.0000) symmetry
     This is a supercell, fractional translations are disabled

     K-points division:     npool     =       8
     R & G space division:  proc/nbgrp/npool/nimage =      24
     Subspace diagonalization in iterative solution of the eigenvalue problem:
     one sub-group per band group will be used
     ELPA distributed-memory algorithm (size of sub-group:  2*  2 procs)


     Parallelization info
     --------------------
     sticks:   dense  smooth     PW     G-vecs:    dense   smooth      PW
     Min         482     240     65                39550    13981    1967
     Max         485     242     66                39552    13987    1972
     Sum       11585    5785   1565               949235   335575   47241

     Using Slab Decomposition



     bravais-lattice index     =            6
     lattice parameter (alat)  =      15.0876  a.u.
     unit-cell volume          =    3472.3239 (a.u.)^3
     number of atoms/cell      =           40
     number of atomic types    =            3
     number of electrons       =       320.00
     number of Kohn-Sham states=          200
     kinetic-energy cutoff     =      80.0000  Ry
     charge density cutoff     =     640.0000  Ry
     scf convergence threshold =      1.0E-10
     mixing beta               =       0.3000
     number of iterations used =           16  plain     mixing
     Exchange-correlation= PBESOL
                           (   1   4  10   8   0   0   0)

     celldm(1)=  15.087600  celldm(2)=   0.000000  celldm(3)=   1.011020
     celldm(4)=   0.000000  celldm(5)=   0.000000  celldm(6)=   0.000000

     crystal axes: (cart. coord. in units of alat)
               a(1) = (   1.000000   0.000000   0.000000 )  
               a(2) = (   0.000000   1.000000   0.000000 )  
               a(3) = (   0.000000   0.000000   1.011020 )  

     reciprocal axes: (cart. coord. in units 2 pi/alat)
               b(1) = (  1.000000  0.000000  0.000000 )  
               b(2) = (  0.000000  1.000000  0.000000 )  
               b(3) = (  0.000000  0.000000  0.989100 )  


     PseudoPot. # 1 for Ba read from file:
     /home/kylay/scratch/BTO/pseuds/Ba.pbe-spn-kjpaw_psl.1.0.0.UPF
     MD5 check sum: 7cfe25f1fe7574a4710541d5a11d6531
     Pseudo is Projector augmented-wave + core cor, Zval = 10.0
     Generated using &quot;atomic&quot; code by A. Dal Corso  v.6.2.2
     Shape of augmentation charge: PSQ
     Using radial grid of 1251 points,  7 beta functions with: 
                l(1) =   0
                l(2) =   0
                l(3) =   0
                l(4) =   1
                l(5) =   1
                l(6) =   2
                l(7) =   2
     Q(r) pseudized with 0 coefficients 


     PseudoPot. # 2 for Ti read from file:
     /home/kylay/scratch/BTO/pseuds/Ti.pbe-spn-kjpaw_psl.1.0.0.UPF
     MD5 check sum: 01f69b0d8ba4438b2e03ac6ea4af1c0b
     Pseudo is Projector augmented-wave + core cor, Zval = 12.0
     Generated using &quot;atomic&quot; code by A. Dal Corso  v.6.2.2
     Shape of augmentation charge: PSQ
     Using radial grid of 1177 points,  6 beta functions with: 
                l(1) =   0
                l(2) =   0
                l(3) =   1
                l(4) =   1
                l(5) =   2
                l(6) =   2
     Q(r) pseudized with 0 coefficients 


     PseudoPot. # 3 for O  read from file:
     /home/kylay/scratch/BTO/pseuds/O.pbe-n-kjpaw_psl.1.0.0.UPF
     MD5 check sum: e99d9cef9b487d1ca56f5b95ecd0fd7a
     Pseudo is Projector augmented-wave + core cor, Zval =  6.0
     Generated using &quot;atomic&quot; code by A. Dal Corso  v.6.3
     Shape of augmentation charge: PSQ
     Using radial grid of 1095 points,  4 beta functions with: 
                l(1) =   0
                l(2) =   0
                l(3) =   1
                l(4) =   1
     Q(r) pseudized with 0 coefficients 


     atomic species   valence    mass     pseudopotential
     Ba               10.00   137.32700     Ba( 1.00)
     Ti               12.00    47.86700     Ti( 1.00)
     O                 6.00    15.99900     O ( 1.00)

      8 Sym. Ops. (no inversion) found



   Cartesian axes

     site n.     atom                  positions (alat units)
         1        Ba     tau(   1) = (   0.0000000   0.0000000  -0.0010787  )
         2        Ba     tau(   2) = (   0.0000000   0.0000000   0.5044220  )
         3        Ba     tau(   3) = (   0.0000000   0.5000000  -0.0010832  )
         4        Ba     tau(   4) = (   0.0000000   0.5000000   0.5044235  )
         5        Ba     tau(   5) = (   0.5000000   0.0000000  -0.0010832  )
         6        Ba     tau(   6) = (   0.5000000   0.0000000   0.5044235  )
         7        Ba     tau(   7) = (   0.5000000   0.5000000  -0.0010766  )
         8        Ba     tau(   8) = (   0.5000000   0.5000000   0.5044202  )
         9        Ti     tau(   9) = (   0.2500002   0.2500002   0.2436990  )
        10        Ti     tau(  10) = (   0.2500007   0.2500007   0.7492042  )
        11        Ti     tau(  11) = (   0.2500002   0.7499998   0.2436990  )
        12        Ti     tau(  12) = (   0.2500007   0.7499993   0.7492042  )
        13        Ti     tau(  13) = (   0.7499998   0.2500002   0.2436990  )
        14        Ti     tau(  14) = (   0.7499993   0.2500007   0.7492042  )
        15        Ti     tau(  15) = (   0.7499998   0.7499998   0.2436990  )
        16        Ti     tau(  16) = (   0.7499993   0.7499993   0.7492042  )
        17        O      tau(  17) = (   0.2500011   0.2500011   0.0113903  )
        18        O      tau(  18) = (   0.2500007   0.2500007   0.5168954  )
        19        O      tau(  19) = (   0.2500011   0.7499989   0.0113903  )
        20        O      tau(  20) = (   0.2500007   0.7499993   0.5168954  )
        21        O      tau(  21) = (   0.7499989   0.2500011   0.0113903  )
        22        O      tau(  22) = (   0.7499993   0.2500007   0.5168954  )
        23        O      tau(  23) = (   0.7499989   0.7499989   0.0113903  )
        24        O      tau(  24) = (   0.7499993   0.7499993   0.5168954  )
        25        O      tau(  25) = (   0.2500005   0.0000000   0.2592128  )
        26        O      tau(  26) = (   0.2500020   0.0000000   0.7647195  )
        27        O      tau(  27) = (   0.2499999   0.5000000   0.2592107  )
        28        O      tau(  28) = (   0.2499998   0.5000000   0.7647148  )
        29        O      tau(  29) = (   0.7499995   0.0000000   0.2592128  )
        30        O      tau(  30) = (   0.7499980   0.0000000   0.7647195  )
        31        O      tau(  31) = (   0.7500001   0.5000000   0.2592107  )
        32        O      tau(  32) = (   0.7500002   0.5000000   0.7647148  )
        33        O      tau(  33) = (   0.0000000   0.2500005   0.2592128  )
        34        O      tau(  34) = (   0.0000000   0.2500020   0.7647195  )
        35        O      tau(  35) = (   0.0000000   0.7499995   0.2592128  )
        36        O      tau(  36) = (   0.0000000   0.7499980   0.7647195  )
        37        O      tau(  37) = (   0.5000000   0.2499999   0.2592107  )
        38        O      tau(  38) = (   0.5000000   0.2499998   0.7647148  )
        39        O      tau(  39) = (   0.5000000   0.7500001   0.2592107  )
        40        O      tau(  40) = (   0.5000000   0.7500002   0.7647148  )

     number of k points=    40
                       cart. coord. in units 2pi/alat
        k(    1) = (   0.0000000   0.0000000   0.0000000), wk =   0.0092593
        k(    2) = (   0.0000000   0.0000000   0.1648500), wk =   0.0185185
        k(    3) = (   0.0000000   0.0000000   0.3297000), wk =   0.0185185
        k(    4) = (   0.0000000   0.0000000  -0.4945501), wk =   0.0092593
        k(    5) = (   0.0000000   0.1666667   0.0000000), wk =   0.0370370
        k(    6) = (   0.0000000   0.1666667   0.1648500), wk =   0.0740741
        k(    7) = (   0.0000000   0.1666667   0.3297000), wk =   0.0740741
        k(    8) = (   0.0000000   0.1666667  -0.4945501), wk =   0.0370370
        k(    9) = (   0.0000000   0.3333333   0.0000000), wk =   0.0370370
        k(   10) = (   0.0000000   0.3333333   0.1648500), wk =   0.0740741
        k(   11) = (   0.0000000   0.3333333   0.3297000), wk =   0.0740741
        k(   12) = (   0.0000000   0.3333333  -0.4945501), wk =   0.0370370
        k(   13) = (   0.0000000  -0.5000000   0.0000000), wk =   0.0185185
        k(   14) = (   0.0000000  -0.5000000   0.1648500), wk =   0.0370370
        k(   15) = (   0.0000000  -0.5000000   0.3297000), wk =   0.0370370
        k(   16) = (   0.0000000  -0.5000000  -0.4945501), wk =   0.0185185
        k(   17) = (   0.1666667   0.1666667   0.0000000), wk =   0.0370370
        k(   18) = (   0.1666667   0.1666667   0.1648500), wk =   0.0740741
        k(   19) = (   0.1666667   0.1666667   0.3297000), wk =   0.0740741
        k(   20) = (   0.1666667   0.1666667  -0.4945501), wk =   0.0370370
        k(   21) = (   0.1666667   0.3333333   0.0000000), wk =   0.0740741
        k(   22) = (   0.1666667   0.3333333   0.1648500), wk =   0.1481481
        k(   23) = (   0.1666667   0.3333333   0.3297000), wk =   0.1481481
        k(   24) = (   0.1666667   0.3333333  -0.4945501), wk =   0.0740741
        k(   25) = (   0.1666667  -0.5000000   0.0000000), wk =   0.0370370
        k(   26) = (   0.1666667  -0.5000000   0.1648500), wk =   0.0740741
        k(   27) = (   0.1666667  -0.5000000   0.3297000), wk =   0.0740741
        k(   28) = (   0.1666667  -0.5000000  -0.4945501), wk =   0.0370370
        k(   29) = (   0.3333333   0.3333333   0.0000000), wk =   0.0370370
        k(   30) = (   0.3333333   0.3333333   0.1648500), wk =   0.0740741
        k(   31) = (   0.3333333   0.3333333   0.3297000), wk =   0.0740741
        k(   32) = (   0.3333333   0.3333333  -0.4945501), wk =   0.0370370
        k(   33) = (   0.3333333  -0.5000000   0.0000000), wk =   0.0370370
        k(   34) = (   0.3333333  -0.5000000   0.1648500), wk =   0.0740741
        k(   35) = (   0.3333333  -0.5000000   0.3297000), wk =   0.0740741
        k(   36) = (   0.3333333  -0.5000000  -0.4945501), wk =   0.0370370
        k(   37) = (  -0.5000000  -0.5000000   0.0000000), wk =   0.0092593
        k(   38) = (  -0.5000000  -0.5000000   0.1648500), wk =   0.0185185
        k(   39) = (  -0.5000000  -0.5000000   0.3297000), wk =   0.0185185
        k(   40) = (  -0.5000000  -0.5000000  -0.4945501), wk =   0.0092593

     Dense  grid:   949235 G-vectors     FFT dimensions: ( 125, 125, 125)

     Smooth grid:   335575 G-vectors     FFT dimensions: (  90,  90,  90)

     Estimated max dynamical RAM per process >     123.23 MB

     Estimated total dynamical RAM >      19.94 GB
     Cannot read rho : file not found

     Initial potential from superposition of free atoms

     starting charge     319.8521, renormalised to     320.0000
     Message from routine qexsd_readschema :
     xml data file ./tmp/80_ecut_6_kmesh_PBE.save/data-file-schema.xml not found
     Cannot read wfcs: file not found
     Starting wfcs are  216 randomized atomic wfcs
     Checking if some PAW data can be deallocated... 

     total cpu time spent up to now is        4.0 secs

     per-process dynamical memory:   181.8 Mb

     Self-consistent Calculation

     iteration #  1     ecut=    80.00 Ry     beta= 0.30
     Davidson diagonalization with overlap
     c_bands:  2 eigenvalues not converged
     ethr =  1.00E-05,  avg # of iterations = 38.0

     total cpu time spent up to now is       29.3 secs

     total energy              =   -5884.38271877 Ry
     estimated scf accuracy    <      13.70984961 Ry

     iteration #  2     ecut=    80.00 Ry     beta= 0.30
     Davidson diagonalization with overlap
     ethr =  4.28E-03,  avg # of iterations =  1.9

     total cpu time spent up to now is       33.0 secs

     total energy              =   -5886.03175184 Ry
     estimated scf accuracy    <       0.61961587 Ry

     iteration #  3     ecut=    80.00 Ry     beta= 0.30
     Davidson diagonalization with overlap
     ethr =  1.94E-04,  avg # of iterations = 13.7

     total cpu time spent up to now is       42.9 secs

     total energy              =   -5887.00756899 Ry
     estimated scf accuracy    <       1.17796089 Ry

     iteration #  4     ecut=    80.00 Ry     beta= 0.30
     Davidson diagonalization with overlap
     ethr =  1.94E-04,  avg # of iterations =  2.0

     total cpu time spent up to now is       46.7 secs

     total energy              =   -5887.11128900 Ry
     estimated scf accuracy    <       0.19697714 Ry

     iteration #  5     ecut=    80.00 Ry     beta= 0.30
     Davidson diagonalization with overlap
     ethr =  6.16E-05,  avg # of iterations = 12.4

     total cpu time spent up to now is       54.6 secs

     total energy              =   -5886.99020413 Ry
     estimated scf accuracy    <       0.97161626 Ry

     iteration #  6     ecut=    80.00 Ry     beta= 0.30
     Davidson diagonalization with overlap
     ethr =  6.16E-05,  avg # of iterations =  5.7

     total cpu time spent up to now is       60.5 secs

     total energy              =   -5887.13376854 Ry
     estimated scf accuracy    <       0.19606234 Ry

     iteration #  7     ecut=    80.00 Ry     beta= 0.30
     Davidson diagonalization with overlap
     ethr =  6.13E-05,  avg # of iterations =  2.0

     total cpu time spent up to now is       64.4 secs

     total energy              =   -5887.14003477 Ry
     estimated scf accuracy    <       0.03827999 Ry

     iteration #  8     ecut=    80.00 Ry     beta= 0.30
     Davidson diagonalization with overlap
     ethr =  1.20E-05,  avg # of iterations = 10.6

     total cpu time spent up to now is       72.1 secs

     total energy              =   -5887.14854885 Ry
     estimated scf accuracy    <       0.06100103 Ry

     iteration #  9     ecut=    80.00 Ry     beta= 0.30
     Davidson diagonalization with overlap
     ethr =  1.20E-05,  avg # of iterations =  6.6

     total cpu time spent up to now is       78.2 secs

     total energy              =   -5887.16429033 Ry
     estimated scf accuracy    <       0.00458381 Ry

     iteration # 10     ecut=    80.00 Ry     beta= 0.30
     Davidson diagonalization with overlap
     ethr =  1.43E-06,  avg # of iterations =  9.2

     total cpu time spent up to now is       85.2 secs

     total energy              =   -5887.16352930 Ry
     estimated scf accuracy    <       0.01029775 Ry

     iteration # 11     ecut=    80.00 Ry     beta= 0.30
     Davidson diagonalization with overlap
     ethr =  1.43E-06,  avg # of iterations =  5.7

     total cpu time spent up to now is       90.5 secs

     total energy              =   -5887.16508449 Ry
     estimated scf accuracy    <       0.00128279 Ry

     iteration # 12     ecut=    80.00 Ry     beta= 0.30
     Davidson diagonalization with overlap
     ethr =  4.01E-07,  avg # of iterations =  5.8

     total cpu time spent up to now is       96.7 secs

     total energy              =   -5887.16560869 Ry
     estimated scf accuracy    <       0.00175101 Ry

     iteration # 13     ecut=    80.00 Ry     beta= 0.30
     Davidson diagonalization with overlap
     ethr =  4.01E-07,  avg # of iterations =  1.2

     total cpu time spent up to now is      100.2 secs

     total energy              =   -5887.16558366 Ry
     estimated scf accuracy    <       0.00025859 Ry

     iteration # 14     ecut=    80.00 Ry     beta= 0.30
     Davidson diagonalization with overlap
     ethr =  8.08E-08,  avg # of iterations =  5.8

     total cpu time spent up to now is      106.4 secs

     total energy              =   -5887.16576325 Ry
     estimated scf accuracy    <       0.00025293 Ry

     iteration # 15     ecut=    80.00 Ry     beta= 0.30
     Davidson diagonalization with overlap
     ethr =  7.90E-08,  avg # of iterations =  1.2

     total cpu time spent up to now is      109.9 secs

     total energy              =   -5887.16576312 Ry
     estimated scf accuracy    <       0.00013508 Ry

     iteration # 16     ecut=    80.00 Ry     beta= 0.30
     Davidson diagonalization with overlap
     ethr =  4.22E-08,  avg # of iterations =  1.6

     total cpu time spent up to now is      113.5 secs

     total energy              =   -5887.16574550 Ry
     estimated scf accuracy    <       0.00011678 Ry

     iteration # 17     ecut=    80.00 Ry     beta= 0.30
     Davidson diagonalization with overlap
     ethr =  3.65E-08,  avg # of iterations =  1.3

     total cpu time spent up to now is      117.1 secs

     total energy              =   -5887.16573746 Ry
     estimated scf accuracy    <       0.00005354 Ry

     iteration # 18     ecut=    80.00 Ry     beta= 0.30
     Davidson diagonalization with overlap
     ethr =  1.67E-08,  avg # of iterations =  2.0

     total cpu time spent up to now is      121.2 secs

     total energy              =   -5887.16574103 Ry
     estimated scf accuracy    <       0.00001779 Ry

     iteration # 19     ecut=    80.00 Ry     beta= 0.30
     Davidson diagonalization with overlap
     ethr =  5.56E-09,  avg # of iterations =  2.3

     total cpu time spent up to now is      125.4 secs

     total energy              =   -5887.16574346 Ry
     estimated scf accuracy    <       0.00000544 Ry

     iteration # 20     ecut=    80.00 Ry     beta= 0.30
     Davidson diagonalization with overlap
     ethr =  1.70E-09,  avg # of iterations =  4.1

     total cpu time spent up to now is      130.1 secs

     total energy              =   -5887.16574314 Ry
     estimated scf accuracy    <       0.00000544 Ry

     iteration # 21     ecut=    80.00 Ry     beta= 0.30
     Davidson diagonalization with overlap
     ethr =  1.70E-09,  avg # of iterations =  3.2

     total cpu time spent up to now is      134.5 secs

     total energy              =   -5887.16574337 Ry
     estimated scf accuracy    <       0.00000158 Ry

     iteration # 22     ecut=    80.00 Ry     beta= 0.30
     Davidson diagonalization with overlap
     ethr =  4.93E-10,  avg # of iterations =  5.2

     total cpu time spent up to now is      140.9 secs

     total energy              =   -5887.16574589 Ry
     estimated scf accuracy    <       0.00000699 Ry

     iteration # 23     ecut=    80.00 Ry     beta= 0.30
     Davidson diagonalization with overlap
     ethr =  4.93E-10,  avg # of iterations =  1.2

     total cpu time spent up to now is      144.4 secs

     total energy              =   -5887.16574289 Ry
     estimated scf accuracy    <       0.00000648 Ry

     iteration # 24     ecut=    80.00 Ry     beta= 0.30
     Davidson diagonalization with overlap
     ethr =  4.93E-10,  avg # of iterations =  5.0

     total cpu time spent up to now is      150.3 secs

     total energy              =   -5887.16574418 Ry
     estimated scf accuracy    <       0.00000006 Ry

     iteration # 25     ecut=    80.00 Ry     beta= 0.30
     Davidson diagonalization with overlap
     ethr =  1.76E-11,  avg # of iterations =  5.6

     total cpu time spent up to now is      156.7 secs

     total energy              =   -5887.16574426 Ry
     estimated scf accuracy    <       0.00000017 Ry

     iteration # 26     ecut=    80.00 Ry     beta= 0.30
     Davidson diagonalization with overlap
     ethr =  1.76E-11,  avg # of iterations =  2.1

     total cpu time spent up to now is      160.6 secs

     total energy              =   -5887.16574427 Ry
     estimated scf accuracy    <       0.00000025 Ry

     iteration # 27     ecut=    80.00 Ry     beta= 0.30
     Davidson diagonalization with overlap
     ethr =  1.76E-11,  avg # of iterations =  2.0

     total cpu time spent up to now is      164.5 secs

     total energy              =   -5887.16574433 Ry
     estimated scf accuracy    <       0.00000030 Ry

     iteration # 28     ecut=    80.00 Ry     beta= 0.30
     Davidson diagonalization with overlap
     ethr =  1.76E-11,  avg # of iterations =  3.6

     total cpu time spent up to now is      169.1 secs

     total energy              =   -5887.16574495 Ry
     estimated scf accuracy    <       0.00000053 Ry

     iteration # 29     ecut=    80.00 Ry     beta= 0.30
     Davidson diagonalization with overlap
     ethr =  1.76E-11,  avg # of iterations = 10.0

     total cpu time spent up to now is      178.2 secs

     total energy              =   -5887.16574759 Ry
     estimated scf accuracy    <       0.00000392 Ry

     iteration # 30     ecut=    80.00 Ry     beta= 0.30
     Davidson diagonalization with overlap
     ethr =  1.76E-11,  avg # of iterations =  8.5

     total cpu time spent up to now is      186.9 secs

     total energy              =   -5887.16574870 Ry
     estimated scf accuracy    <       0.00001444 Ry

     iteration # 31     ecut=    80.00 Ry     beta= 0.30
     Davidson diagonalization with overlap
     ethr =  1.76E-11,  avg # of iterations =  4.6

     total cpu time spent up to now is      191.9 secs

     total energy              =   -5887.16574750 Ry
     estimated scf accuracy    <       0.00001553 Ry

     iteration # 32     ecut=    80.00 Ry     beta= 0.30
     Davidson diagonalization with overlap
     ethr =  1.76E-11,  avg # of iterations =  4.7

     total cpu time spent up to now is      197.7 secs

     total energy              =   -5887.16574590 Ry
     estimated scf accuracy    <       0.00001219 Ry

     iteration # 33     ecut=    80.00 Ry     beta= 0.30
     Davidson diagonalization with overlap
     ethr =  1.76E-11,  avg # of iterations =  6.0

     total cpu time spent up to now is      205.0 secs

     total energy              =   -5887.16574420 Ry
     estimated scf accuracy    <       0.00000685 Ry

     iteration # 34     ecut=    80.00 Ry     beta= 0.30
     Davidson diagonalization with overlap
     ethr =  1.76E-11,  avg # of iterations =  9.2

     total cpu time spent up to now is      213.4 secs

     total energy              =   -5887.16574416 Ry
     estimated scf accuracy    <       0.00000148 Ry

     iteration # 35     ecut=    80.00 Ry     beta= 0.30
     Davidson diagonalization with overlap
     ethr =  1.76E-11,  avg # of iterations =  5.0

     total cpu time spent up to now is      219.8 secs

     total energy              =   -5887.16574402 Ry
     estimated scf accuracy    <       0.00000029 Ry

     iteration # 36     ecut=    80.00 Ry     beta= 0.30
     Davidson diagonalization with overlap
     ethr =  1.76E-11,  avg # of iterations =  8.0

     total cpu time spent up to now is      227.9 secs

     total energy              =   -5887.16574410 Ry
     estimated scf accuracy    <       0.00000057 Ry

     iteration # 37     ecut=    80.00 Ry     beta= 0.30
     Davidson diagonalization with overlap
     ethr =  1.76E-11,  avg # of iterations =  5.0

     total cpu time spent up to now is      234.1 secs

     total energy              =   -5887.16574418 Ry
     estimated scf accuracy    <       0.00000001 Ry

     iteration # 38     ecut=    80.00 Ry     beta= 0.30
     Davidson diagonalization with overlap
     ethr =  3.72E-12,  avg # of iterations =  1.9

     total cpu time spent up to now is      237.8 secs

     total energy              =   -5887.16574418 Ry
     estimated scf accuracy    <       0.00000001 Ry

     iteration # 39     ecut=    80.00 Ry     beta= 0.30
     Davidson diagonalization with overlap
     ethr =  3.72E-12,  avg # of iterations =  5.1

     total cpu time spent up to now is      244.0 secs

     total energy              =   -5887.16574418 Ry
     estimated scf accuracy    <       0.00000002 Ry

     iteration # 40     ecut=    80.00 Ry     beta= 0.30
     Davidson diagonalization with overlap
     ethr =  3.72E-12,  avg # of iterations =  1.2

     total cpu time spent up to now is      247.5 secs

     total energy              =   -5887.16574418 Ry
     estimated scf accuracy    <          7.0E-09 Ry

     iteration # 41     ecut=    80.00 Ry     beta= 0.30
     Davidson diagonalization with overlap
     ethr =  2.19E-12,  avg # of iterations =  4.2

     total cpu time spent up to now is      252.1 secs

     total energy              =   -5887.16574418 Ry
     estimated scf accuracy    <          4.1E-10 Ry

     iteration # 42     ecut=    80.00 Ry     beta= 0.30
     Davidson diagonalization with overlap
     ethr =  1.29E-13,  avg # of iterations =  5.4

     total cpu time spent up to now is      258.2 secs

     total energy              =   -5887.16574418 Ry
     estimated scf accuracy    <          2.0E-10 Ry

     iteration # 43     ecut=    80.00 Ry     beta= 0.30
     Davidson diagonalization with overlap
     ethr =  1.00E-13,  avg # of iterations =  2.0

     total cpu time spent up to now is      262.3 secs

     End of self-consistent calculation

          k = 0.0000 0.0000 0.0000 ( 42051 PWs)   bands (ev):

   -45.9800 -45.9791 -45.9789 -45.9789 -45.9780 -45.9780 -45.9779 -45.9770
   -22.4288 -22.4251 -22.4251 -22.4223 -22.3793 -22.3770 -22.3770 -22.3748
   -22.3736 -22.3736 -22.3702 -22.3702 -22.3700 -22.3700 -22.3675 -22.3675
   -22.3180 -22.3180 -22.3161 -22.3161 -22.3158 -22.3158 -22.3140 -22.3140
   -14.5426 -14.4278 -14.4182 -14.4182 -14.3472 -14.3472 -14.3391 -14.2768
    -6.8465  -6.8465  -6.7971  -6.5949  -6.3051  -6.1974  -6.1974  -5.9527
    -5.9527  -5.9507  -5.8892  -5.8892  -5.8590  -5.8253  -5.7978  -5.7978
    -5.7946  -5.7946  -5.7736  -5.7068  -5.6189  -5.6189  -5.5564  -5.5564
    -0.4728  -0.4728  -0.4103   0.2091   0.2091   0.2255   0.2255   0.2724
     0.2819   0.2820   0.2832   0.2832   0.4418   0.4418   0.4460   0.4460
     0.4643   0.4643   0.6608   0.6660   0.6660   0.6890   0.6890   0.7330
     5.7138   5.8849   5.9124   5.9124   6.0817   6.0817   6.1335   6.1597
     6.2305   6.2305   6.3955   6.3955   6.3966   6.4150   6.4313   7.3353
     7.3353   7.3917   7.3917   7.4389   7.4389   7.4394   7.4394   7.4460
     7.4460   7.5441   7.5441   7.7685   7.7685   7.7949   7.8898   7.9094
     7.9094   7.9215   7.9215   8.2185   8.2185   8.2643   8.2743   8.2810
     8.2810   8.3798   8.3798   8.4562   8.5255   8.5255   8.5428   8.5428
     8.8885   8.8885   9.0665   9.1896   9.1896   9.2299   9.2299   9.3234
     9.3234   9.3348   9.3348   9.3497   9.3497   9.5638   9.5638   9.8562
     9.9148   9.9148  10.0333  10.0333  10.1044  10.1044  10.1938  10.2654
    12.0411  12.1941  12.3659  12.3659  12.4880  12.4880  13.8049  13.8049
    13.8352  13.8352  13.8618  13.8618  13.8684  13.8684  13.8842  13.8842
    13.8861  13.8861  14.2237  14.2237  14.2528  14.3543  14.3550  14.4365
    14.4365  14.4818  14.4818  14.4882  14.5013  14.9690  15.0675  15.1813
    15.1813  15.2145  16.1730  16.1730  16.3741  16.6780  16.8759  16.8759

          k = 0.0000 0.0000 0.1649 ( 42003 PWs)   bands (ev):

   -45.9800 -45.9792 -45.9789 -45.9789 -45.9781 -45.9781 -45.9778 -45.9770
   -22.4255 -22.4219 -22.4219 -22.4191 -22.3826 -22.3802 -22.3802 -22.3780
   -22.3734 -22.3734 -22.3705 -22.3705 -22.3698 -22.3698 -22.3677 -22.3677
   -22.3179 -22.3179 -22.3162 -22.3162 -22.3157 -22.3157 -22.3141 -22.3141
   -14.5351 -14.4357 -14.4136 -14.4135 -14.3521 -14.3520 -14.3350 -14.2811
    -6.8126  -6.8126  -6.7743  -6.5934  -6.2718  -6.2674  -6.2674  -5.9527
    -5.9234  -5.9234  -5.8854  -5.8854  -5.8568  -5.8276  -5.8118  -5.7836
    -5.7836  -5.7815  -5.7815  -5.7357  -5.6315  -5.6315  -5.5724  -5.5724
    -0.4296  -0.4296  -0.3508   0.1604   0.1604   0.2535   0.2535   0.2901
     0.2902   0.2934   0.2934   0.3038   0.4306   0.4306   0.4319   0.4319
     0.4770   0.4770   0.5718   0.6516   0.6516   0.6549   0.6549   0.7025
     5.7594   5.8860   5.9689   5.9689   6.1542   6.1542   6.2172   6.2172
     6.2614   6.2679   6.4161   6.4302   6.4527   6.4527   6.4746   7.3404
     7.3404   7.3890   7.3890   7.4216   7.4216   7.4807   7.4807   7.4849
     7.4849   7.5967   7.5967   7.6003   7.6003   7.6954   7.7608   7.7608
     7.7659   7.9010   7.9010   8.2419   8.2419   8.2627   8.3100   8.3197
     8.3197   8.3480   8.3480   8.3533   8.5586   8.5586   8.8114   8.8114
     8.8453   8.8453   9.0021   9.1290   9.1290   9.2281   9.2281   9.2653
     9.2653   9.2738   9.2738   9.2790   9.2790   9.5848   9.5848   9.7004
     9.8903   9.8903   9.9940   9.9940  10.0226  10.0226  10.1985  10.2605
    12.0509  12.1834  12.4818  12.4818  12.5925  12.5925  13.7762  13.7762
    13.7961  13.7961  13.8072  13.8072  13.8333  13.8333  13.8652  13.8652
    13.9215  13.9215  14.1779  14.1779  14.2679  14.3540  14.3541  14.4332
    14.4332  14.4718  14.5697  14.5697  14.6821  15.1728  15.1728  15.1821
    15.2022  15.3465  16.2548  16.2548  16.2807  16.6779  16.9635  17.0485

          k = 0.0000 0.0000 0.3297 ( 41916 PWs)   bands (ev):

   -45.9798 -45.9793 -45.9787 -45.9787 -45.9783 -45.9783 -45.9776 -45.9772
   -22.4165 -22.4131 -22.4131 -22.4105 -22.3917 -22.3891 -22.3891 -22.3868
   -22.3728 -22.3728 -22.3711 -22.3711 -22.3693 -22.3693 -22.3681 -22.3681
   -22.3175 -22.3175 -22.3165 -22.3165 -22.3154 -22.3154 -22.3144 -22.3144
   -14.5144 -14.4571 -14.4007 -14.4007 -14.3652 -14.3652 -14.3237 -14.2926
    -6.7167  -6.7167  -6.7156  -6.6037  -6.4138  -6.4138  -6.1792  -5.9415
    -5.9140  -5.8874  -5.8874  -5.8772  -5.8772  -5.8506  -5.8338  -5.8088
    -5.7530  -5.7530  -5.7369  -5.7369  -5.6652  -5.6652  -5.6162  -5.6162
    -0.3099  -0.3099  -0.1815   0.0299   0.0299   0.3144   0.3145   0.3214
     0.3214   0.3323   0.3323   0.3457   0.3890   0.3960   0.3960   0.4006
     0.4006   0.5124   0.5124   0.5641   0.5641   0.6131   0.6131   0.6189
     5.8358   5.8864   6.0693   6.0693   6.1838   6.1838   6.3660   6.3660
     6.4191   6.4272   6.5687   6.5944   6.6627   6.6627   6.7478   7.1285
     7.1285   7.2995   7.2995   7.3533   7.3533   7.3811   7.3811   7.4171
     7.4330   7.5769   7.5769   7.5905   7.5905   7.7321   7.7321   7.7425
     7.7425   7.7847   7.8363   7.8363   8.1590   8.1590   8.3155   8.3155
     8.4393   8.5478   8.5478   8.5802   8.6324   8.6324   8.6553   8.6554
     8.8359   8.9796   8.9797   9.0586   9.0586   9.0854   9.0855   9.1522
     9.1522   9.2744   9.2744   9.3343   9.3788   9.3788   9.6443   9.6443
     9.8163   9.8163   9.8221   9.8221   9.8651   9.8651  10.2114  10.2472
    12.0780  12.1545  12.7813  12.7813  12.8651  12.8651  13.5212  13.5212
    13.5541  13.5541  13.8132  13.8132  13.8283  13.8283  13.8894  13.8894
    14.0200  14.0200  14.0692  14.0692  14.3097  14.3114  14.3114  14.3530
    14.3535  14.4275  14.8356  14.8356  15.1119  15.1357  15.1357  15.5667
    15.7031  15.7218  16.0105  16.5231  16.5231  16.5751  16.6058  16.9107

          k = 0.0000 0.0000-0.4946 ( 41964 PWs)   bands (ev):

   -45.9796 -45.9796 -45.9785 -45.9785 -45.9785 -45.9785 -45.9774 -45.9774
   -22.4041 -22.4041 -22.4011 -22.4011 -22.4011 -22.4011 -22.3986 -22.3986
   -22.3719 -22.3719 -22.3719 -22.3719 -22.3687 -22.3687 -22.3687 -22.3687
   -22.3170 -22.3170 -22.3170 -22.3170 -22.3149 -22.3149 -22.3149 -22.3149
   -14.4860 -14.4859 -14.3831 -14.3831 -14.3830 -14.3830 -14.3082 -14.3081
    -6.6478  -6.6476  -6.5752  -6.5752  -6.5751  -6.5751  -6.0491  -6.0490
    -5.8905  -5.8904  -5.8739  -5.8739  -5.8739  -5.8739  -5.8423  -5.8422
    -5.7100  -5.7100  -5.7098  -5.7098  -5.6764  -5.6764  -5.6763  -5.6763
    -0.1427  -0.1427  -0.1426  -0.1426   0.0683   0.0685   0.3522   0.3523
     0.3524   0.3524   0.3605   0.3605   0.3606   0.3606   0.4452   0.4452
     0.4452   0.4452   0.5043   0.5044   0.5620   0.5620   0.5620   0.5620
     5.8759   5.8760   6.1377   6.1377   6.1378   6.1378   6.4231   6.4232
     6.7001   6.7001   6.7003   6.7003   6.9927   6.9928   7.0035   7.0035
     7.0037   7.0037   7.0189   7.0190   7.2213   7.2215   7.3684   7.3684
     7.3685   7.3685   7.6705   7.6705   7.6705   7.6705   7.7255   7.7255
     7.7256   7.7256   7.9470   7.9470   7.9471   7.9471   8.4478   8.4478
     8.4479   8.4479   8.6286   8.6288   8.8049   8.8049   8.8049   8.8049
     8.8184   8.8185   8.8186   8.8186   8.9255   8.9256   9.0399   9.0399
     9.0400   9.0400   9.5743   9.5743   9.5743   9.5743   9.6265   9.6265
     9.6265   9.6265   9.7307   9.7307   9.7308   9.7308  10.2292  10.2293
    12.1158  12.1159  13.1616  13.1616  13.1617  13.1617  13.2167  13.2167
    13.2168  13.2168  13.8209  13.8209  13.8210  13.8210  13.9583  13.9583
    13.9583  13.9583  14.1604  14.1604  14.1605  14.1605  14.3529  14.3530
    14.3680  14.3680  15.0371  15.0371  15.0371  15.0371  15.5978  15.5979
    16.0649  16.0651  16.2711  16.2713  16.2791  16.2792  16.9627  16.9629

          k = 0.0000 0.1667 0.0000 ( 42013 PWs)   bands (ev):

   -45.9799 -45.9790 -45.9790 -45.9789 -45.9781 -45.9780 -45.9779 -45.9770
   -22.4286 -22.4253 -22.4249 -22.4225 -22.3791 -22.3771 -22.3768 -22.3750
   -22.3734 -22.3702 -22.3701 -22.3699 -22.3677 -22.3666 -22.3663 -22.3640
   -22.3218 -22.3197 -22.3195 -22.3179 -22.3176 -22.3160 -22.3159 -22.3141
   -14.5345 -14.4268 -14.4225 -14.4130 -14.3527 -14.3445 -14.3426 -14.2816
    -6.8223  -6.8142  -6.7630  -6.5991  -6.3476  -6.2491  -6.1614  -5.9457
    -5.9413  -5.9371  -5.8919  -5.8807  -5.8559  -5.8190  -5.7965  -5.7887
    -5.7868  -5.7866  -5.7783  -5.7231  -5.6602  -5.6317  -5.5891  -5.5720
    -0.4287  -0.4161  -0.3602   0.1754   0.2220   0.2314   0.2367   0.2378
     0.2833   0.2947   0.3089   0.3112   0.4236   0.4337   0.4339   0.4515
     0.4559   0.4687   0.5717   0.6461   0.6499   0.6535   0.6624   0.6997
     5.7633   5.9122   5.9440   5.9656   6.1324   6.1487   6.2080   6.2135
     6.2147   6.3375   6.3957   6.4028   6.4723   6.4825   6.4996   7.3752
     7.3809   7.3848   7.3916   7.4390   7.4429   7.4431   7.4509   7.4797
     7.4985   7.5410   7.5765   7.6664   7.7315   7.7368   7.7594   7.7926
     7.7969   7.8773   7.9026   7.9642   7.9890   8.1568   8.3342   8.3407
     8.3411   8.3908   8.4943   8.5070   8.5790   8.5803   8.7743   8.7754
     8.8236   8.8882   8.9590   9.0292   9.1646   9.1908   9.2264   9.2504
     9.3131   9.3606   9.3696   9.3906   9.3987   9.4377   9.4653   9.6819
     9.8387   9.9186   9.9926  10.0307  10.0380  10.0980  10.1504  10.1856
    12.1920  12.3308  12.3766  12.4270  12.4781  12.5434  13.7050  13.7381
    13.7479  13.7719  13.8123  13.8468  13.8641  13.8692  13.8727  13.8829
    13.8840  13.9018  14.1695  14.1999  14.2409  14.4261  14.4311  14.4434
    14.4437  14.4661  14.5091  14.5725  14.6221  14.9854  15.1706  15.2066
    15.3521  15.4034  16.1034  16.2741  16.4585  16.7387  16.9886  17.0890

          k = 0.0000 0.1667 0.1649 ( 41983 PWs)   bands (ev):

   -45.9799 -45.9791 -45.9789 -45.9788 -45.9782 -45.9780 -45.9779 -45.9771
   -22.4253 -22.4221 -22.4217 -22.4193 -22.3824 -22.3804 -22.3801 -22.3782
   -22.3732 -22.3703 -22.3700 -22.3697 -22.3679 -22.3669 -22.3662 -22.3641
   -22.3216 -22.3199 -22.3193 -22.3177 -22.3177 -22.3160 -22.3158 -22.3142
   -14.5271 -14.4302 -14.4219 -14.4084 -14.3578 -14.3474 -14.3403 -14.2859
    -6.7898  -6.7803  -6.7419  -6.5946  -6.3142  -6.2989  -6.2336  -5.9492
    -5.9253  -5.9104  -5.8888  -5.8765  -5.8535  -5.8336  -5.8218  -5.7862
    -5.7742  -5.7718  -5.7689  -5.7511  -5.6634  -5.6420  -5.6042  -5.5860
    -0.3997  -0.3866  -0.2793   0.1684   0.1900   0.2044   0.2331   0.2467
     0.2771   0.3051   0.3312   0.3535   0.3839   0.4102   0.4162   0.4446
     0.4640   0.5094   0.5724   0.5745   0.6184   0.6359   0.6384   0.6782
     5.8129   5.9450   5.9686   6.0278   6.2025   6.2076   6.2550   6.2713
     6.3202   6.3222   6.4528   6.4579   6.4733   6.5151   6.5309   7.3679
     7.3770   7.3898   7.4214   7.4365   7.4378   7.4504   7.4753   7.4845
     7.5238   7.5317   7.5918   7.5936   7.6215   7.6802   7.7012   7.7570
     7.7700   7.7975   7.8279   7.8846   7.9307   8.1793   8.3060   8.3286
     8.3663   8.3948   8.4062   8.6130   8.6576   8.7473   8.7604   8.7958
     8.8491   8.8803   8.9153   9.0327   9.1471   9.1681   9.2096   9.2231
     9.2807   9.3078   9.3115   9.3124   9.3313   9.4671   9.4872   9.5767
     9.8115   9.8557   9.9511   9.9601   9.9958  10.0141  10.1531  10.1902
    12.2007  12.3210  12.4915  12.5272  12.5832  12.6447  13.7076  13.7328
    13.7540  13.7547  13.7774  13.7976  13.8127  13.8146  13.8171  13.8690
    13.8699  13.9176  14.1176  14.1949  14.2148  14.3739  14.4087  14.4237
    14.4831  14.5087  14.5749  14.7203  14.7650  15.1619  15.1979  15.3356
    15.3975  15.4822  16.1848  16.3396  16.3644  16.7730  17.0380  17.1091

          k = 0.0000 0.1667 0.3297 ( 41980 PWs)   bands (ev):

   -45.9797 -45.9793 -45.9788 -45.9786 -45.9783 -45.9782 -45.9777 -45.9773
   -22.4163 -22.4133 -22.4129 -22.4107 -22.3915 -22.3892 -22.3889 -22.3869
   -22.3726 -22.3709 -22.3696 -22.3691 -22.3683 -22.3675 -22.3658 -22.3646
   -22.3213 -22.3202 -22.3190 -22.3181 -22.3174 -22.3164 -22.3155 -22.3146
   -14.5070 -14.4511 -14.4085 -14.3957 -14.3715 -14.3604 -14.3289 -14.2975
    -6.6984  -6.6883  -6.6842  -6.5963  -6.4201  -6.3810  -6.2209  -5.9471
    -5.9432  -5.9009  -5.8830  -5.8746  -5.8674  -5.8468  -5.8323  -5.8180
    -5.7578  -5.7430  -5.7406  -5.7319  -5.6836  -5.6697  -5.6442  -5.6245
    -0.3079  -0.2700  -0.0979   0.0277   0.0623   0.2437   0.2756   0.2858
     0.2934   0.3217   0.3336   0.3722   0.3750   0.3816   0.3940   0.4141
     0.4352   0.4989   0.5248   0.5486   0.5726   0.5775   0.5980   0.6178
     5.8951   5.9456   6.0667   6.1445   6.1721   6.2834   6.4250   6.4447
     6.4762   6.4827   6.5498   6.6146   6.6648   6.7178   6.7473   7.1086
     7.1601   7.2888   7.3499   7.3602   7.3820   7.3881   7.4023   7.4127
     7.4290   7.5073   7.5152   7.5932   7.6085   7.7359   7.7372   7.7401
     7.7439   7.7446   7.8267   7.8751   7.9336   7.9605   8.1632   8.2510
     8.4273   8.4547   8.5498   8.5685   8.5763   8.7083   8.7129   8.8658
     8.8681   8.9579   8.9600   9.0240   9.0344   9.1540   9.1758   9.1954
     9.2251   9.2566   9.2876   9.3288   9.3449   9.3462   9.5465   9.5497
     9.7377   9.7503   9.7587   9.8118   9.8503   9.8594  10.1609  10.1849
    12.2252  12.2946  12.7884  12.7960  12.8574  12.9083  13.5023  13.5235
    13.5479  13.5769  13.7145  13.7335  13.7855  13.8292  13.8588  13.8994
    13.9235  13.9940  14.0117  14.0855  14.2422  14.2560  14.2943  14.3729
    14.5006  14.5074  14.8356  15.0237  15.1255  15.1840  15.3633  15.6837
    15.7226  15.8539  16.0919  16.4527  16.5669  16.6555  16.6935  17.0392

          k = 0.0000 0.1667-0.4946 ( 41958 PWs)   bands (ev):

   -45.9795 -45.9795 -45.9786 -45.9786 -45.9784 -45.9784 -45.9775 -45.9775
   -22.4039 -22.4039 -22.4013 -22.4013 -22.4010 -22.4009 -22.3988 -22.3988
   -22.3717 -22.3717 -22.3690 -22.3689 -22.3683 -22.3683 -22.3652 -22.3651
   -22.3207 -22.3207 -22.3185 -22.3185 -22.3169 -22.3169 -22.3150 -22.3150
   -14.4793 -14.4792 -14.3902 -14.3901 -14.3782 -14.3781 -14.3133 -14.3132
    -6.6293  -6.6291  -6.5658  -6.5657  -6.5427  -6.5425  -6.0883  -6.0882
    -5.8994  -5.8993  -5.8843  -5.8843  -5.8626  -5.8626  -5.8371  -5.8370
    -5.7195  -5.7194  -5.7069  -5.7067  -5.6951  -5.6950  -5.6779  -5.6778
    -0.1504  -0.1504  -0.1067  -0.1066   0.1378   0.1379   0.2724   0.2725
     0.3201   0.3201   0.3308   0.3308   0.3733   0.3733   0.4023   0.4023
     0.4825   0.4826   0.5304   0.5305   0.5477   0.5477   0.5709   0.5710
     5.9359   5.9360   6.1305   6.1306   6.2282   6.2283   6.4801   6.4802
     6.7298   6.7299   6.7548   6.7549   6.9628   6.9630   6.9933   6.9934
     7.0084   7.0086   7.0471   7.0472   7.1937   7.1939   7.3905   7.3906
     7.4168   7.4169   7.6284   7.6285   7.6845   7.6846   7.7176   7.7176
     7.7237   7.7238   7.8672   7.8673   7.9469   7.9470   8.1831   8.1832
     8.3827   8.3828   8.5737   8.5738   8.7645   8.7646   8.7729   8.7730
     8.8545   8.8545   8.9900   8.9902   9.0169   9.0169   9.0874   9.0875
     9.1064   9.1065   9.5157   9.5157   9.5634   9.5634   9.6117   9.6117
     9.6407   9.6407   9.6411   9.6412   9.6526   9.6527  10.1727  10.1729
    12.2594  12.2595  13.1532  13.1532  13.1660  13.1661  13.2103  13.2104
    13.2485  13.2486  13.7237  13.7238  13.8443  13.8444  13.8668  13.8668
    13.9725  13.9726  14.0780  14.0781  14.1470  14.1471  14.3135  14.3135
    14.5052  14.5052  15.0306  15.0306  15.2562  15.2562  15.6746  15.6747
    16.1611  16.1613  16.3121  16.3123  16.4083  16.4085  16.8905  16.8914

          k = 0.0000 0.3333 0.0000 ( 41965 PWs)   bands (ev):

   -45.9797 -45.9792 -45.9788 -45.9787 -45.9783 -45.9781 -45.9778 -45.9772
   -22.4279 -22.4260 -22.4244 -22.4230 -22.3787 -22.3775 -22.3764 -22.3754
   -22.3727 -22.3709 -22.3696 -22.3682 -22.3598 -22.3568 -22.3565 -22.3542
   -22.3320 -22.3297 -22.3294 -22.3274 -22.3175 -22.3164 -22.3155 -22.3145
   -14.5122 -14.4500 -14.4080 -14.3987 -14.3677 -14.3592 -14.3298 -14.2946
    -6.7590  -6.7239  -6.6671  -6.6236  -6.4569  -6.3756  -6.0616  -5.9299
    -5.9094  -5.8996  -5.8926  -5.8581  -5.8337  -5.8236  -5.8073  -5.8041
    -5.7794  -5.7693  -5.7669  -5.7553  -5.7340  -5.6726  -5.6660  -5.6148
    -0.3066  -0.2694  -0.2062   0.0415   0.0956   0.2596   0.2695   0.3139
     0.3188   0.3266   0.3337   0.3769   0.3823   0.3851   0.3867   0.4006
     0.4171   0.4950   0.5033   0.5589   0.5893   0.6065   0.6070   0.6108
     5.8481   5.9094   6.0440   6.0512   6.1220   6.1763   6.3207   6.3969
     6.4021   6.4263   6.5550   6.6335   6.6830   6.7487   6.7626   7.0797
     7.2235   7.3058   7.3876   7.4278   7.4365   7.4382   7.4454   7.4542
     7.4715   7.4754   7.5641   7.5856   7.5866   7.6409   7.6517   7.7282
     7.7725   7.8200   7.8383   7.8925   7.9699   7.9921   8.1074   8.4317
     8.5031   8.5394   8.5425   8.5520   8.5778   8.6713   8.7028   8.7123
     8.7351   8.8942   8.9859   9.0624   9.1215   9.2151   9.2163   9.2317
     9.2452   9.3113   9.3309   9.3599   9.3710   9.4636   9.4691   9.5176
     9.6698   9.7906   9.8462   9.8597   9.9740  10.0101  10.0509  10.0890
    12.3821  12.4519  12.5814  12.6676  12.6702  12.7558  13.4256  13.4479
    13.4687  13.4785  13.8442  13.8479  13.8716  13.8738  13.8784  13.8796
    13.9776  13.9802  14.0422  14.0734  14.2878  14.2883  14.2946  14.4184
    14.4544  14.4606  14.7963  14.8129  15.0013  15.0628  15.1260  15.5959
    15.7314  15.8890  15.9291  16.5921  16.6868  16.7208  16.7623  16.9342

          k = 0.0000 0.3333 0.1649 ( 41947 PWs)   bands (ev):

   -45.9797 -45.9791 -45.9789 -45.9786 -45.9784 -45.9781 -45.9778 -45.9773
   -22.4246 -22.4228 -22.4212 -22.4198 -22.3820 -22.3808 -22.3797 -22.3786
   -22.3725 -22.3707 -22.3698 -22.3684 -22.3596 -22.3570 -22.3563 -22.3544
   -22.3319 -22.3298 -22.3293 -22.3276 -22.3173 -22.3162 -22.3157 -22.3146
   -14.5053 -14.4446 -14.4151 -14.3942 -14.3733 -14.3549 -14.3345 -14.2990
    -6.7306  -6.6899  -6.6515  -6.6113  -6.4231  -6.3929  -6.1408  -5.9355
    -5.9060  -5.9023  -5.8987  -5.8730  -5.8530  -5.8331  -5.8154  -5.7986
    -5.7841  -5.7696  -5.7453  -5.7384  -5.7292  -5.6846  -5.6703  -5.6236
    -0.2904  -0.2674  -0.1037   0.0731   0.0814   0.1953   0.2615   0.2737
     0.2898   0.3116   0.3374   0.3599   0.3759   0.3774   0.4139   0.4291
     0.4316   0.4832   0.5211   0.5423   0.5712   0.5902   0.5935   0.6103
     5.9040   5.9659   6.0502   6.1255   6.1671   6.2233   6.3878   6.4540
     6.4600   6.4973   6.5766   6.6117   6.6859   6.7622   6.7846   7.1221
     7.1715   7.3001   7.3315   7.4212   7.4279   7.4464   7.4545   7.4709
     7.4913   7.4953   7.5070   7.5615   7.6238   7.6507   7.6775   7.7306
     7.7404   7.7619   7.8268   7.8437   7.8748   7.9381   8.0127   8.3643
     8.3933   8.4055   8.5691   8.5711   8.5964   8.6035   8.7664   8.7972
     8.8895   8.9618   8.9752   9.0636   9.1382   9.1385   9.2395   9.2527
     9.2565   9.2788   9.2913   9.3567   9.3601   9.4087   9.4114   9.4846
     9.6353   9.7390   9.7726   9.8464   9.9448  10.0020  10.0070  10.0514
    12.4776  12.5586  12.6051  12.6623  12.7306  12.8444  13.4293  13.4615
    13.4637  13.5322  13.7576  13.7808  13.7921  13.8549  13.8851  13.8978
    13.9069  13.9694  13.9757  14.0876  14.2262  14.2416  14.2782  14.3706
    14.5686  14.5823  14.7949  14.9938  15.1179  15.1447  15.2124  15.7078
    15.8591  15.9315  15.9690  16.6214  16.6252  16.7517  16.8364  17.0682

          k = 0.0000 0.3333 0.3297 ( 41966 PWs)   bands (ev):

   -45.9795 -45.9791 -45.9790 -45.9785 -45.9784 -45.9780 -45.9779 -45.9775
   -22.4157 -22.4140 -22.4125 -22.4111 -22.3911 -22.3897 -22.3885 -22.3873
   -22.3719 -22.3703 -22.3702 -22.3689 -22.3591 -22.3575 -22.3559 -22.3548
   -22.3314 -22.3303 -22.3289 -22.3279 -22.3170 -22.3160 -22.3159 -22.3150
   -14.4866 -14.4345 -14.4297 -14.3886 -14.3818 -14.3473 -14.3432 -14.3110
    -6.6532  -6.6154  -6.5938  -6.5887  -6.4520  -6.3284  -6.2906  -6.0389
    -5.9414  -5.9175  -5.9000  -5.8647  -5.8409  -5.8387  -5.8281  -5.8038
    -5.7757  -5.7546  -5.7299  -5.7182  -5.7163  -5.7125  -5.6822  -5.6479
    -0.2450  -0.1588   0.0435   0.0774   0.0789   0.1532   0.1616   0.2031
     0.2597   0.2745   0.3221   0.3254   0.3671   0.4202   0.4512   0.4590
     0.4625   0.4629   0.4741   0.5026   0.5574   0.5651   0.5766   0.5986
     5.9940   6.0471   6.0597   6.1447   6.3085   6.5005   6.5530   6.5816
     6.6457   6.6520   6.6713   6.6869   6.6934   6.8038   6.9265   6.9996
     7.1701   7.2233   7.2302   7.2411   7.2672   7.3936   7.4009   7.4319
     7.5195   7.5432   7.5474   7.5534   7.5989   7.6125   7.6754   7.7306
     7.7369   7.7563   7.7679   7.7704   7.7882   8.0305   8.0494   8.0822
     8.1291   8.1880   8.3772   8.4152   8.6532   8.6565   8.8054   8.8567
     8.9950   9.0318   9.1017   9.1261   9.1410   9.1487   9.2029   9.2145
     9.2417   9.2718   9.2761   9.3274   9.3369   9.4081   9.4756   9.4953
     9.5454   9.5870   9.6779   9.7912   9.7974   9.8480  10.0012  10.0116
    12.5758  12.6409  12.8169  12.8357  12.9191  13.0761  13.4382  13.4400
    13.5170  13.5175  13.5304  13.5632  13.6745  13.6770  13.8138  13.8814
    13.9273  13.9466  13.9881  14.0685  14.1271  14.1300  14.2290  14.2585
    14.7108  14.7878  14.8288  15.0853  15.4014  15.4613  15.7393  15.9030
    16.0067  16.2292  16.2361  16.3485  16.7380  16.7947  16.8718  16.9338

          k = 0.0000 0.3333-0.4946 ( 41980 PWs)   bands (ev):

   -45.9793 -45.9793 -45.9788 -45.9788 -45.9782 -45.9782 -45.9777 -45.9777
   -22.4034 -22.4034 -22.4019 -22.4019 -22.4005 -22.4005 -22.3993 -22.3993
   -22.3711 -22.3711 -22.3695 -22.3695 -22.3583 -22.3583 -22.3554 -22.3553
   -22.3309 -22.3308 -22.3284 -22.3284 -22.3165 -22.3165 -22.3154 -22.3154
   -14.4608 -14.4607 -14.4093 -14.4092 -14.3646 -14.3646 -14.3272 -14.3271
    -6.5865  -6.5864  -6.5490  -6.5489  -6.4523  -6.4521  -6.1912  -6.1911
    -5.9200  -5.9199  -5.9095  -5.9094  -5.8316  -5.8315  -5.8175  -5.8174
    -5.7479  -5.7478  -5.7384  -5.7383  -5.6991  -5.6990  -5.6824  -5.6823
    -0.1227  -0.1226  -0.0057  -0.0057   0.1176   0.1177   0.2813   0.2813
     0.2819   0.2819   0.2877   0.2877   0.2878   0.2879   0.4086   0.4087
     0.5092   0.5093   0.5351   0.5351   0.5355   0.5355   0.5628   0.5628
     6.0356   6.0357   6.1135   6.1136   6.4602   6.4603   6.6997   6.6998
     6.7974   6.7975   6.8747   6.8749   6.8843   6.8844   6.9351   6.9352
     7.0238   7.0240   7.1421   7.1423   7.2147   7.2149   7.3689   7.3690
     7.3729   7.3730   7.5395   7.5396   7.7064   7.7064   7.7116   7.7117
     7.7624   7.7624   7.8213   7.8213   7.8503   7.8504   7.9632   7.9633
     8.1901   8.1901   8.2194   8.2195   8.6963   8.6963   8.7983   8.7983
     8.9932   8.9933   9.1061   9.1061   9.1469   9.1469   9.1541   9.1541
     9.3424   9.3425   9.3736   9.3736   9.4317   9.4318   9.5445   9.5446
     9.5799   9.5800   9.6069   9.6069   9.6640   9.6640  10.0001  10.0003
    12.6111  12.6112  13.1798  13.1799  13.1883  13.1884  13.2061  13.2062
    13.3790  13.3791  13.4580  13.4580  13.6388  13.6389  13.8678  13.8679
    13.9145  13.9146  14.0115  14.0116  14.1085  14.1085  14.1831  14.1832
    14.7675  14.7675  15.0030  15.0030  15.7523  15.7523  15.9282  15.9283
    16.3534  16.3536  16.4226  16.4228  16.6695  16.6696  16.7840  16.7842

          k = 0.0000-0.5000 0.0000 ( 41958 PWs)   bands (ev):

   -45.9795 -45.9795 -45.9786 -45.9786 -45.9784 -45.9784 -45.9775 -45.9775
   -22.4269 -22.4269 -22.4237 -22.4237 -22.3781 -22.3781 -22.3759 -22.3759
   -22.3718 -22.3718 -22.3689 -22.3689 -22.3459 -22.3459 -22.3433 -22.3433
   -22.3430 -22.3430 -22.3408 -22.3408 -22.3169 -22.3169 -22.3150 -22.3150
   -14.4813 -14.4813 -14.3880 -14.3880 -14.3791 -14.3791 -14.3123 -14.3123
    -6.6820  -6.6820  -6.5948  -6.5948  -6.5281  -6.5281  -5.9225  -5.9225
    -5.9121  -5.9121  -5.8630  -5.8630  -5.8315  -5.8315  -5.8301  -5.8301
    -5.7847  -5.7847  -5.7687  -5.7687  -5.7115  -5.7115  -5.6740  -5.6740
    -0.1355  -0.1355  -0.0862  -0.0862   0.0453   0.0453   0.3172   0.3172
     0.3198   0.3198   0.3566   0.3566   0.3712   0.3712   0.4355   0.4355
     0.4885   0.4886   0.4948   0.4948   0.5500   0.5500   0.5540   0.5540
     5.8948   5.8948   6.0885   6.0885   6.1255   6.1255   6.3994   6.3994
     6.6571   6.6572   6.7731   6.7732   6.9864   6.9865   7.0274   7.0274
     7.0478   7.0478   7.1177   7.1178   7.2043   7.2043   7.4311   7.4311
     7.4699   7.4700   7.6828   7.6829   7.7170   7.7170   7.7175   7.7175
     7.7258   7.7258   7.7763   7.7763   7.8273   7.8273   8.3052   8.3052
     8.5227   8.5227   8.6229   8.6229   8.7021   8.7021   8.7475   8.7475
     8.8042   8.8042   8.9655   8.9655   8.9924   8.9924   9.1406   9.1406
     9.1586   9.1586   9.4869   9.4869   9.6135   9.6135   9.6186   9.6186
     9.6334   9.6334   9.7266   9.7266   9.7527   9.7527  10.0692  10.0692
    12.4177  12.4178  13.0223  13.0223  13.0502  13.0503  13.0851  13.0851
    13.1033  13.1034  13.8696  13.8696  13.8754  13.8754  13.9162  13.9162
    13.9426  13.9426  14.1217  14.1217  14.1290  14.1290  14.3533  14.3533
    14.4603  14.4603  14.9602  14.9603  15.0140  15.0140  15.5294  15.5295
    16.1434  16.1434  16.2837  16.2837  16.4857  16.4857  17.0730  17.0730

          k = 0.0000-0.5000 0.1649 ( 41940 PWs)   bands (ev):

   -45.9794 -45.9794 -45.9786 -45.9786 -45.9783 -45.9783 -45.9776 -45.9776
   -22.4237 -22.4237 -22.4205 -22.4205 -22.3814 -22.3814 -22.3791 -22.3791
   -22.3716 -22.3716 -22.3691 -22.3691 -22.3458 -22.3458 -22.3434 -22.3434
   -22.3428 -22.3428 -22.3410 -22.3410 -22.3168 -22.3168 -22.3151 -22.3151
   -14.4752 -14.4752 -14.3944 -14.3943 -14.3747 -14.3747 -14.3169 -14.3168
    -6.6607  -6.6607  -6.5609  -6.5608  -6.5241  -6.5241  -6.0161  -6.0161
    -5.9150  -5.9150  -5.8586  -5.8586  -5.8233  -5.8233  -5.8145  -5.8145
    -5.7787  -5.7787  -5.7747  -5.7746  -5.7082  -5.7082  -5.6759  -5.6759
    -0.1139  -0.1139  -0.1002  -0.1002   0.1306   0.1306   0.2444   0.2444
     0.3032   0.3032   0.3277   0.3277   0.3826   0.3826   0.3940   0.3940
     0.5143   0.5144   0.5166   0.5166   0.5374   0.5374   0.5624   0.5624
     5.9518   5.9518   6.1204   6.1204   6.1827   6.1827   6.4567   6.4567
     6.7143   6.7144   6.7890   6.7890   6.9658   6.9658   7.0134   7.0134
     7.0329   7.0329   7.1501   7.1502   7.1854   7.1854   7.4380   7.4380
     7.5082   7.5082   7.6192   7.6192   7.7123   7.7124   7.7220   7.7220
     7.7306   7.7306   7.7796   7.7796   7.7974   7.7974   8.1242   8.1242
     8.4502   8.4502   8.4886   8.4886   8.7654   8.7654   8.8004   8.8004
     8.8941   8.8941   8.9939   8.9939   9.0208   9.0208   9.1304   9.1304
     9.1613   9.1613   9.4432   9.4432   9.5685   9.5686   9.5767   9.5767
     9.6315   9.6315   9.7143   9.7143   9.7420   9.7420  10.0150  10.0150
    12.5255  12.5255  13.0290  13.0290  13.0790  13.0790  13.0810  13.0810
    13.1739  13.1739  13.7861  13.7861  13.8348  13.8348  13.8906  13.8906
    13.9554  13.9554  14.0487  14.0488  14.1158  14.1158  14.3058  14.3058
    14.5830  14.5830  15.0087  15.0087  15.1642  15.1642  15.6068  15.6068
    16.2267  16.2268  16.4160  16.4160  16.5124  16.5124  17.0257  17.0259

          k = 0.0000-0.5000 0.3297 ( 41934 PWs)   bands (ev):

   -45.9792 -45.9792 -45.9788 -45.9788 -45.9782 -45.9782 -45.9777 -45.9777
   -22.4148 -22.4148 -22.4118 -22.4118 -22.3904 -22.3904 -22.3879 -22.3879
   -22.3711 -22.3711 -22.3696 -22.3696 -22.3453 -22.3453 -22.3439 -22.3439
   -22.3425 -22.3425 -22.3414 -22.3414 -22.3164 -22.3164 -22.3155 -22.3155
   -14.4584 -14.4583 -14.4117 -14.4117 -14.3626 -14.3626 -14.3292 -14.3292
    -6.6074  -6.6074  -6.5240  -6.5240  -6.4650  -6.4650  -6.1653  -6.1652
    -5.9241  -5.9241  -5.9037  -5.9037  -5.8064  -5.8064  -5.7868  -5.7868
    -5.7834  -5.7834  -5.7783  -5.7783  -5.6999  -5.6999  -5.6813  -5.6813
    -0.1058  -0.1058  -0.0018  -0.0017   0.1023   0.1023   0.2771   0.2771
     0.2827   0.2827   0.2833   0.2833   0.2870   0.2870   0.4141   0.4141
     0.5034   0.5034   0.5308   0.5308   0.5481   0.5481   0.5540   0.5540
     6.0433   6.0433   6.1081   6.1081   6.4286   6.4286   6.6790   6.6790
     6.8252   6.8253   6.8653   6.8653   6.9092   6.9092   6.9186   6.9186
     7.0467   7.0467   7.1480   7.1480   7.2714   7.2714   7.3660   7.3660
     7.3779   7.3779   7.5929   7.5929   7.6954   7.6954   7.7249   7.7249
     7.7321   7.7321   7.8169   7.8170   7.8263   7.8263   7.8783   7.8783
     8.1779   8.1779   8.2663   8.2663   8.7048   8.7048   8.8025   8.8025
     9.0703   9.0703   9.0755   9.0755   9.1308   9.1308   9.1822   9.1822
     9.2130   9.2130   9.3325   9.3325   9.4067   9.4067   9.5951   9.5951
     9.6605   9.6605   9.6844   9.6845   9.7202   9.7202   9.8558   9.8558
    12.7987  12.7987  13.0539  13.0539  13.0610  13.0610  13.1876  13.1876
    13.3598  13.3598  13.5416  13.5416  13.6276  13.6277  13.8577  13.8577
    13.9513  13.9514  13.9924  13.9924  14.0793  14.0793  14.1915  14.1915
    14.7997  14.7997  14.9870  14.9870  15.6634  15.6634  15.8788  15.8788
    16.4564  16.4564  16.4905  16.4905  16.7393  16.7394  16.7944  16.7945

          k = 0.0000-0.5000-0.4946 ( 41948 PWs)   bands (ev):

   -45.9790 -45.9790 -45.9790 -45.9790 -45.9779 -45.9779 -45.9779 -45.9779
   -22.4026 -22.4026 -22.4026 -22.4026 -22.3999 -22.3999 -22.3999 -22.3999
   -22.3703 -22.3703 -22.3703 -22.3703 -22.3446 -22.3446 -22.3446 -22.3446
   -22.3419 -22.3419 -22.3419 -22.3419 -22.3160 -22.3160 -22.3160 -22.3160
   -14.4352 -14.4352 -14.4351 -14.4351 -14.3460 -14.3460 -14.3459 -14.3459
    -6.5517  -6.5517  -6.5516  -6.5516  -6.3247  -6.3247  -6.3246  -6.3246
    -5.9279  -5.9279  -5.9278  -5.9278  -5.7893  -5.7893  -5.7892  -5.7892
    -5.7833  -5.7833  -5.7832  -5.7832  -5.6900  -5.6900  -5.6898  -5.6898
    -0.0285  -0.0285  -0.0285  -0.0285   0.1377   0.1377   0.1377   0.1378
     0.2684   0.2684   0.2684   0.2684   0.4301   0.4301   0.4301   0.4301
     0.4581   0.4581   0.4582   0.4582   0.5658   0.5658   0.5658   0.5658
     6.0884   6.0884   6.0885   6.0885   6.7139   6.7139   6.7140   6.7140
     6.8687   6.8687   6.8687   6.8688   7.0061   7.0061   7.0062   7.0062
     7.0800   7.0801   7.0801   7.0802   7.1571   7.1571   7.1572   7.1572
     7.5167   7.5167   7.5168   7.5168   7.6601   7.6601   7.6602   7.6602
     7.7204   7.7204   7.7205   7.7205   7.9469   7.9469   7.9470   7.9470
     8.0478   8.0478   8.0479   8.0479   8.7058   8.7058   8.7059   8.7059
     9.1545   9.1545   9.1545   9.1545   9.1970   9.1970   9.1971   9.1971
     9.2313   9.2314   9.2314   9.2314   9.5417   9.5417   9.5418   9.5418
     9.6529   9.6529   9.6530   9.6530   9.7172   9.7172   9.7173   9.7173
    13.0216  13.0216  13.0216  13.0216  13.2143  13.2143  13.2143  13.2143
    13.3827  13.3827  13.3828  13.3828  13.6074  13.6074  13.6075  13.6075
    14.0263  14.0263  14.0263  14.0263  14.0679  14.0679  14.0679  14.0679
    14.9308  14.9308  14.9308  14.9308  16.2014  16.2015  16.2016  16.2016
    16.3146  16.3147  16.3148  16.3148  16.7889  16.7889  16.7890  16.7891

          k = 0.1667 0.1667 0.0000 ( 42015 PWs)   bands (ev):

   -45.9799 -45.9790 -45.9789 -45.9789 -45.9780 -45.9780 -45.9780 -45.9771
   -22.4283 -22.4251 -22.4251 -22.4227 -22.3789 -22.3770 -22.3770 -22.3751
   -22.3697 -22.3697 -22.3667 -22.3665 -22.3665 -22.3665 -22.3642 -22.3641
   -22.3217 -22.3215 -22.3196 -22.3196 -22.3196 -22.3195 -22.3177 -22.3177
   -14.5265 -14.4214 -14.4214 -14.4173 -14.3501 -14.3481 -14.3480 -14.2865
    -6.7917  -6.7917  -6.7288  -6.6003  -6.3796  -6.2136  -6.2136  -5.9395
    -5.9274  -5.9274  -5.8833  -5.8833  -5.8553  -5.8124  -5.7995  -5.7978
    -5.7776  -5.7776  -5.7705  -5.7373  -5.7113  -5.6337  -5.6042  -5.6042
    -0.4193  -0.3438  -0.2978   0.1810   0.1810   0.2143   0.2596   0.2597
     0.2791   0.2830   0.2946   0.3603   0.3711   0.4188   0.4188   0.4540
     0.4540   0.4961   0.5721   0.5721   0.6316   0.6386   0.6386   0.6652
     5.8156   5.9657   5.9658   6.0066   6.1394   6.2391   6.2391   6.2899
     6.3196   6.3196   6.4414   6.4903   6.4903   6.5179   6.5300   7.3373
     7.4146   7.4146   7.4180   7.4180   7.4471   7.4708   7.4843   7.4843
     7.5222   7.5700   7.5700   7.5723   7.6136   7.7124   7.7572   7.7922
     7.8130   7.8130   7.8500   7.8613   7.9330   8.0261   8.0261   8.3899
     8.3899   8.5218   8.5324   8.5324   8.6571   8.6915   8.7476   8.8288
     8.8296   8.8296   9.0435   9.0691   9.0808   9.0808   9.2073   9.2595
     9.2948   9.2948   9.3556   9.3556   9.4299   9.4299   9.4308   9.4662
     9.8584   9.8862   9.9951   9.9951   9.9973  10.0556  10.1105  10.1136
    12.3009  12.4231  12.4514  12.4616  12.5337  12.5337  13.7121  13.7121
    13.7390  13.7518  13.7518  13.7772  13.7772  13.8016  13.8411  13.8641
    13.8988  13.8988  14.1417  14.1869  14.1869  14.3707  14.4082  14.4133
    14.5812  14.5812  14.5952  14.6729  14.6817  14.9994  15.3457  15.3952
    15.3952  15.4805  16.2021  16.2021  16.5282  16.8528  17.0191  17.1686

          k = 0.1667 0.1667 0.1649 ( 41994 PWs)   bands (ev):

   -45.9798 -45.9790 -45.9789 -45.9789 -45.9781 -45.9781 -45.9779 -45.9772
   -22.4250 -22.4219 -22.4219 -22.4195 -22.3823 -22.3802 -22.3802 -22.3783
   -22.3695 -22.3695 -22.3667 -22.3667 -22.3665 -22.3663 -22.3644 -22.3642
   -22.3216 -22.3214 -22.3198 -22.3196 -22.3195 -22.3195 -22.3179 -22.3179
   -14.5194 -14.4248 -14.4166 -14.4165 -14.3531 -14.3530 -14.3459 -14.2908
    -6.7591  -6.7591  -6.7093  -6.5933  -6.3462  -6.2649  -6.2649  -5.9445
    -5.9142  -5.9142  -5.8799  -5.8799  -5.8544  -5.8524  -5.8153  -5.7890
    -5.7651  -5.7651  -5.7648  -5.7633  -5.7001  -5.6455  -5.6175  -5.6175
    -0.3788  -0.3467  -0.2024   0.1694   0.1980   0.1981   0.2203   0.2663
     0.2663   0.2839   0.2852   0.3649   0.3764   0.3764   0.4058   0.4681
     0.4720   0.4720   0.5753   0.5778   0.5779   0.6255   0.6255   0.6603
     5.8711   6.0087   6.0286   6.0286   6.2436   6.2991   6.2991   6.3053
     6.3053   6.3859   6.5045   6.5185   6.5290   6.5383   6.5383   7.3575
     7.3732   7.3732   7.4215   7.4215   7.4684   7.4684   7.4784   7.4981
     7.5155   7.5505   7.6150   7.6150   7.6243   7.6464   7.6464   7.6967
     7.7511   7.7678   7.8044   7.8323   7.9619   7.9629   7.9629   8.3373
     8.4168   8.4168   8.5912   8.6145   8.7262   8.7693   8.7693   8.7944
     8.7944   8.8265   9.0666   9.0666   9.0790   9.1112   9.2020   9.2020
     9.2479   9.3065   9.3457   9.3457   9.3596   9.3596   9.3935   9.4550
     9.8063   9.8236   9.9219   9.9597   9.9597   9.9678  10.1142  10.1278
    12.3161  12.4419  12.5264  12.5536  12.6353  12.6353  13.7175  13.7175
    13.7487  13.7601  13.7601  13.7680  13.7680  13.7728  13.7819  13.8164
    13.8164  13.8363  14.1350  14.1350  14.1566  14.3447  14.3563  14.3701
    14.6736  14.6800  14.7276  14.7276  14.7814  15.2113  15.3887  15.3887
    15.4679  15.6073  16.2668  16.2668  16.4329  16.8713  17.1137  17.1584

          k = 0.1667 0.1667 0.3297 ( 41972 PWs)   bands (ev):

   -45.9796 -45.9792 -45.9787 -45.9787 -45.9783 -45.9783 -45.9778 -45.9773
   -22.4161 -22.4132 -22.4132 -22.4108 -22.3914 -22.3891 -22.3891 -22.3871
   -22.3689 -22.3689 -22.3673 -22.3673 -22.3661 -22.3659 -22.3648 -22.3647
   -22.3212 -22.3210 -22.3202 -22.3200 -22.3192 -22.3192 -22.3182 -22.3182
   -14.4997 -14.4451 -14.4033 -14.4033 -14.3667 -14.3666 -14.3344 -14.3026
    -6.6674  -6.6674  -6.6606  -6.5874  -6.3877  -6.3877  -6.2528  -5.9754
    -5.9429  -5.8891  -5.8891  -5.8732  -5.8732  -5.8446  -5.8330  -5.8232
    -5.7600  -5.7441  -5.7362  -5.7362  -5.7013  -5.6773  -5.6526  -5.6526
    -0.2720  -0.2671  -0.0173   0.0489   0.0633   0.2311   0.2312   0.2950
     0.3018   0.3050   0.3050   0.3165   0.3166   0.3479   0.4050   0.4206
     0.4520   0.4520   0.4893   0.5894   0.5894   0.6060   0.6060   0.6325
     5.9623   6.0114   6.1417   6.1417   6.2691   6.2691   6.4836   6.4836
     6.5202   6.5264   6.5312   6.6414   6.7236   6.7236   6.7445   7.1204
     7.1204   7.3131   7.3356   7.3573   7.3573   7.4293   7.4293   7.4353
     7.4660   7.4660   7.5110   7.5648   7.6167   7.6980   7.7292   7.7339
     7.7339   7.7451   7.7756   7.9053   7.9247   7.9552   7.9553   8.0450
     8.3838   8.4159   8.4841   8.4841   8.6571   8.6571   8.8227   8.8499
     8.9424   8.9424   9.0577   9.0603   9.0603   9.1548   9.1548   9.1750
     9.2457   9.2852   9.2852   9.3287   9.3287   9.3700   9.4195   9.5238
     9.6777   9.7218   9.7346   9.7822   9.8423   9.8423  10.1173  10.1302
    12.3451  12.4161  12.8067  12.8069  12.8996  12.8996  13.4968  13.5216
    13.5688  13.5688  13.7310  13.7310  13.7656  13.7656  13.7969  13.7970
    13.8964  13.9334  14.0113  14.0113  14.1978  14.2212  14.2281  14.3154
    14.6747  14.6775  15.0267  15.0267  15.2266  15.3548  15.3548  15.7384
    15.7994  15.9710  16.1564  16.4932  16.4932  16.7368  16.7636  17.1405

          k = 0.1667 0.1667-0.4946 ( 41944 PWs)   bands (ev):

   -45.9794 -45.9794 -45.9785 -45.9785 -45.9785 -45.9785 -45.9776 -45.9776
   -22.4037 -22.4037 -22.4012 -22.4012 -22.4011 -22.4011 -22.3990 -22.3990
   -22.3681 -22.3681 -22.3681 -22.3681 -22.3655 -22.3654 -22.3653 -22.3653
   -22.3207 -22.3207 -22.3205 -22.3205 -22.3187 -22.3187 -22.3187 -22.3187
   -14.4726 -14.4726 -14.3851 -14.3851 -14.3850 -14.3850 -14.3186 -14.3185
    -6.6100  -6.6099  -6.5343  -6.5343  -6.5342  -6.5342  -6.1194  -6.1193
    -5.9050  -5.9049  -5.8732  -5.8732  -5.8732  -5.8732  -5.8340  -5.8339
    -5.7199  -5.7198  -5.7194  -5.7193  -5.6970  -5.6970  -5.6969  -5.6969
    -0.1217  -0.1217  -0.1114  -0.1113   0.2062   0.2062   0.2665   0.2665
     0.2666   0.2666   0.3247   0.3248   0.3395   0.3395   0.3814   0.3814
     0.3814   0.3815   0.5722   0.5723   0.5980   0.5980   0.5980   0.5980
     6.0042   6.0043   6.2184   6.2184   6.2185   6.2185   6.5230   6.5231
     6.7689   6.7689   6.7690   6.7690   6.9304   6.9306   6.9611   6.9612
     7.0541   7.0541   7.0542   7.0542   7.2091   7.2093   7.4405   7.4405
     7.4406   7.4406   7.5638   7.5639   7.6785   7.6786   7.6840   7.6841
     7.7451   7.7451   7.8733   7.8733   7.8734   7.8734   8.1697   8.1697
     8.1832   8.1833   8.5568   8.5568   8.5568   8.5568   8.9520   8.9520
     8.9567   8.9567   8.9840   8.9840   8.9840   8.9840   9.1655   9.1655
     9.1655   9.1655   9.4676   9.4676   9.5523   9.5523   9.5618   9.5618
     9.6240   9.6240   9.6240   9.6240   9.6243   9.6244  10.1235  10.1236
    12.3809  12.3809  13.1525  13.1526  13.1714  13.1715  13.2406  13.2406
    13.2406  13.2406  13.7482  13.7482  13.7482  13.7483  13.8824  13.8824
    13.8825  13.8825  14.0545  14.0546  14.0737  14.0737  14.2554  14.2554
    14.6759  14.6759  15.2520  15.2520  15.2520  15.2520  15.7309  15.7310
    16.2573  16.2575  16.3435  16.3437  16.5171  16.5173  16.8975  16.8975

          k = 0.1667 0.3333 0.0000 ( 41992 PWs)   bands (ev):

   -45.9797 -45.9791 -45.9788 -45.9787 -45.9782 -45.9782 -45.9778 -45.9773
   -22.4276 -22.4258 -22.4246 -22.4232 -22.3785 -22.3774 -22.3766 -22.3755
   -22.3690 -22.3672 -22.3660 -22.3646 -22.3596 -22.3567 -22.3566 -22.3544
   -22.3318 -22.3296 -22.3295 -22.3276 -22.3212 -22.3200 -22.3192 -22.3181
   -14.5047 -14.4440 -14.4065 -14.4029 -14.3654 -14.3629 -14.3352 -14.2996
    -6.7335  -6.7070  -6.6327  -6.6168  -6.4682  -6.3406  -6.1149  -5.9211
    -5.9004  -5.8908  -5.8874  -5.8606  -5.8395  -5.8369  -5.8166  -5.8091
    -5.7966  -5.7758  -5.7693  -5.7467  -5.7453  -5.6863  -5.6611  -5.6450
    -0.3215  -0.2159  -0.1201   0.0337   0.1279   0.2015   0.2369   0.2913
     0.3022   0.3258   0.3389   0.3588   0.3670   0.3722   0.3788   0.4168
     0.4390   0.4869   0.5338   0.5700   0.5719   0.5739   0.5929   0.5938
     5.9035   5.9630   6.0486   6.1174   6.1273   6.2757   6.3776   6.4263
     6.4621   6.5156   6.6037   6.6088   6.7064   6.7570   6.7591   7.0394
     7.2442   7.3208   7.3787   7.4077   7.4180   7.4494   7.4565   7.4773
     7.4773   7.4831   7.5053   7.5884   7.6126   7.6299   7.6569   7.7341
     7.7618   7.7876   7.8119   7.8704   7.9757   7.9996   8.0154   8.1322
     8.4366   8.4943   8.5373   8.5546   8.5637   8.6184   8.7915   8.7922
     8.8255   8.9628   8.9699   8.9898   9.1267   9.1339   9.1529   9.2342
     9.2639   9.2775   9.2877   9.3039   9.4222   9.4402   9.4737   9.5175
     9.7286   9.7794   9.8348   9.8566   9.9042   9.9919  10.0032  10.0358
    12.4300  12.5076  12.6447  12.6892  12.7468  12.7603  13.4339  13.4573
    13.4677  13.5158  13.7419  13.7697  13.7742  13.8473  13.8768  13.8877
    13.8895  13.9739  14.0022  14.0599  14.2254  14.2340  14.2737  14.3633
    14.5957  14.6096  14.8226  14.9902  15.0115  15.1326  15.3534  15.7343
    15.8378  15.9295  15.9814  16.5152  16.7552  16.7778  16.8735  17.0452

          k = 0.1667 0.3333 0.1649 ( 41951 PWs)   bands (ev):

   -45.9796 -45.9791 -45.9788 -45.9787 -45.9783 -45.9781 -45.9779 -45.9774
   -22.4244 -22.4226 -22.4214 -22.4200 -22.3818 -22.3807 -22.3798 -22.3787
   -22.3688 -22.3671 -22.3662 -22.3648 -22.3594 -22.3568 -22.3566 -22.3545
   -22.3317 -22.3297 -22.3295 -22.3277 -22.3211 -22.3199 -22.3193 -22.3182
   -14.4981 -14.4387 -14.4098 -14.4018 -14.3684 -14.3611 -14.3400 -14.3041
    -6.7049  -6.6742  -6.6186  -6.6029  -6.4348  -6.3590  -6.1712  -5.9279
    -5.9247  -5.8992  -5.8897  -5.8826  -5.8561  -5.8376  -5.8108  -5.8003
    -5.7899  -5.7705  -5.7620  -5.7421  -5.7397  -5.6968  -5.6691  -5.6534
    -0.2883  -0.2313  -0.0232   0.0611   0.1101   0.1907   0.2075   0.2884
     0.2897   0.2990   0.3042   0.3057   0.3351   0.3559   0.4001   0.4191
     0.4482   0.4677   0.4892   0.5818   0.5854   0.6018   0.6140   0.6216
     5.9685   6.0275   6.1263   6.1282   6.2161   6.2639   6.4327   6.4652
     6.5065   6.5697   6.5867   6.6363   6.7108   6.7575   6.7924   7.0726
     7.1746   7.2927   7.3571   7.3805   7.4316   7.4387   7.4506   7.4941
     7.4969   7.5004   7.5147   7.5572   7.6426   7.6568   7.6641   7.7082
     7.7339   7.7678   7.7697   7.8705   7.8915   7.8949   8.0029   8.0565
     8.3558   8.3948   8.4591   8.5350   8.5430   8.7285   8.7608   8.8678
     8.8870   8.9982   9.0089   9.0446   9.0583   9.0911   9.1928   9.2460
     9.2563   9.2654   9.3078   9.3400   9.3473   9.4148   9.4488   9.4894
     9.6834   9.7244   9.7629   9.8401   9.8839   9.9609   9.9870  10.0078
    12.5229  12.6097  12.6690  12.7486  12.7515  12.8350  13.4419  13.4721
    13.5085  13.5208  13.7548  13.7559  13.7823  13.7878  13.8030  13.8056
    13.8676  13.9023  13.9941  14.0169  14.1822  14.1986  14.2217  14.3118
    14.7406  14.7523  14.9910  15.0032  15.1803  15.2220  15.3470  15.8375
    15.9294  15.9591  16.0430  16.5428  16.6576  16.8428  16.9228  17.1534

          k = 0.1667 0.3333 0.3297 ( 41942 PWs)   bands (ev):

   -45.9794 -45.9790 -45.9789 -45.9785 -45.9785 -45.9781 -45.9780 -45.9775
   -22.4154 -22.4138 -22.4127 -22.4113 -22.3909 -22.3896 -22.3887 -22.3875
   -22.3683 -22.3667 -22.3666 -22.3653 -22.3588 -22.3574 -22.3561 -22.3550
   -22.3313 -22.3301 -22.3291 -22.3281 -22.3207 -22.3197 -22.3196 -22.3186
   -14.4797 -14.4288 -14.4241 -14.3889 -14.3835 -14.3533 -14.3491 -14.3163
    -6.6264  -6.5868  -6.5817  -6.5751  -6.4207  -6.3413  -6.2987  -6.0578
    -5.9368  -5.9086  -5.8903  -5.8656  -5.8555  -5.8464  -5.8302  -5.8038
    -5.7776  -5.7517  -5.7494  -5.7331  -5.7242  -5.7207  -5.6911  -5.6755
    -0.2141  -0.1649   0.0620   0.0965   0.1368   0.1406   0.1562   0.2082
     0.2235   0.2699   0.2892   0.3000   0.3114   0.3374   0.3610   0.3787
     0.3903   0.5039   0.5097   0.5691   0.6164   0.6195   0.6383   0.6480
     6.0748   6.1251   6.1362   6.2351   6.2984   6.4827   6.5273   6.6077
     6.6132   6.6624   6.6790   6.7608   6.7689   6.7923   6.9279   7.0006
     7.1570   7.1757   7.1915   7.1969   7.3574   7.4304   7.4334   7.4682
     7.4761   7.5067   7.5331   7.5374   7.6490   7.6827   7.6844   7.7107
     7.7220   7.7337   7.7488   7.7490   7.7848   7.9704   8.0217   8.0227
     8.0694   8.1398   8.2961   8.3484   8.5355   8.6069   8.7190   8.8902
     9.0016   9.0528   9.0665   9.1457   9.1510   9.1578   9.2242   9.2321
     9.2418   9.3121   9.3282   9.3304   9.3857   9.4502   9.4575   9.4648
     9.5665   9.5906   9.6549   9.7575   9.7769   9.8253   9.9767   9.9777
    12.6465  12.7272  12.8451  12.8752  12.9347  13.0658  13.4609  13.4732
    13.5117  13.5318  13.5459  13.5826  13.6613  13.6648  13.7858  13.8293
    13.8329  13.8590  13.8941  14.0505  14.0577  14.0578  14.1588  14.1926
    14.9334  14.9903  15.0282  15.3172  15.4102  15.4605  15.7497  15.8996
    16.1191  16.2666  16.3113  16.3744  16.6558  16.8365  16.9540  17.0206

          k = 0.1667 0.3333-0.4946 ( 41964 PWs)   bands (ev):

   -45.9792 -45.9792 -45.9787 -45.9787 -45.9783 -45.9783 -45.9777 -45.9777
   -22.4032 -22.4032 -22.4017 -22.4017 -22.4007 -22.4007 -22.3994 -22.3994
   -22.3675 -22.3675 -22.3659 -22.3659 -22.3581 -22.3581 -22.3556 -22.3555
   -22.3307 -22.3307 -22.3286 -22.3286 -22.3202 -22.3202 -22.3191 -22.3191
   -14.4545 -14.4544 -14.4039 -14.4038 -14.3712 -14.3711 -14.3328 -14.3327
    -6.5651  -6.5650  -6.5204  -6.5202  -6.4475  -6.4473  -6.2066  -6.2064
    -5.9191  -5.9190  -5.8997  -5.8996  -5.8424  -5.8423  -5.8178  -5.8177
    -5.7540  -5.7539  -5.7410  -5.7409  -5.7170  -5.7169  -5.7026  -5.7025
    -0.0955  -0.0955  -0.0233  -0.0233   0.1299   0.1300   0.2487   0.2487
     0.2520   0.2521   0.2744   0.2744   0.3375   0.3376   0.3488   0.3488
     0.3552   0.3553   0.5865   0.5865   0.6289   0.6290   0.6389   0.6389
     6.1179   6.1180   6.1972   6.1973   6.4366   6.4367   6.7017   6.7018
     6.7994   6.7995   6.8340   6.8341   6.8842   6.8843   6.9251   6.9251
     7.0824   7.0825   7.2028   7.2029   7.2071   7.2072   7.3398   7.3399
     7.4168   7.4169   7.5703   7.5704   7.6162   7.6163   7.7081   7.7081
     7.7690   7.7690   7.7989   7.7990   7.9034   7.9035   7.9059   7.9060
     8.1104   8.1105   8.1716   8.1716   8.5220   8.5220   8.7455   8.7456
     9.0522   9.0523   9.1334   9.1334   9.1534   9.1534   9.2432   9.2433
     9.3697   9.3697   9.3861   9.3862   9.4422   9.4423   9.5425   9.5425
     9.5746   9.5746   9.5851   9.5852   9.6416   9.6416   9.9707   9.9709
    12.6920  12.6921  13.1824  13.1825  13.2143  13.2144  13.2250  13.2250
    13.3678  13.3679  13.4881  13.4882  13.6569  13.6570  13.8230  13.8230
    13.8521  13.8522  13.9245  13.9246  14.0251  14.0251  14.1157  14.1157
    14.9800  14.9801  15.2301  15.2301  15.7554  15.7554  15.9414  15.9415
    16.3713  16.3715  16.5178  16.5180  16.6707  16.6708  16.8454  16.8456

          k = 0.1667-0.5000 0.0000 ( 41916 PWs)   bands (ev):

   -45.9794 -45.9794 -45.9785 -45.9785 -45.9785 -45.9785 -45.9776 -45.9776
   -22.4267 -22.4267 -22.4239 -22.4239 -22.3780 -22.3780 -22.3761 -22.3761
   -22.3681 -22.3681 -22.3653 -22.3653 -22.3457 -22.3457 -22.3432 -22.3432
   -22.3431 -22.3431 -22.3410 -22.3410 -22.3206 -22.3206 -22.3186 -22.3186
   -14.4746 -14.4746 -14.3861 -14.3861 -14.3830 -14.3830 -14.3175 -14.3175
    -6.6650  -6.6650  -6.5888  -6.5888  -6.4935  -6.4935  -5.9757  -5.9757
    -5.9027  -5.9027  -5.8625  -5.8625  -5.8324  -5.8324  -5.8320  -5.8320
    -5.7798  -5.7798  -5.7767  -5.7767  -5.7039  -5.7039  -5.6984  -5.6984
    -0.1542  -0.1542  -0.0463  -0.0463   0.1202   0.1202   0.2423   0.2423
     0.2897   0.2897   0.3297   0.3297   0.3700   0.3700   0.4526   0.4527
     0.4678   0.4678   0.5231   0.5231   0.5432   0.5432   0.5591   0.5591
     5.9492   5.9492   6.0902   6.0902   6.2160   6.2160   6.4573   6.4573
     6.6646   6.6647   6.8456   6.8456   6.9521   6.9521   7.0098   7.0098
     7.0527   7.0528   7.1185   7.1186   7.1956   7.1956   7.4648   7.4649
     7.4758   7.4758   7.6356   7.6356   7.6852   7.6852   7.7174   7.7174
     7.7570   7.7570   7.7847   7.7847   7.8475   7.8475   8.2324   8.2324
     8.3255   8.3256   8.5080   8.5080   8.7338   8.7338   8.8001   8.8001
     8.8757   8.8757   8.9060   8.9060   8.9395   8.9395   9.1704   9.1705
     9.2064   9.2064   9.5056   9.5056   9.6036   9.6036   9.6173   9.6173
     9.6433   9.6433   9.6675   9.6675   9.7631   9.7631  10.0170  10.0170
    12.4718  12.4718  13.0428  13.0428  13.0684  13.0684  13.0946  13.0946
    13.1491  13.1491  13.7620  13.7620  13.8568  13.8568  13.8742  13.8742
    13.9354  13.9354  14.0486  14.0486  14.1112  14.1112  14.2985  14.2985
    14.6055  14.6055  14.9692  14.9692  15.2338  15.2338  15.6119  15.6120
    16.2642  16.2643  16.3820  16.3820  16.5162  16.5162  16.9885  16.9886

          k = 0.1667-0.5000 0.1649 ( 41930 PWs)   bands (ev):

   -45.9793 -45.9793 -45.9786 -45.9786 -45.9784 -45.9784 -45.9776 -45.9776
   -22.4235 -22.4235 -22.4207 -22.4207 -22.3813 -22.3813 -22.3793 -22.3793
   -22.3679 -22.3679 -22.3655 -22.3655 -22.3456 -22.3456 -22.3433 -22.3433
   -22.3430 -22.3430 -22.3412 -22.3412 -22.3205 -22.3205 -22.3188 -22.3188
   -14.4686 -14.4686 -14.3893 -14.3892 -14.3816 -14.3815 -14.3221 -14.3221
    -6.6429  -6.6429  -6.5557  -6.5556  -6.4906  -6.4906  -6.0436  -6.0436
    -5.9058  -5.9058  -5.8568  -5.8568  -5.8342  -5.8342  -5.8257  -5.8257
    -5.7845  -5.7844  -5.7738  -5.7738  -5.7045  -5.7045  -5.7006  -5.7006
    -0.1259  -0.1259  -0.0678  -0.0678   0.2011   0.2011   0.2379   0.2379
     0.2422   0.2422   0.3247   0.3247   0.3362   0.3362   0.3768   0.3768
     0.4150   0.4150   0.5656   0.5656   0.5889   0.5889   0.5962   0.5962
     6.0158   6.0158   6.1812   6.1812   6.2085   6.2085   6.4986   6.4986
     6.7123   6.7124   6.8420   6.8420   6.9342   6.9342   6.9721   6.9721
     7.0649   7.0649   7.1486   7.1486   7.2045   7.2045   7.4852   7.4852
     7.5065   7.5065   7.5688   7.5688   7.6748   7.6748   7.6956   7.6956
     7.7770   7.7770   7.7912   7.7912   7.7992   7.7992   8.1385   8.1386
     8.2387   8.2387   8.4244   8.4244   8.6763   8.6763   8.8079   8.8079
     8.9603   8.9603   8.9802   8.9802   8.9805   8.9805   9.1521   9.1521
     9.2343   9.2343   9.4809   9.4809   9.5421   9.5421   9.5873   9.5873
     9.6171   9.6171   9.6847   9.6847   9.7505   9.7505   9.9700   9.9700
    12.5739  12.5739  13.0570  13.0570  13.0964  13.0965  13.1412  13.1412
    13.1642  13.1643  13.7853  13.7853  13.7856  13.7856  13.8550  13.8550
    13.8705  13.8705  14.0214  14.0214  14.0512  14.0513  14.2467  14.2467
    14.7497  14.7497  15.1729  15.1729  15.2306  15.2307  15.6671  15.6671
    16.3413  16.3413  16.5013  16.5013  16.5323  16.5323  17.0281  17.0285

          k = 0.1667-0.5000 0.3297 ( 41930 PWs)   bands (ev):

   -45.9792 -45.9792 -45.9787 -45.9787 -45.9782 -45.9782 -45.9778 -45.9778
   -22.4146 -22.4146 -22.4120 -22.4120 -22.3902 -22.3902 -22.3881 -22.3881
   -22.3674 -22.3674 -22.3660 -22.3660 -22.3451 -22.3451 -22.3438 -22.3438
   -22.3426 -22.3426 -22.3416 -22.3416 -22.3201 -22.3201 -22.3191 -22.3191
   -14.4521 -14.4521 -14.4063 -14.4063 -14.3692 -14.3691 -14.3349 -14.3348
    -6.5870  -6.5870  -6.4941  -6.4941  -6.4625  -6.4624  -6.1771  -6.1770
    -5.9159  -5.9159  -5.8995  -5.8995  -5.8106  -5.8106  -5.8059  -5.8059
    -5.7896  -5.7896  -5.7769  -5.7768  -5.7079  -5.7079  -5.7061  -5.7061
    -0.0821  -0.0821  -0.0177  -0.0177   0.1137   0.1137   0.2418   0.2418
     0.2469   0.2469   0.2760   0.2760   0.3344   0.3344   0.3505   0.3505
     0.3678   0.3678   0.5812   0.5812   0.6250   0.6250   0.6412   0.6412
     6.1241   6.1241   6.1921   6.1921   6.4123   6.4123   6.6744   6.6744
     6.8348   6.8348   6.8542   6.8542   6.8596   6.8596   6.9205   6.9205
     7.0979   7.0980   7.2050   7.2050   7.2519   7.2519   7.3465   7.3465
     7.4267   7.4268   7.6070   7.6071   7.6079   7.6079   7.7217   7.7217
     7.7371   7.7371   7.8164   7.8164   7.8488   7.8488   7.8933   7.8933
     8.1405   8.1405   8.1456   8.1456   8.5838   8.5838   8.6616   8.6616
     9.0712   9.0712   9.1306   9.1306   9.1382   9.1382   9.2589   9.2589
     9.2768   9.2768   9.3914   9.3914   9.4053   9.4053   9.5743   9.5743
     9.6377   9.6377   9.6715   9.6715   9.7241   9.7241   9.8318   9.8318
    12.8343  12.8343  13.0904  13.0904  13.1179  13.1179  13.2042  13.2042
    13.3480  13.3480  13.5459  13.5459  13.6483  13.6483  13.8417  13.8417
    13.8536  13.8536  13.9099  13.9099  14.0010  14.0010  14.1212  14.1212
    15.0126  15.0126  15.2141  15.2141  15.6733  15.6733  15.8922  15.8923
    16.5017  16.5017  16.5580  16.5581  16.7388  16.7389  17.0071  17.0071

          k = 0.1667-0.5000-0.4946 ( 41964 PWs)   bands (ev):

   -45.9789 -45.9789 -45.9789 -45.9789 -45.9780 -45.9780 -45.9780 -45.9780
   -22.4025 -22.4025 -22.4024 -22.4024 -22.4001 -22.4001 -22.4001 -22.4001
   -22.3667 -22.3667 -22.3667 -22.3667 -22.3444 -22.3444 -22.3444 -22.3444
   -22.3421 -22.3421 -22.3421 -22.3421 -22.3196 -22.3196 -22.3196 -22.3196
   -14.4293 -14.4293 -14.4293 -14.4292 -14.3521 -14.3521 -14.3520 -14.3520
    -6.5269  -6.5269  -6.5267  -6.5267  -6.3274  -6.3273  -6.3272  -6.3272
    -5.9215  -5.9215  -5.9214  -5.9214  -5.7990  -5.7990  -5.7989  -5.7989
    -5.7855  -5.7854  -5.7853  -5.7853  -5.7103  -5.7103  -5.7102  -5.7102
    -0.0088  -0.0088  -0.0088  -0.0088   0.1078   0.1078   0.1078   0.1078
     0.2480   0.2480   0.2481   0.2481   0.3430   0.3430   0.3430   0.3430
     0.4925   0.4925   0.4925   0.4925   0.6537   0.6537   0.6537   0.6537
     6.1718   6.1718   6.1719   6.1719   6.6695   6.6695   6.6696   6.6696
     6.8210   6.8210   6.8210   6.8210   7.0777   7.0777   7.0777   7.0777
     7.0788   7.0788   7.0789   7.0789   7.2166   7.2166   7.2167   7.2167
     7.4417   7.4417   7.4418   7.4418   7.7193   7.7193   7.7193   7.7193
     7.7232   7.7233   7.7233   7.7233   7.9141   7.9141   7.9141   7.9141
     7.9907   7.9907   7.9908   7.9908   8.5558   8.5558   8.5559   8.5559
     9.1652   9.1652   9.1653   9.1653   9.2556   9.2556   9.2557   9.2557
     9.3019   9.3019   9.3020   9.3020   9.5407   9.5407   9.5407   9.5407
     9.6248   9.6248   9.6248   9.6248   9.7161   9.7161   9.7163   9.7163
    13.0675  13.0676  13.0676  13.0676  13.2337  13.2337  13.2338  13.2338
    13.4017  13.4017  13.4017  13.4017  13.5933  13.5933  13.5933  13.5933
    13.9416  13.9416  13.9416  13.9416  13.9868  13.9868  13.9868  13.9868
    15.1610  15.1610  15.1610  15.1610  16.2151  16.2151  16.2152  16.2152
    16.3113  16.3114  16.3114  16.3115  17.0760  17.0760  17.0760  17.0761

          k = 0.3333 0.3333 0.0000 ( 41914 PWs)   bands (ev):

   -45.9795 -45.9789 -45.9789 -45.9786 -45.9784 -45.9780 -45.9780 -45.9775
   -22.4270 -22.4252 -22.4252 -22.4237 -22.3781 -22.3770 -22.3770 -22.3759
   -22.3590 -22.3590 -22.3576 -22.3570 -22.3561 -22.3561 -22.3550 -22.3547
   -22.3317 -22.3310 -22.3301 -22.3301 -22.3293 -22.3290 -22.3280 -22.3280
   -14.4844 -14.4277 -14.4277 -14.3888 -14.3823 -14.3497 -14.3497 -14.3131
    -6.6659  -6.6659  -6.6095  -6.5361  -6.5083  -6.2430  -6.2430  -5.9537
    -5.8944  -5.8735  -5.8735  -5.8667  -5.8667  -5.8446  -5.8372  -5.8124
    -5.8013  -5.7765  -5.7669  -5.7418  -5.7418  -5.7210  -5.7210  -5.6734
    -0.2682  -0.1024   0.0405   0.0405   0.0616   0.1862   0.2160   0.2161
     0.2288   0.2668   0.3125   0.3125   0.3577   0.4451   0.4495   0.4495
     0.4528   0.4529   0.4722   0.5100   0.5566   0.5575   0.5811   0.5812
     5.9924   6.0492   6.0493   6.1068   6.2970   6.5240   6.5240   6.5437
     6.5437   6.6385   6.7806   6.7967   6.7967   6.7975   6.8043   6.8899
     7.1553   7.2209   7.3139   7.3139   7.3710   7.3781   7.4325   7.4325
     7.5497   7.5704   7.5704   7.6018   7.6117   7.6117   7.6703   7.6703
     7.7365   7.7400   7.7807   7.7961   7.8241   8.0855   8.0856   8.1414
     8.1414   8.1793   8.4189   8.4494   8.4494   8.4664   8.6130   8.7543
     8.9274   8.9274   9.0171   9.0569   9.1539   9.1827   9.2417   9.2583
     9.3185   9.3185   9.3613   9.3613   9.3738   9.3738   9.5588   9.5588
     9.6698   9.7273   9.7394   9.7783   9.8519   9.8519   9.9130   9.9236
    12.5884  12.7211  12.7211  12.7727  12.8582  13.0040  13.3842  13.4585
    13.4586  13.5060  13.5060  13.5572  13.6506  13.6506  13.8274  13.8679
    13.9063  13.9507  13.9507  14.0569  14.1060  14.1060  14.2193  14.2374
    14.7868  14.8371  14.8371  15.0181  15.3997  15.4436  15.8948  15.8948
    16.1285  16.1321  16.2817  16.2818  16.8817  16.9620  17.0023  17.0023

          k = 0.3333 0.3333 0.1649 ( 41964 PWs)   bands (ev):

   -45.9794 -45.9789 -45.9789 -45.9786 -45.9783 -45.9781 -45.9781 -45.9776
   -22.4238 -22.4220 -22.4220 -22.4206 -22.3814 -22.3803 -22.3803 -22.3792
   -22.3588 -22.3588 -22.3575 -22.3569 -22.3563 -22.3563 -22.3552 -22.3548
   -22.3315 -22.3309 -22.3299 -22.3299 -22.3295 -22.3291 -22.3281 -22.3281
   -14.4781 -14.4226 -14.4225 -14.3953 -14.3777 -14.3550 -14.3550 -14.3179
    -6.6363  -6.6363  -6.5910  -6.5269  -6.4759  -6.2650  -6.2650  -6.0055
    -5.9038  -5.8806  -5.8806  -5.8644  -5.8644  -5.8401  -5.8240  -5.8193
    -5.8035  -5.7811  -5.7680  -5.7408  -5.7408  -5.7278  -5.7278  -5.6832
    -0.2359  -0.1261   0.0608   0.0609   0.1510   0.1856   0.1856   0.1920
     0.1944   0.2619   0.2872   0.2873   0.3110   0.3224   0.3778   0.3779
     0.3962   0.5059   0.5059   0.5704   0.6069   0.6249   0.6365   0.6365
     6.0733   6.1287   6.1287   6.1990   6.2883   6.5211   6.5211   6.5470
     6.5470   6.6488   6.7972   6.8028   6.8070   6.8325   6.8325   6.9150
     7.1553   7.1773   7.2501   7.2501   7.3903   7.4441   7.4589   7.4589
     7.5002   7.5002   7.5630   7.5896   7.6836   7.6836   7.6845   7.6845
     7.6962   7.7348   7.7363   7.7886   7.8144   7.9519   7.9519   8.1338
     8.1339   8.1646   8.3094   8.3457   8.4594   8.4594   8.5643   8.7017
     9.0203   9.0224   9.0224   9.1385   9.2020   9.2103   9.2420   9.2420
     9.2906   9.2959   9.3126   9.3126   9.4390   9.4390   9.5297   9.5297
     9.6101   9.7055   9.7095   9.7315   9.8279   9.8279   9.9012   9.9135
    12.6745  12.8080  12.8080  12.8257  12.8770  12.9936  13.4408  13.4790
    13.4791  13.5204  13.5204  13.5904  13.6385  13.6385  13.7779  13.8208
    13.8431  13.8686  13.8686  14.0384  14.0416  14.0416  14.1568  14.1771
    14.9832  15.0196  15.0196  15.2277  15.4043  15.4408  15.8931  15.8931
    16.2107  16.2389  16.3038  16.3038  16.7798  16.9937  17.0736  17.0737

          k = 0.3333 0.3333 0.3297 ( 41953 PWs)   bands (ev):

   -45.9793 -45.9788 -45.9787 -45.9787 -45.9783 -45.9783 -45.9782 -45.9777
   -22.4149 -22.4133 -22.4133 -22.4119 -22.3904 -22.3891 -22.3891 -22.3880
   -22.3583 -22.3583 -22.3570 -22.3568 -22.3568 -22.3564 -22.3557 -22.3553
   -22.3311 -22.3305 -22.3299 -22.3296 -22.3296 -22.3295 -22.3285 -22.3285
   -14.4609 -14.4131 -14.4085 -14.4084 -14.3695 -14.3694 -14.3652 -14.3307
    -6.5549  -6.5549  -6.5481  -6.5104  -6.3858  -6.3355  -6.3355  -6.1199
    -5.9205  -5.8834  -5.8834  -5.8754  -5.8628  -5.8628  -5.8278  -5.7963
    -5.7938  -5.7790  -5.7721  -5.7429  -5.7429  -5.7414  -5.7414  -5.7095
    -0.1469  -0.1110   0.1013   0.1159   0.1160   0.1385   0.1541   0.1541
     0.2077   0.2213   0.2214   0.2480   0.2621   0.2833   0.2833   0.3089
     0.3185   0.5921   0.5995   0.5995   0.6548   0.6825   0.6825   0.6889
     6.2171   6.2752   6.2820   6.2820   6.4361   6.4623   6.4623   6.6720
     6.6720   6.7587   6.7966   6.7995   6.8833   6.9487   6.9487   6.9721
     7.0229   7.0861   7.0861   7.2122   7.4291   7.4291   7.4295   7.5010
     7.5112   7.5112   7.5321   7.5514   7.6329   7.6405   7.6405   7.7301
     7.7302   7.7310   7.7350   7.7350   7.8356   7.8356   7.8686   8.0007
     8.0795   8.1123   8.1123   8.1180   8.2929   8.2929   8.4760   8.5400
     9.1436   9.1903   9.1903   9.2043   9.2043   9.2469   9.2473   9.3239
     9.3239   9.3528   9.3781   9.4007   9.4703   9.4703   9.4875   9.4875
     9.5354   9.5898   9.6154   9.6459   9.7445   9.7445   9.8783   9.8905
    12.8453  12.9639  12.9833  12.9887  13.0359  13.0359  13.5302  13.5302
    13.5430  13.5762  13.5763  13.5853  13.5853  13.5889  13.5897  13.6698
    13.6698  13.6859  13.8824  13.8824  13.8865  13.9715  14.0053  14.0365
    15.4145  15.4286  15.4286  15.4340  15.4620  15.7554  15.8690  15.8690
    16.4033  16.4033  16.4429  16.4808  16.5542  16.9124  17.0855  17.0855

          k = 0.3333 0.3333-0.4946 ( 41948 PWs)   bands (ev):

   -45.9790 -45.9790 -45.9785 -45.9785 -45.9785 -45.9785 -45.9779 -45.9779
   -22.4027 -22.4027 -22.4012 -22.4012 -22.4012 -22.4012 -22.3999 -22.3999
   -22.3576 -22.3576 -22.3576 -22.3576 -22.3563 -22.3563 -22.3559 -22.3558
   -22.3305 -22.3305 -22.3300 -22.3300 -22.3290 -22.3290 -22.3290 -22.3290
   -14.4371 -14.4371 -14.3891 -14.3891 -14.3890 -14.3890 -14.3480 -14.3480
    -6.5132  -6.5130  -6.4435  -6.4434  -6.4433  -6.4433  -6.2575  -6.2574
    -5.9163  -5.9162  -5.8717  -5.8717  -5.8716  -5.8716  -5.8110  -5.8108
    -5.7809  -5.7808  -5.7470  -5.7470  -5.7468  -5.7468  -5.7448  -5.7447
    -0.0238  -0.0237  -0.0187  -0.0186   0.1626   0.1626   0.1626   0.1626
     0.1979   0.1979   0.1979   0.1979   0.2283   0.2283   0.2598   0.2599
     0.4836   0.4836   0.6686   0.6686   0.6686   0.6686   0.7005   0.7006
     6.2673   6.2674   6.3854   6.3854   6.3855   6.3855   6.7186   6.7187
     6.7971   6.7972   6.8883   6.8883   6.8884   6.8884   6.9322   6.9322
     7.1939   7.1939   7.1940   7.1940   7.2436   7.2436   7.3216   7.3216
     7.4909   7.4910   7.5582   7.5582   7.5583   7.5583   7.7283   7.7283
     7.7566   7.7567   7.8017   7.8018   7.8018   7.8018   7.8787   7.8788
     7.9648   7.9649   8.1335   8.1335   8.1335   8.1335   8.4388   8.4389
     9.1979   9.1979   9.1979   9.1979   9.2790   9.2790   9.3707   9.3707
     9.4481   9.4482   9.4482   9.4483   9.4837   9.4837   9.4961   9.4962
     9.5188   9.5189   9.5855   9.5855   9.5855   9.5855   9.8728   9.8730
    12.9185  12.9185  13.2484  13.2484  13.2756  13.2757  13.3330  13.3330
    13.3331  13.3331  13.5821  13.5821  13.5822  13.5822  13.7050  13.7050
    13.7050  13.7050  13.7894  13.7894  13.8322  13.8322  13.9486  13.9486
    15.4251  15.4251  15.7530  15.7530  15.7530  15.7530  16.0145  16.0146
    16.3884  16.3886  16.6828  16.6829  16.7860  16.7861  17.0410  17.0460

          k = 0.3333-0.5000 0.0000 ( 41940 PWs)   bands (ev):

   -45.9792 -45.9792 -45.9787 -45.9787 -45.9783 -45.9783 -45.9778 -45.9778
   -22.4261 -22.4261 -22.4245 -22.4245 -22.3776 -22.3776 -22.3765 -22.3765
   -22.3582 -22.3582 -22.3555 -22.3555 -22.3452 -22.3452 -22.3437 -22.3437
   -22.3427 -22.3427 -22.3414 -22.3414 -22.3307 -22.3307 -22.3286 -22.3286
   -14.4562 -14.4562 -14.4051 -14.4051 -14.3693 -14.3693 -14.3315 -14.3315
    -6.6253  -6.6253  -6.5804  -6.5804  -6.3964  -6.3964  -6.1036  -6.1036
    -5.8738  -5.8738  -5.8551  -5.8551  -5.8367  -5.8367  -5.8341  -5.8341
    -5.8049  -5.8049  -5.7580  -5.7580  -5.7543  -5.7543  -5.7053  -5.7053
    -0.1363  -0.1363   0.0541   0.0541   0.0913   0.0913   0.2555   0.2556
     0.2694   0.2694   0.2757   0.2757   0.3412   0.3412   0.4026   0.4026
     0.4883   0.4883   0.5249   0.5249   0.5406   0.5406   0.5615   0.5615
     6.0359   6.0359   6.0904   6.0904   6.4460   6.4460   6.6448   6.6448
     6.6875   6.6875   6.8969   6.8969   6.9184   6.9184   7.0200   7.0200
     7.1225   7.1226   7.1676   7.1676   7.1816   7.1816   7.3888   7.3888
     7.4385   7.4385   7.5819   7.5819   7.7078   7.7078   7.7163   7.7163
     7.7477   7.7477   7.8893   7.8893   7.8960   7.8960   7.9174   7.9174
     8.2315   8.2315   8.3378   8.3378   8.3860   8.3860   8.5098   8.5098
     9.0289   9.0289   9.0422   9.0422   9.2056   9.2056   9.2264   9.2264
     9.2821   9.2821   9.5013   9.5013   9.5190   9.5190   9.5843   9.5843
     9.5854   9.5854   9.6704   9.6704   9.7763   9.7763   9.8584   9.8584
    12.6793  12.6793  13.0644  13.0644  13.0834  13.0834  13.1688  13.1688
    13.3294  13.3294  13.4853  13.4853  13.6369  13.6369  13.8462  13.8463
    13.9143  13.9143  13.9779  13.9779  14.0729  14.0729  14.1682  14.1682
    14.8352  14.8352  14.9767  14.9768  15.7403  15.7403  15.9006  15.9006
    16.5080  16.5080  16.5494  16.5494  16.7193  16.7193  16.7359  16.7360

          k = 0.3333-0.5000 0.1649 ( 41956 PWs)   bands (ev):

   -45.9791 -45.9791 -45.9786 -45.9786 -45.9784 -45.9784 -45.9778 -45.9778
   -22.4229 -22.4229 -22.4213 -22.4213 -22.3809 -22.3809 -22.3797 -22.3797
   -22.3580 -22.3580 -22.3557 -22.3557 -22.3450 -22.3450 -22.3436 -22.3436
   -22.3428 -22.3428 -22.3416 -22.3416 -22.3306 -22.3306 -22.3287 -22.3287
   -14.4505 -14.4505 -14.4003 -14.4002 -14.3753 -14.3752 -14.3365 -14.3365
    -6.6009  -6.6009  -6.5495  -6.5495  -6.3977  -6.3977  -6.1344  -6.1344
    -5.8773  -5.8773  -5.8552  -5.8552  -5.8540  -5.8540  -5.8292  -5.8292
    -5.8064  -5.8064  -5.7611  -5.7611  -5.7577  -5.7577  -5.7112  -5.7112
    -0.1099  -0.1099   0.0233   0.0233   0.1041   0.1041   0.2256   0.2256
     0.2642   0.2642   0.2905   0.2906   0.3348   0.3348   0.3463   0.3463
     0.3542   0.3542   0.5849   0.5849   0.6254   0.6254   0.6311   0.6311
     6.1185   6.1185   6.1763   6.1763   6.4256   6.4256   6.6444   6.6444
     6.7126   6.7126   6.8512   6.8512   6.9304   6.9304   6.9967   6.9967
     7.1538   7.1539   7.1812   7.1812   7.2109   7.2109   7.4074   7.4074
     7.4318   7.4319   7.6008   7.6009   7.6152   7.6152   7.7176   7.7177
     7.7605   7.7605   7.8694   7.8694   7.8696   7.8696   7.9345   7.9345
     8.1162   8.1162   8.2999   8.2999   8.3157   8.3157   8.4758   8.4758
     9.0997   9.0997   9.1172   9.1172   9.1939   9.1939   9.2084   9.2084
     9.3466   9.3467   9.4536   9.4537   9.4791   9.4791   9.5885   9.5885
     9.6086   9.6086   9.6392   9.6392   9.7587   9.7587   9.8319   9.8319
    12.7648  12.7648  13.1181  13.1181  13.1325  13.1325  13.1851  13.1851
    13.3179  13.3179  13.5155  13.5155  13.6525  13.6525  13.8285  13.8285
    13.8300  13.8300  13.9001  13.9001  13.9997  13.9997  14.1053  14.1054
    15.0241  15.0241  15.1813  15.1813  15.7429  15.7429  15.9109  15.9109
    16.5152  16.5153  16.6343  16.6343  16.7356  16.7357  16.7845  16.7853

          k = 0.3333-0.5000 0.3297 ( 41962 PWs)   bands (ev):

   -45.9790 -45.9790 -45.9785 -45.9785 -45.9784 -45.9784 -45.9780 -45.9780
   -22.4141 -22.4141 -22.4126 -22.4126 -22.3898 -22.3898 -22.3886 -22.3886
   -22.3575 -22.3575 -22.3562 -22.3562 -22.3446 -22.3446 -22.3433 -22.3433
   -22.3432 -22.3432 -22.3420 -22.3420 -22.3302 -22.3302 -22.3291 -22.3291
   -14.4348 -14.4348 -14.3914 -14.3914 -14.3870 -14.3869 -14.3502 -14.3501
    -6.5373  -6.5373  -6.4638  -6.4638  -6.4135  -6.4135  -6.2224  -6.2224
    -5.8908  -5.8908  -5.8891  -5.8891  -5.8450  -5.8449  -5.8219  -5.8219
    -5.8021  -5.8021  -5.7697  -5.7697  -5.7640  -5.7640  -5.7284  -5.7284
    -0.0395  -0.0395   0.0123   0.0123   0.1387   0.1387   0.1422   0.1422
     0.2037   0.2037   0.2285   0.2285   0.2328   0.2328   0.2489   0.2489
     0.4861   0.4861   0.6635   0.6635   0.6705   0.6705   0.6977   0.6977
     6.2698   6.2698   6.3740   6.3740   6.3808   6.3808   6.7272   6.7272
     6.7304   6.7304   6.8352   6.8352   6.9493   6.9493   6.9695   6.9695
     7.1870   7.1870   7.2280   7.2280   7.2967   7.2967   7.3072   7.3072
     7.4816   7.4816   7.5574   7.5574   7.5719   7.5719   7.7276   7.7276
     7.7860   7.7860   7.8042   7.8042   7.8163   7.8163   7.9204   7.9204
     7.9461   7.9461   8.0554   8.0555   8.2156   8.2156   8.2975   8.2975
     9.2033   9.2033   9.2370   9.2371   9.2630   9.2630   9.3204   9.3204
     9.4181   9.4181   9.4249   9.4249   9.4282   9.4282   9.5736   9.5736
     9.5834   9.5834   9.6089   9.6089   9.7189   9.7189   9.7539   9.7539
    12.9862  12.9862  13.2052  13.2052  13.2573  13.2573  13.2839  13.2839
    13.3119  13.3119  13.6041  13.6041  13.6051  13.6051  13.6968  13.6968
    13.6973  13.6973  13.7678  13.7679  13.8275  13.8275  13.9490  13.9490
    15.4451  15.4451  15.6877  15.6877  15.7419  15.7419  15.9805  15.9805
    16.4989  16.4989  16.7386  16.7386  16.8547  16.8547  17.0116  17.0118

          k = 0.3333-0.5000-0.4946 ( 41924 PWs)   bands (ev):

   -45.9788 -45.9788 -45.9788 -45.9788 -45.9782 -45.9782 -45.9782 -45.9782
   -22.4020 -22.4020 -22.4019 -22.4019 -22.4006 -22.4006 -22.4006 -22.4006
   -22.3568 -22.3568 -22.3568 -22.3568 -22.3439 -22.3439 -22.3439 -22.3439
   -22.3426 -22.3426 -22.3426 -22.3426 -22.3296 -22.3296 -22.3296 -22.3296
   -14.4133 -14.4133 -14.4132 -14.4132 -14.3687 -14.3687 -14.3686 -14.3686
    -6.4633  -6.4633  -6.4632  -6.4632  -6.3442  -6.3442  -6.3441  -6.3441
    -5.9027  -5.9027  -5.9027  -5.9027  -5.8292  -5.8292  -5.8291  -5.8291
    -5.7873  -5.7873  -5.7872  -5.7871  -5.7509  -5.7509  -5.7508  -5.7508
     0.0429   0.0429   0.0429   0.0429   0.0832   0.0832   0.0832   0.0832
     0.1856   0.1857   0.1857   0.1857   0.2110   0.2110   0.2110   0.2110
     0.6075   0.6075   0.6075   0.6075   0.7152   0.7152   0.7152   0.7152
     6.3384   6.3384   6.3385   6.3385   6.5639   6.5639   6.5640   6.5640
     6.8859   6.8859   6.8859   6.8859   7.0842   7.0842   7.0843   7.0843
     7.1051   7.1051   7.1051   7.1052   7.3378   7.3378   7.3379   7.3379
     7.4228   7.4228   7.4228   7.4228   7.7325   7.7325   7.7326   7.7326
     7.7389   7.7390   7.7390   7.7390   7.8427   7.8427   7.8428   7.8428
     7.8873   7.8873   7.8874   7.8874   8.1687   8.1687   8.1688   8.1688
     9.2891   9.2891   9.2891   9.2891   9.3261   9.3261   9.3261   9.3261
     9.4604   9.4604   9.4605   9.4605   9.5149   9.5149   9.5149   9.5149
     9.5519   9.5519   9.5520   9.5520   9.6953   9.6953   9.6955   9.6955
    13.2147  13.2148  13.2148  13.2148  13.3314  13.3314  13.3314  13.3314
    13.4510  13.4510  13.4511  13.4511  13.5508  13.5508  13.5508  13.5509
    13.7275  13.7275  13.7275  13.7276  13.7804  13.7804  13.7804  13.7804
    15.6991  15.6991  15.6991  15.6991  16.2458  16.2459  16.2460  16.2460
    16.2998  16.2998  16.2999  16.2999  17.1361  17.1368  17.1372  17.1373

          k =-0.5000-0.5000 0.0000 ( 41836 PWs)   bands (ev):

   -45.9789 -45.9789 -45.9789 -45.9789 -45.9780 -45.9780 -45.9780 -45.9780
   -22.4253 -22.4253 -22.4253 -22.4253 -22.3770 -22.3770 -22.3770 -22.3770
   -22.3449 -22.3449 -22.3449 -22.3449 -22.3440 -22.3440 -22.3440 -22.3440
   -22.3423 -22.3423 -22.3423 -22.3423 -22.3418 -22.3418 -22.3418 -22.3418
   -14.4309 -14.4308 -14.4308 -14.4308 -14.3505 -14.3505 -14.3505 -14.3505
    -6.5903  -6.5903  -6.5903  -6.5903  -6.2564  -6.2564  -6.2564  -6.2564
    -5.8450  -5.8450  -5.8450  -5.8450  -5.8290  -5.8290  -5.8290  -5.8290
    -5.8214  -5.8214  -5.8214  -5.8214  -5.7259  -5.7259  -5.7259  -5.7259
    -0.0494  -0.0494  -0.0494  -0.0494   0.1946   0.1947   0.1947   0.1947
     0.2483   0.2483   0.2484   0.2484   0.4198   0.4198   0.4198   0.4198
     0.4478   0.4478   0.4478   0.4478   0.5662   0.5662   0.5662   0.5662
     6.0783   6.0783   6.0783   6.0783   6.7053   6.7053   6.7053   6.7053
     6.7188   6.7188   6.7188   6.7188   7.1351   7.1351   7.1351   7.1351
     7.1407   7.1407   7.1407   7.1407   7.2058   7.2058   7.2058   7.2058
     7.5057   7.5057   7.5057   7.5057   7.6748   7.6748   7.6748   7.6748
     7.7414   7.7414   7.7414   7.7414   8.0497   8.0497   8.0497   8.0497
     8.0606   8.0607   8.0607   8.0607   8.3548   8.3548   8.3548   8.3548
     9.0992   9.0992   9.0992   9.0992   9.3314   9.3314   9.3314   9.3314
     9.3599   9.3599   9.3599   9.3599   9.5353   9.5353   9.5353   9.5353
     9.6236   9.6236   9.6236   9.6236   9.7521   9.7521   9.7521   9.7521
    12.9593  12.9593  12.9593  12.9593  13.1871  13.1871  13.1871  13.1871
    13.3754  13.3754  13.3754  13.3754  13.5832  13.5832  13.5832  13.5833
    14.0055  14.0055  14.0055  14.0055  14.0419  14.0419  14.0419  14.0419
    14.9484  14.9484  14.9484  14.9484  16.2514  16.2515  16.2515  16.2515
    16.3385  16.3385  16.3385  16.3385  16.9001  16.9002  16.9002  16.9002

          k =-0.5000-0.5000 0.1649 ( 41912 PWs)   bands (ev):

   -45.9789 -45.9789 -45.9789 -45.9789 -45.9781 -45.9781 -45.9781 -45.9781
   -22.4221 -22.4221 -22.4221 -22.4221 -22.3803 -22.3803 -22.3803 -22.3803
   -22.3447 -22.3447 -22.3447 -22.3447 -22.3439 -22.3439 -22.3439 -22.3439
   -22.3424 -22.3424 -22.3424 -22.3424 -22.3420 -22.3420 -22.3420 -22.3420
   -14.4256 -14.4255 -14.4255 -14.4255 -14.3560 -14.3560 -14.3560 -14.3560
    -6.5625  -6.5625  -6.5625  -6.5625  -6.2672  -6.2672  -6.2672  -6.2672
    -5.8566  -5.8566  -5.8566  -5.8566  -5.8296  -5.8296  -5.8296  -5.8296
    -5.8224  -5.8224  -5.8224  -5.8223  -5.7330  -5.7330  -5.7330  -5.7330
    -0.0293  -0.0293  -0.0293  -0.0293   0.1523   0.1524   0.1524   0.1524
     0.2285   0.2285   0.2286   0.2286   0.3417   0.3417   0.3417   0.3417
     0.4911   0.4911   0.4911   0.4911   0.6487   0.6487   0.6487   0.6487
     6.1632   6.1632   6.1632   6.1632   6.6631   6.6631   6.6631   6.6631
     6.7159   6.7159   6.7159   6.7159   7.1376   7.1377   7.1377   7.1377
     7.1998   7.1999   7.1999   7.1999   7.2194   7.2194   7.2194   7.2195
     7.4242   7.4242   7.4242   7.4242   7.7282   7.7282   7.7282   7.7282
     7.7468   7.7469   7.7469   7.7469   8.0063   8.0063   8.0063   8.0063
     8.0067   8.0067   8.0067   8.0067   8.2825   8.2825   8.2825   8.2825
     9.1767   9.1768   9.1768   9.1768   9.2953   9.2953   9.2953   9.2953
     9.3762   9.3762   9.3762   9.3762   9.5342   9.5343   9.5343   9.5343
     9.6266   9.6266   9.6266   9.6266   9.7279   9.7279   9.7279   9.7279
    13.0317  13.0317  13.0317  13.0317  13.2223  13.2223  13.2223  13.2223
    13.3919  13.3919  13.3919  13.3920  13.5686  13.5687  13.5687  13.5687
    13.9275  13.9275  13.9276  13.9276  13.9680  13.9680  13.9680  13.9680
    15.1531  15.1531  15.1531  15.1531  16.2608  16.2608  16.2608  16.2609
    16.3350  16.3350  16.3350  16.3350  16.9800  16.9801  16.9801  16.9801

          k =-0.5000-0.5000 0.3297 ( 41880 PWs)   bands (ev):

   -45.9787 -45.9787 -45.9787 -45.9787 -45.9783 -45.9783 -45.9783 -45.9783
   -22.4133 -22.4133 -22.4133 -22.4133 -22.3892 -22.3892 -22.3892 -22.3892
   -22.3442 -22.3442 -22.3442 -22.3442 -22.3435 -22.3435 -22.3435 -22.3435
   -22.3429 -22.3429 -22.3429 -22.3429 -22.3424 -22.3424 -22.3424 -22.3424
   -14.4111 -14.4110 -14.4110 -14.4110 -14.3709 -14.3709 -14.3709 -14.3709
    -6.4878  -6.4878  -6.4878  -6.4878  -6.3097  -6.3097  -6.3097  -6.3097
    -5.8736  -5.8736  -5.8736  -5.8736  -5.8502  -5.8502  -5.8502  -5.8502
    -5.8040  -5.8039  -5.8039  -5.8039  -5.7524  -5.7524  -5.7524  -5.7524
     0.0254   0.0254   0.0254   0.0254   0.1117   0.1117   0.1117   0.1117
     0.1743   0.1743   0.1743   0.1743   0.2117   0.2117   0.2117   0.2117
     0.6100   0.6100   0.6100   0.6100   0.7113   0.7113   0.7113   0.7113
     6.3357   6.3358   6.3358   6.3358   6.5623   6.5623   6.5623   6.5623
     6.8087   6.8087   6.8087   6.8087   7.1466   7.1467   7.1467   7.1467
     7.1837   7.1837   7.1837   7.1837   7.2992   7.2992   7.2992   7.2992
     7.4070   7.4070   7.4070   7.4070   7.7581   7.7581   7.7581   7.7582
     7.7683   7.7683   7.7683   7.7683   7.9027   7.9027   7.9027   7.9027
     7.9042   7.9042   7.9042   7.9042   8.0164   8.0164   8.0164   8.0164
     9.3191   9.3191   9.3191   9.3191   9.3302   9.3302   9.3302   9.3303
     9.4167   9.4167   9.4167   9.4167   9.5082   9.5082   9.5082   9.5082
     9.6239   9.6239   9.6239   9.6239   9.6689   9.6689   9.6689   9.6689
    13.2209  13.2209  13.2209  13.2210  13.3307  13.3307  13.3307  13.3307
    13.4395  13.4395  13.4395  13.4395  13.5257  13.5257  13.5257  13.5257
    13.7340  13.7340  13.7340  13.7340  13.7728  13.7728  13.7728  13.7728
    15.6634  15.6634  15.6634  15.6634  16.2826  16.2826  16.2826  16.2826
    16.3242  16.3242  16.3242  16.3242  17.2128  17.2174  17.2178  17.2179

          k =-0.5000-0.5000-0.4946 ( 41912 PWs)   bands (ev):

   -45.9785 -45.9785 -45.9785 -45.9785 -45.9785 -45.9785 -45.9785 -45.9785
   -22.4013 -22.4013 -22.4013 -22.4013 -22.4013 -22.4013 -22.4013 -22.4013
   -22.3436 -22.3436 -22.3436 -22.3436 -22.3436 -22.3436 -22.3436 -22.3436
   -22.3429 -22.3429 -22.3429 -22.3429 -22.3429 -22.3429 -22.3429 -22.3429
   -14.3911 -14.3911 -14.3911 -14.3911 -14.3910 -14.3910 -14.3910 -14.3910
    -6.3915  -6.3915  -6.3915  -6.3915  -6.3914  -6.3913  -6.3913  -6.3913
    -5.8707  -5.8707  -5.8707  -5.8707  -5.8706  -5.8706  -5.8706  -5.8706
    -5.7785  -5.7785  -5.7785  -5.7785  -5.7784  -5.7783  -5.7783  -5.7783
     0.0999   0.0999   0.1000   0.1000   0.1000   0.1000   0.1000   0.1000
     0.1291   0.1291   0.1291   0.1291   0.1291   0.1291   0.1291   0.1292
     0.6959   0.6959   0.6959   0.6959   0.6959   0.6959   0.6959   0.6959
     6.4561   6.4561   6.4561   6.4561   6.4562   6.4562   6.4562   6.4562
     7.0748   7.0748   7.0748   7.0748   7.0749   7.0749   7.0749   7.0749
     7.1633   7.1633   7.1633   7.1633   7.1633   7.1634   7.1634   7.1634
     7.6690   7.6690   7.6690   7.6690   7.6690   7.6690   7.6690   7.6691
     7.8072   7.8072   7.8072   7.8072   7.8073   7.8073   7.8073   7.8073
     7.8174   7.8174   7.8174   7.8174   7.8174   7.8175   7.8175   7.8175
     9.4264   9.4264   9.4264   9.4264   9.4264   9.4264   9.4264   9.4264
     9.4302   9.4302   9.4302   9.4302   9.4303   9.4303   9.4303   9.4303
     9.6203   9.6203   9.6203   9.6203   9.6204   9.6204   9.6205   9.6205
    13.4369  13.4369  13.4369  13.4369  13.4369  13.4369  13.4369  13.4369
    13.5110  13.5110  13.5110  13.5110  13.5111  13.5111  13.5111  13.5111
    13.5417  13.5417  13.5417  13.5417  13.5418  13.5418  13.5418  13.5418
    16.2693  16.2693  16.2693  16.2694  16.2695  16.2695  16.2695  16.2695
    16.3059  16.3059  16.3059  16.3059  16.3059  16.3060  16.3060  16.3060

     highest occupied, lowest unoccupied level (ev):    10.2654   12.0411

!    total energy              =   -5887.16574418 Ry
     total all-electron energy =   -147371.619317 Ry
     estimated scf accuracy    <          3.7E-11 Ry

     The total energy is the sum of the following terms:
     one-electron contribution =    -548.23182447 Ry
     hartree contribution      =     480.68401360 Ry
     xc contribution           =    -485.47020860 Ry
     ewald contribution        =   -1653.96634398 Ry
     one-center paw contrib.   =   -3680.18138073 Ry

     convergence has been achieved in  43 iterations

     Forces acting on atoms (cartesian axes, Ry/au):

     atom    1 type  1   force =     0.00000000    0.00000000   -0.00147893
     atom    2 type  1   force =     0.00000000    0.00000000   -0.00144985
     atom    3 type  1   force =     0.00000000    0.00000000   -0.00146835
     atom    4 type  1   force =     0.00000000    0.00000000   -0.00145550
     atom    5 type  1   force =     0.00000000    0.00000000   -0.00146835
     atom    6 type  1   force =     0.00000000    0.00000000   -0.00145550
     atom    7 type  1   force =     0.00000000    0.00000000   -0.00148285
     atom    8 type  1   force =     0.00000000    0.00000000   -0.00144767
     atom    9 type  2   force =     0.00000009    0.00000009   -0.00142132
     atom   10 type  2   force =    -0.00000044   -0.00000044   -0.00141290
     atom   11 type  2   force =     0.00000009   -0.00000009   -0.00142132
     atom   12 type  2   force =    -0.00000044    0.00000044   -0.00141290
     atom   13 type  2   force =    -0.00000009    0.00000009   -0.00142132
     atom   14 type  2   force =     0.00000044   -0.00000044   -0.00141290
     atom   15 type  2   force =    -0.00000009   -0.00000009   -0.00142132
     atom   16 type  2   force =     0.00000044    0.00000044   -0.00141290
     atom   17 type  3   force =    -0.00000142   -0.00000142    0.00265508
     atom   18 type  3   force =    -0.00000232   -0.00000232    0.00266294
     atom   19 type  3   force =    -0.00000142    0.00000142    0.00265508
     atom   20 type  3   force =    -0.00000232    0.00000232    0.00266294
     atom   21 type  3   force =     0.00000142   -0.00000142    0.00265508
     atom   22 type  3   force =     0.00000232   -0.00000232    0.00266294
     atom   23 type  3   force =     0.00000142    0.00000142    0.00265508
     atom   24 type  3   force =     0.00000232    0.00000232    0.00266294
     atom   25 type  3   force =    -0.00000203    0.00000000    0.00010535
     atom   26 type  3   force =    -0.00000529    0.00000000    0.00010936
     atom   27 type  3   force =     0.00000081    0.00000000    0.00010977
     atom   28 type  3   force =     0.00000273    0.00000000    0.00011848
     atom   29 type  3   force =     0.00000203    0.00000000    0.00010535
     atom   30 type  3   force =     0.00000529    0.00000000    0.00010936
     atom   31 type  3   force =    -0.00000081    0.00000000    0.00010977
     atom   32 type  3   force =    -0.00000273    0.00000000    0.00011848
     atom   33 type  3   force =     0.00000000   -0.00000203    0.00010535
     atom   34 type  3   force =     0.00000000   -0.00000529    0.00010936
     atom   35 type  3   force =     0.00000000    0.00000203    0.00010535
     atom   36 type  3   force =     0.00000000    0.00000529    0.00010936
     atom   37 type  3   force =    -0.00000000    0.00000081    0.00010977
     atom   38 type  3   force =    -0.00000000    0.00000273    0.00011848
     atom   39 type  3   force =     0.00000000   -0.00000081    0.00010977
     atom   40 type  3   force =     0.00000000   -0.00000273    0.00011848

     Total force =     0.009485     Total SCF correction =     0.000006


     Computing stress (Cartesian axis) and pressure

          total   stress  (Ry/bohr**3)                   (kbar)     P=      -19.84
  -0.00016539   0.00000000   0.00000000          -24.33        0.00        0.00
   0.00000000  -0.00016539   0.00000000            0.00      -24.33        0.00
   0.00000000   0.00000000  -0.00007385            0.00        0.00      -10.86


     Writing all to output data dir ./tmp/80_ecut_6_kmesh_PBE.save/ :
     XML data file, charge density, pseudopotentials, collected wavefunctions

     init_run     :      2.59s CPU      2.72s WALL (       1 calls)
     electrons    :    253.01s CPU    258.37s WALL (       1 calls)
     forces       :      1.06s CPU      1.10s WALL (       1 calls)
     stress       :      2.88s CPU      2.92s WALL (       1 calls)

     Called by init_run:
     wfcinit      :      1.49s CPU      1.54s WALL (       1 calls)
     potinit      :      0.47s CPU      0.49s WALL (       1 calls)
     hinit0       :      0.16s CPU      0.19s WALL (       1 calls)

     Called by electrons:
     c_bands      :    224.59s CPU    228.98s WALL (      43 calls)
     sum_band     :     21.04s CPU     21.55s WALL (      43 calls)
     v_of_rho     :      2.41s CPU      2.60s WALL (      44 calls)
     newd         :      2.25s CPU      2.29s WALL (      44 calls)
     PAW_pot      :      2.11s CPU      2.16s WALL (      44 calls)
     mix_rho      :      0.26s CPU      0.27s WALL (      43 calls)

     Called by c_bands:
     init_us_2    :      4.02s CPU      4.06s WALL (     445 calls)
     cegterg      :    198.81s CPU    202.98s WALL (     220 calls)

     Called by *egterg:
     cdiaghg      :     26.99s CPU     28.19s WALL (    1466 calls)
     h_psi        :     90.91s CPU     92.47s WALL (    1476 calls)
     s_psi        :     13.62s CPU     13.72s WALL (    1476 calls)
     g_psi        :      0.18s CPU      0.18s WALL (    1251 calls)

     Called by h_psi:
     h_psi:calbec :     18.24s CPU     18.66s WALL (    1476 calls)
     vloc_psi     :     58.40s CPU     59.03s WALL (    1476 calls)
                                        0.00s GPU  (    1476 calls)
     add_vuspsi   :     13.71s CPU     13.80s WALL (    1476 calls)

     General routines
     calbec       :     26.42s CPU     27.05s WALL (    1776 calls)
     fft          :      1.93s CPU      2.25s WALL (     595 calls)
     ffts         :      0.37s CPU      0.40s WALL (      87 calls)
     fftw         :     64.95s CPU     65.63s WALL (  312132 calls)
     interpolate  :      0.49s CPU      0.53s WALL (      44 calls)

     Parallel routines

     PWSCF        :    260.98s CPU    268.57s WALL


   This run was terminated on:   4: 6:34  21May2026            

=------------------------------------------------------------------------------=
   JOB DONE.
=------------------------------------------------------------------------------=
