
     Program PWSCF v.7.5 starts on 21May2026 at  4: 1: 5 

     This program is part of the open-source Quantum ESPRESSO suite
     for quantum simulation of materials; please cite
         "P. Giannozzi et al., J. Phys.:Condens. Matter 21 395502 (2009);
         "P. Giannozzi et al., J. Phys.:Condens. Matter 29 465901 (2017);
         "P. Giannozzi et al., J. Chem. Phys. 152 154105 (2020);
          URL http://www.quantum-espresso.org", 
     in publications or presentations arising from this work. More details at
     http://www.quantum-espresso.org/quote

     Parallel version (MPI & OpenMP), running on     192 processor cores
     Number of MPI processes:               192
     Threads/MPI process:                     1

     MPI processes distributed on     1 nodes
     358169 MiB available memory on the printing compute node when the environment starts

     Waiting for input...
     Reading input from standard input

     Current dimensions of program PWSCF are:
     Max number of different atomic species (ntypx) = 10
     Max number of k-points (npk) =  40000
     Max angular momentum in pseudopotentials (lmaxx) =  4
     file Ba.pbe-spn-kjpaw_psl.1.0.0.UPF: wavefunction(s)  5S 6S renormalized
     file Ti.pbe-spn-kjpaw_psl.1.0.0.UPF: wavefunction(s)  3S 3P 3D renormalized
     file O.pbe-n-kjpaw_psl.1.0.0.UPF: wavefunction(s)  2S 2P renormalized

     IMPORTANT: XC functional enforced from input :
     Exchange-correlation= PBESOL
                           (   1   4  10   8   0   0   0)
     Any further DFT definition will be discarded
     Please, verify this is what you really want

     Found identity + ( -0.5000 -0.5000  0.0000) symmetry
     This is a supercell, fractional translations are disabled

     K-points division:     npool     =       8
     R & G space division:  proc/nbgrp/npool/nimage =      24
     Subspace diagonalization in iterative solution of the eigenvalue problem:
     one sub-group per band group will be used
     ELPA distributed-memory algorithm (size of sub-group:  2*  2 procs)


     Parallelization info
     --------------------
     sticks:   dense  smooth     PW     G-vecs:    dense   smooth      PW
     Min         362     181     50                25696     9081    1304
     Max         363     182     51                25701     9084    1307
     Sum        8693    4349   1201               616735   217983   31311

     Using Slab Decomposition



     bravais-lattice index     =            6
     lattice parameter (alat)  =      15.0876  a.u.
     unit-cell volume          =    3472.3239 (a.u.)^3
     number of atoms/cell      =           40
     number of atomic types    =            3
     number of electrons       =       320.00
     number of Kohn-Sham states=          200
     kinetic-energy cutoff     =      60.0000  Ry
     charge density cutoff     =     480.0000  Ry
     scf convergence threshold =      1.0E-10
     mixing beta               =       0.3000
     number of iterations used =           16  plain     mixing
     Exchange-correlation= PBESOL
                           (   1   4  10   8   0   0   0)

     celldm(1)=  15.087600  celldm(2)=   0.000000  celldm(3)=   1.011020
     celldm(4)=   0.000000  celldm(5)=   0.000000  celldm(6)=   0.000000

     crystal axes: (cart. coord. in units of alat)
               a(1) = (   1.000000   0.000000   0.000000 )  
               a(2) = (   0.000000   1.000000   0.000000 )  
               a(3) = (   0.000000   0.000000   1.011020 )  

     reciprocal axes: (cart. coord. in units 2 pi/alat)
               b(1) = (  1.000000  0.000000  0.000000 )  
               b(2) = (  0.000000  1.000000  0.000000 )  
               b(3) = (  0.000000  0.000000  0.989100 )  


     PseudoPot. # 1 for Ba read from file:
     /home/kylay/scratch/BTO/pseuds/Ba.pbe-spn-kjpaw_psl.1.0.0.UPF
     MD5 check sum: 7cfe25f1fe7574a4710541d5a11d6531
     Pseudo is Projector augmented-wave + core cor, Zval = 10.0
     Generated using &quot;atomic&quot; code by A. Dal Corso  v.6.2.2
     Shape of augmentation charge: PSQ
     Using radial grid of 1251 points,  7 beta functions with: 
                l(1) =   0
                l(2) =   0
                l(3) =   0
                l(4) =   1
                l(5) =   1
                l(6) =   2
                l(7) =   2
     Q(r) pseudized with 0 coefficients 


     PseudoPot. # 2 for Ti read from file:
     /home/kylay/scratch/BTO/pseuds/Ti.pbe-spn-kjpaw_psl.1.0.0.UPF
     MD5 check sum: 01f69b0d8ba4438b2e03ac6ea4af1c0b
     Pseudo is Projector augmented-wave + core cor, Zval = 12.0
     Generated using &quot;atomic&quot; code by A. Dal Corso  v.6.2.2
     Shape of augmentation charge: PSQ
     Using radial grid of 1177 points,  6 beta functions with: 
                l(1) =   0
                l(2) =   0
                l(3) =   1
                l(4) =   1
                l(5) =   2
                l(6) =   2
     Q(r) pseudized with 0 coefficients 


     PseudoPot. # 3 for O  read from file:
     /home/kylay/scratch/BTO/pseuds/O.pbe-n-kjpaw_psl.1.0.0.UPF
     MD5 check sum: e99d9cef9b487d1ca56f5b95ecd0fd7a
     Pseudo is Projector augmented-wave + core cor, Zval =  6.0
     Generated using &quot;atomic&quot; code by A. Dal Corso  v.6.3
     Shape of augmentation charge: PSQ
     Using radial grid of 1095 points,  4 beta functions with: 
                l(1) =   0
                l(2) =   0
                l(3) =   1
                l(4) =   1
     Q(r) pseudized with 0 coefficients 


     atomic species   valence    mass     pseudopotential
     Ba               10.00   137.32700     Ba( 1.00)
     Ti               12.00    47.86700     Ti( 1.00)
     O                 6.00    15.99900     O ( 1.00)

      8 Sym. Ops. (no inversion) found



   Cartesian axes

     site n.     atom                  positions (alat units)
         1        Ba     tau(   1) = (   0.0000000   0.0000000  -0.0010787  )
         2        Ba     tau(   2) = (   0.0000000   0.0000000   0.5044220  )
         3        Ba     tau(   3) = (   0.0000000   0.5000000  -0.0010832  )
         4        Ba     tau(   4) = (   0.0000000   0.5000000   0.5044235  )
         5        Ba     tau(   5) = (   0.5000000   0.0000000  -0.0010832  )
         6        Ba     tau(   6) = (   0.5000000   0.0000000   0.5044235  )
         7        Ba     tau(   7) = (   0.5000000   0.5000000  -0.0010766  )
         8        Ba     tau(   8) = (   0.5000000   0.5000000   0.5044202  )
         9        Ti     tau(   9) = (   0.2500002   0.2500002   0.2436990  )
        10        Ti     tau(  10) = (   0.2500007   0.2500007   0.7492042  )
        11        Ti     tau(  11) = (   0.2500002   0.7499998   0.2436990  )
        12        Ti     tau(  12) = (   0.2500007   0.7499993   0.7492042  )
        13        Ti     tau(  13) = (   0.7499998   0.2500002   0.2436990  )
        14        Ti     tau(  14) = (   0.7499993   0.2500007   0.7492042  )
        15        Ti     tau(  15) = (   0.7499998   0.7499998   0.2436990  )
        16        Ti     tau(  16) = (   0.7499993   0.7499993   0.7492042  )
        17        O      tau(  17) = (   0.2500011   0.2500011   0.0113903  )
        18        O      tau(  18) = (   0.2500007   0.2500007   0.5168954  )
        19        O      tau(  19) = (   0.2500011   0.7499989   0.0113903  )
        20        O      tau(  20) = (   0.2500007   0.7499993   0.5168954  )
        21        O      tau(  21) = (   0.7499989   0.2500011   0.0113903  )
        22        O      tau(  22) = (   0.7499993   0.2500007   0.5168954  )
        23        O      tau(  23) = (   0.7499989   0.7499989   0.0113903  )
        24        O      tau(  24) = (   0.7499993   0.7499993   0.5168954  )
        25        O      tau(  25) = (   0.2500005   0.0000000   0.2592128  )
        26        O      tau(  26) = (   0.2500020   0.0000000   0.7647195  )
        27        O      tau(  27) = (   0.2499999   0.5000000   0.2592107  )
        28        O      tau(  28) = (   0.2499998   0.5000000   0.7647148  )
        29        O      tau(  29) = (   0.7499995   0.0000000   0.2592128  )
        30        O      tau(  30) = (   0.7499980   0.0000000   0.7647195  )
        31        O      tau(  31) = (   0.7500001   0.5000000   0.2592107  )
        32        O      tau(  32) = (   0.7500002   0.5000000   0.7647148  )
        33        O      tau(  33) = (   0.0000000   0.2500005   0.2592128  )
        34        O      tau(  34) = (   0.0000000   0.2500020   0.7647195  )
        35        O      tau(  35) = (   0.0000000   0.7499995   0.2592128  )
        36        O      tau(  36) = (   0.0000000   0.7499980   0.7647195  )
        37        O      tau(  37) = (   0.5000000   0.2499999   0.2592107  )
        38        O      tau(  38) = (   0.5000000   0.2499998   0.7647148  )
        39        O      tau(  39) = (   0.5000000   0.7500001   0.2592107  )
        40        O      tau(  40) = (   0.5000000   0.7500002   0.7647148  )

     number of k points=    40
                       cart. coord. in units 2pi/alat
        k(    1) = (   0.0000000   0.0000000   0.0000000), wk =   0.0092593
        k(    2) = (   0.0000000   0.0000000   0.1648500), wk =   0.0185185
        k(    3) = (   0.0000000   0.0000000   0.3297000), wk =   0.0185185
        k(    4) = (   0.0000000   0.0000000  -0.4945501), wk =   0.0092593
        k(    5) = (   0.0000000   0.1666667   0.0000000), wk =   0.0370370
        k(    6) = (   0.0000000   0.1666667   0.1648500), wk =   0.0740741
        k(    7) = (   0.0000000   0.1666667   0.3297000), wk =   0.0740741
        k(    8) = (   0.0000000   0.1666667  -0.4945501), wk =   0.0370370
        k(    9) = (   0.0000000   0.3333333   0.0000000), wk =   0.0370370
        k(   10) = (   0.0000000   0.3333333   0.1648500), wk =   0.0740741
        k(   11) = (   0.0000000   0.3333333   0.3297000), wk =   0.0740741
        k(   12) = (   0.0000000   0.3333333  -0.4945501), wk =   0.0370370
        k(   13) = (   0.0000000  -0.5000000   0.0000000), wk =   0.0185185
        k(   14) = (   0.0000000  -0.5000000   0.1648500), wk =   0.0370370
        k(   15) = (   0.0000000  -0.5000000   0.3297000), wk =   0.0370370
        k(   16) = (   0.0000000  -0.5000000  -0.4945501), wk =   0.0185185
        k(   17) = (   0.1666667   0.1666667   0.0000000), wk =   0.0370370
        k(   18) = (   0.1666667   0.1666667   0.1648500), wk =   0.0740741
        k(   19) = (   0.1666667   0.1666667   0.3297000), wk =   0.0740741
        k(   20) = (   0.1666667   0.1666667  -0.4945501), wk =   0.0370370
        k(   21) = (   0.1666667   0.3333333   0.0000000), wk =   0.0740741
        k(   22) = (   0.1666667   0.3333333   0.1648500), wk =   0.1481481
        k(   23) = (   0.1666667   0.3333333   0.3297000), wk =   0.1481481
        k(   24) = (   0.1666667   0.3333333  -0.4945501), wk =   0.0740741
        k(   25) = (   0.1666667  -0.5000000   0.0000000), wk =   0.0370370
        k(   26) = (   0.1666667  -0.5000000   0.1648500), wk =   0.0740741
        k(   27) = (   0.1666667  -0.5000000   0.3297000), wk =   0.0740741
        k(   28) = (   0.1666667  -0.5000000  -0.4945501), wk =   0.0370370
        k(   29) = (   0.3333333   0.3333333   0.0000000), wk =   0.0370370
        k(   30) = (   0.3333333   0.3333333   0.1648500), wk =   0.0740741
        k(   31) = (   0.3333333   0.3333333   0.3297000), wk =   0.0740741
        k(   32) = (   0.3333333   0.3333333  -0.4945501), wk =   0.0370370
        k(   33) = (   0.3333333  -0.5000000   0.0000000), wk =   0.0370370
        k(   34) = (   0.3333333  -0.5000000   0.1648500), wk =   0.0740741
        k(   35) = (   0.3333333  -0.5000000   0.3297000), wk =   0.0740741
        k(   36) = (   0.3333333  -0.5000000  -0.4945501), wk =   0.0370370
        k(   37) = (  -0.5000000  -0.5000000   0.0000000), wk =   0.0092593
        k(   38) = (  -0.5000000  -0.5000000   0.1648500), wk =   0.0185185
        k(   39) = (  -0.5000000  -0.5000000   0.3297000), wk =   0.0185185
        k(   40) = (  -0.5000000  -0.5000000  -0.4945501), wk =   0.0092593

     Dense  grid:   616735 G-vectors     FFT dimensions: ( 108, 108, 108)

     Smooth grid:   217983 G-vectors     FFT dimensions: (  75,  75,  75)

     Estimated max dynamical RAM per process >      82.77 MB

     Estimated total dynamical RAM >      13.46 GB

     Check: negative core charge=   -0.000002
     Cannot read rho : file not found

     Initial potential from superposition of free atoms

     starting charge     319.8521, renormalised to     320.0000
     Message from routine qexsd_readschema :
     xml data file ./tmp/60_ecut_6_kmesh_PBE.save/data-file-schema.xml not found
     Cannot read wfcs: file not found
     Starting wfcs are  216 randomized atomic wfcs
     Checking if some PAW data can be deallocated... 

     total cpu time spent up to now is        3.8 secs

     per-process dynamical memory:   156.2 Mb

     Self-consistent Calculation

     iteration #  1     ecut=    60.00 Ry     beta= 0.30
     Davidson diagonalization with overlap
     c_bands:  2 eigenvalues not converged
     c_bands:  2 eigenvalues not converged
     c_bands:  1 eigenvalues not converged
     c_bands:  2 eigenvalues not converged
     ethr =  1.00E-05,  avg # of iterations = 39.8

     total cpu time spent up to now is       21.5 secs

     total energy              =   -5884.35786383 Ry
     estimated scf accuracy    <      13.69249686 Ry

     iteration #  2     ecut=    60.00 Ry     beta= 0.30
     Davidson diagonalization with overlap
     ethr =  4.28E-03,  avg # of iterations =  1.9

     total cpu time spent up to now is       23.9 secs

     total energy              =   -5886.02007667 Ry
     estimated scf accuracy    <       0.60960783 Ry

     iteration #  3     ecut=    60.00 Ry     beta= 0.30
     Davidson diagonalization with overlap
     ethr =  1.91E-04,  avg # of iterations = 14.6

     total cpu time spent up to now is       30.6 secs

     total energy              =   -5886.97619794 Ry
     estimated scf accuracy    <       1.16756926 Ry

     iteration #  4     ecut=    60.00 Ry     beta= 0.30
     Davidson diagonalization with overlap
     ethr =  1.91E-04,  avg # of iterations =  2.0

     total cpu time spent up to now is       33.1 secs

     total energy              =   -5887.08344171 Ry
     estimated scf accuracy    <       0.19059884 Ry

     iteration #  5     ecut=    60.00 Ry     beta= 0.30
     Davidson diagonalization with overlap
     ethr =  5.96E-05,  avg # of iterations = 10.4

     total cpu time spent up to now is       38.1 secs

     total energy              =   -5886.96208498 Ry
     estimated scf accuracy    <       0.95199369 Ry

     iteration #  6     ecut=    60.00 Ry     beta= 0.30
     Davidson diagonalization with overlap
     ethr =  5.96E-05,  avg # of iterations =  5.4

     total cpu time spent up to now is       42.0 secs

     total energy              =   -5887.09545928 Ry
     estimated scf accuracy    <       0.20341347 Ry

     iteration #  7     ecut=    60.00 Ry     beta= 0.30
     Davidson diagonalization with overlap
     ethr =  5.96E-05,  avg # of iterations =  2.0

     total cpu time spent up to now is       44.5 secs

     total energy              =   -5887.10737155 Ry
     estimated scf accuracy    <       0.04153395 Ry

     iteration #  8     ecut=    60.00 Ry     beta= 0.30
     Davidson diagonalization with overlap
     ethr =  1.30E-05,  avg # of iterations = 10.6

     total cpu time spent up to now is       49.6 secs

     total energy              =   -5887.11631432 Ry
     estimated scf accuracy    <       0.06236935 Ry

     iteration #  9     ecut=    60.00 Ry     beta= 0.30
     Davidson diagonalization with overlap
     ethr =  1.30E-05,  avg # of iterations =  6.0

     total cpu time spent up to now is       53.5 secs

     total energy              =   -5887.13290925 Ry
     estimated scf accuracy    <       0.01125738 Ry

     iteration # 10     ecut=    60.00 Ry     beta= 0.30
     Davidson diagonalization with overlap
     ethr =  3.52E-06,  avg # of iterations =  4.1

     total cpu time spent up to now is       56.4 secs

     total energy              =   -5887.13387547 Ry
     estimated scf accuracy    <       0.00183146 Ry

     iteration # 11     ecut=    60.00 Ry     beta= 0.30
     Davidson diagonalization with overlap
     ethr =  5.72E-07,  avg # of iterations =  9.5

     total cpu time spent up to now is       61.5 secs

     total energy              =   -5887.13489254 Ry
     estimated scf accuracy    <       0.00072793 Ry

     iteration # 12     ecut=    60.00 Ry     beta= 0.30
     Davidson diagonalization with overlap
     ethr =  2.27E-07,  avg # of iterations =  4.0

     total cpu time spent up to now is       64.6 secs

     total energy              =   -5887.13460440 Ry
     estimated scf accuracy    <       0.00077833 Ry

     iteration # 13     ecut=    60.00 Ry     beta= 0.30
     Davidson diagonalization with overlap
     ethr =  2.27E-07,  avg # of iterations =  6.2

     total cpu time spent up to now is       67.9 secs

     total energy              =   -5887.13486157 Ry
     estimated scf accuracy    <       0.00012720 Ry

     iteration # 14     ecut=    60.00 Ry     beta= 0.30
     Davidson diagonalization with overlap
     ethr =  3.98E-08,  avg # of iterations =  8.0

     total cpu time spent up to now is       72.6 secs

     total energy              =   -5887.13484925 Ry
     estimated scf accuracy    <       0.00031013 Ry

     iteration # 15     ecut=    60.00 Ry     beta= 0.30
     Davidson diagonalization with overlap
     ethr =  3.98E-08,  avg # of iterations =  1.3

     total cpu time spent up to now is       74.9 secs

     total energy              =   -5887.13483048 Ry
     estimated scf accuracy    <       0.00012539 Ry

     iteration # 16     ecut=    60.00 Ry     beta= 0.30
     Davidson diagonalization with overlap
     ethr =  3.92E-08,  avg # of iterations =  2.2

     total cpu time spent up to now is       77.6 secs

     total energy              =   -5887.13483615 Ry
     estimated scf accuracy    <       0.00002180 Ry

     iteration # 17     ecut=    60.00 Ry     beta= 0.30
     Davidson diagonalization with overlap
     ethr =  6.81E-09,  avg # of iterations =  6.6

     total cpu time spent up to now is       80.8 secs

     total energy              =   -5887.13484064 Ry
     estimated scf accuracy    <       0.00000323 Ry

     iteration # 18     ecut=    60.00 Ry     beta= 0.30
     Davidson diagonalization with overlap
     ethr =  1.01E-09,  avg # of iterations =  6.5

     total cpu time spent up to now is       85.2 secs

     total energy              =   -5887.13484315 Ry
     estimated scf accuracy    <       0.00000142 Ry

     iteration # 19     ecut=    60.00 Ry     beta= 0.30
     Davidson diagonalization with overlap
     ethr =  4.43E-10,  avg # of iterations =  7.3

     total cpu time spent up to now is       89.3 secs

     total energy              =   -5887.13484350 Ry
     estimated scf accuracy    <       0.00000314 Ry

     iteration # 20     ecut=    60.00 Ry     beta= 0.30
     Davidson diagonalization with overlap
     ethr =  4.43E-10,  avg # of iterations =  1.9

     total cpu time spent up to now is       91.7 secs

     total energy              =   -5887.13484153 Ry
     estimated scf accuracy    <       0.00000300 Ry

     iteration # 21     ecut=    60.00 Ry     beta= 0.30
     Davidson diagonalization with overlap
     ethr =  4.43E-10,  avg # of iterations =  5.0

     total cpu time spent up to now is       95.7 secs

     total energy              =   -5887.13484373 Ry
     estimated scf accuracy    <       0.00000274 Ry

     iteration # 22     ecut=    60.00 Ry     beta= 0.30
     Davidson diagonalization with overlap
     ethr =  4.43E-10,  avg # of iterations =  1.0

     total cpu time spent up to now is       97.9 secs

     total energy              =   -5887.13484338 Ry
     estimated scf accuracy    <       0.00000295 Ry

     iteration # 23     ecut=    60.00 Ry     beta= 0.30
     Davidson diagonalization with overlap
     ethr =  4.43E-10,  avg # of iterations =  1.0

     total cpu time spent up to now is      100.1 secs

     total energy              =   -5887.13484344 Ry
     estimated scf accuracy    <       0.00000221 Ry

     iteration # 24     ecut=    60.00 Ry     beta= 0.30
     Davidson diagonalization with overlap
     ethr =  4.43E-10,  avg # of iterations =  1.7

     total cpu time spent up to now is      102.4 secs

     total energy              =   -5887.13484332 Ry
     estimated scf accuracy    <       0.00000273 Ry

     iteration # 25     ecut=    60.00 Ry     beta= 0.30
     Davidson diagonalization with overlap
     ethr =  4.43E-10,  avg # of iterations =  1.0

     total cpu time spent up to now is      104.6 secs

     total energy              =   -5887.13484339 Ry
     estimated scf accuracy    <       0.00000226 Ry

     iteration # 26     ecut=    60.00 Ry     beta= 0.30
     Davidson diagonalization with overlap
     ethr =  4.43E-10,  avg # of iterations =  1.0

     total cpu time spent up to now is      106.8 secs

     total energy              =   -5887.13484335 Ry
     estimated scf accuracy    <       0.00000244 Ry

     iteration # 27     ecut=    60.00 Ry     beta= 0.30
     Davidson diagonalization with overlap
     ethr =  4.43E-10,  avg # of iterations =  1.0

     total cpu time spent up to now is      108.9 secs

     total energy              =   -5887.13484314 Ry
     estimated scf accuracy    <       0.00000233 Ry

     iteration # 28     ecut=    60.00 Ry     beta= 0.30
     Davidson diagonalization with overlap
     ethr =  4.43E-10,  avg # of iterations =  1.0

     total cpu time spent up to now is      111.1 secs

     total energy              =   -5887.13484305 Ry
     estimated scf accuracy    <       0.00000181 Ry

     iteration # 29     ecut=    60.00 Ry     beta= 0.30
     Davidson diagonalization with overlap
     ethr =  4.43E-10,  avg # of iterations =  1.0

     total cpu time spent up to now is      113.3 secs

     total energy              =   -5887.13484289 Ry
     estimated scf accuracy    <       0.00000141 Ry

     iteration # 30     ecut=    60.00 Ry     beta= 0.30
     Davidson diagonalization with overlap
     ethr =  4.41E-10,  avg # of iterations =  1.0

     total cpu time spent up to now is      115.5 secs

     total energy              =   -5887.13484288 Ry
     estimated scf accuracy    <       0.00000096 Ry

     iteration # 31     ecut=    60.00 Ry     beta= 0.30
     Davidson diagonalization with overlap
     ethr =  3.00E-10,  avg # of iterations =  1.0

     total cpu time spent up to now is      117.7 secs

     total energy              =   -5887.13484278 Ry
     estimated scf accuracy    <       0.00000076 Ry

     iteration # 32     ecut=    60.00 Ry     beta= 0.30
     Davidson diagonalization with overlap
     ethr =  2.38E-10,  avg # of iterations =  1.0

     total cpu time spent up to now is      119.9 secs

     total energy              =   -5887.13484275 Ry
     estimated scf accuracy    <       0.00000051 Ry

     iteration # 33     ecut=    60.00 Ry     beta= 0.30
     Davidson diagonalization with overlap
     ethr =  1.58E-10,  avg # of iterations =  2.0

     total cpu time spent up to now is      122.3 secs

     total energy              =   -5887.13484277 Ry
     estimated scf accuracy    <       0.00000028 Ry

     iteration # 34     ecut=    60.00 Ry     beta= 0.30
     Davidson diagonalization with overlap
     ethr =  8.63E-11,  avg # of iterations =  1.0

     total cpu time spent up to now is      124.5 secs

     total energy              =   -5887.13484268 Ry
     estimated scf accuracy    <       0.00000025 Ry

     iteration # 35     ecut=    60.00 Ry     beta= 0.30
     Davidson diagonalization with overlap
     ethr =  7.91E-11,  avg # of iterations =  2.0

     total cpu time spent up to now is      127.1 secs

     total energy              =   -5887.13484269 Ry
     estimated scf accuracy    <       0.00000007 Ry

     iteration # 36     ecut=    60.00 Ry     beta= 0.30
     Davidson diagonalization with overlap
     ethr =  2.14E-11,  avg # of iterations =  5.1

     total cpu time spent up to now is      130.2 secs

     total energy              =   -5887.13484270 Ry
     estimated scf accuracy    <       0.00000002 Ry

     iteration # 37     ecut=    60.00 Ry     beta= 0.30
     Davidson diagonalization with overlap
     ethr =  7.02E-12,  avg # of iterations =  5.7

     total cpu time spent up to now is      133.8 secs

     total energy              =   -5887.13484271 Ry
     estimated scf accuracy    <          6.8E-09 Ry

     iteration # 38     ecut=    60.00 Ry     beta= 0.30
     Davidson diagonalization with overlap
     ethr =  2.13E-12,  avg # of iterations =  3.0

     total cpu time spent up to now is      136.5 secs

     total energy              =   -5887.13484271 Ry
     estimated scf accuracy    <          7.9E-09 Ry

     iteration # 39     ecut=    60.00 Ry     beta= 0.30
     Davidson diagonalization with overlap
     ethr =  2.13E-12,  avg # of iterations =  1.8

     total cpu time spent up to now is      138.9 secs

     total energy              =   -5887.13484271 Ry
     estimated scf accuracy    <       0.00000001 Ry

     iteration # 40     ecut=    60.00 Ry     beta= 0.30
     Davidson diagonalization with overlap
     ethr =  2.13E-12,  avg # of iterations =  3.1

     total cpu time spent up to now is      141.7 secs

     total energy              =   -5887.13484271 Ry
     estimated scf accuracy    <          1.9E-09 Ry

     iteration # 41     ecut=    60.00 Ry     beta= 0.30
     Davidson diagonalization with overlap
     ethr =  5.97E-13,  avg # of iterations =  5.5

     total cpu time spent up to now is      145.6 secs

     total energy              =   -5887.13484271 Ry
     estimated scf accuracy    <          3.7E-10 Ry

     iteration # 42     ecut=    60.00 Ry     beta= 0.30
     Davidson diagonalization with overlap
     ethr =  1.14E-13,  avg # of iterations =  2.2

     total cpu time spent up to now is      148.1 secs

     total energy              =   -5887.13484271 Ry
     estimated scf accuracy    <          3.5E-10 Ry

     iteration # 43     ecut=    60.00 Ry     beta= 0.30
     Davidson diagonalization with overlap
     ethr =  1.10E-13,  avg # of iterations =  5.3

     total cpu time spent up to now is      152.1 secs

     total energy              =   -5887.13484271 Ry
     estimated scf accuracy    <          1.8E-09 Ry

     iteration # 44     ecut=    60.00 Ry     beta= 0.30
     Davidson diagonalization with overlap
     ethr =  1.10E-13,  avg # of iterations =  5.8

     total cpu time spent up to now is      156.6 secs

     total energy              =   -5887.13484271 Ry
     estimated scf accuracy    <          5.6E-10 Ry

     iteration # 45     ecut=    60.00 Ry     beta= 0.30
     Davidson diagonalization with overlap
     ethr =  1.10E-13,  avg # of iterations =  4.1

     total cpu time spent up to now is      159.8 secs

     total energy              =   -5887.13484271 Ry
     estimated scf accuracy    <          1.2E-09 Ry

     iteration # 46     ecut=    60.00 Ry     beta= 0.30
     Davidson diagonalization with overlap
     ethr =  1.10E-13,  avg # of iterations =  5.0

     total cpu time spent up to now is      163.9 secs

     total energy              =   -5887.13484271 Ry
     estimated scf accuracy    <          6.3E-09 Ry

     iteration # 47     ecut=    60.00 Ry     beta= 0.30
     Davidson diagonalization with overlap
     ethr =  1.10E-13,  avg # of iterations =  5.0

     total cpu time spent up to now is      167.8 secs

     total energy              =   -5887.13484271 Ry
     estimated scf accuracy    <          1.3E-09 Ry

     iteration # 48     ecut=    60.00 Ry     beta= 0.30
     Davidson diagonalization with overlap
     ethr =  1.10E-13,  avg # of iterations =  2.0

     total cpu time spent up to now is      170.3 secs

     total energy              =   -5887.13484271 Ry
     estimated scf accuracy    <          2.3E-09 Ry

     iteration # 49     ecut=    60.00 Ry     beta= 0.30
     Davidson diagonalization with overlap
     ethr =  1.10E-13,  avg # of iterations =  4.9

     total cpu time spent up to now is      174.1 secs

     total energy              =   -5887.13484271 Ry
     estimated scf accuracy    <          6.0E-09 Ry

     iteration # 50     ecut=    60.00 Ry     beta= 0.30
     Davidson diagonalization with overlap
     ethr =  1.10E-13,  avg # of iterations =  5.5

     total cpu time spent up to now is      178.5 secs

     total energy              =   -5887.13484271 Ry
     estimated scf accuracy    <          5.9E-10 Ry

     iteration # 51     ecut=    60.00 Ry     beta= 0.30
     Davidson diagonalization with overlap
     ethr =  1.10E-13,  avg # of iterations =  4.2

     total cpu time spent up to now is      181.6 secs

     total energy              =   -5887.13484271 Ry
     estimated scf accuracy    <          1.3E-09 Ry

     iteration # 52     ecut=    60.00 Ry     beta= 0.30
     Davidson diagonalization with overlap
     ethr =  1.10E-13,  avg # of iterations =  1.1

     total cpu time spent up to now is      183.8 secs

     total energy              =   -5887.13484271 Ry
     estimated scf accuracy    <          8.5E-10 Ry

     iteration # 53     ecut=    60.00 Ry     beta= 0.30
     Davidson diagonalization with overlap
     ethr =  1.10E-13,  avg # of iterations =  1.9

     total cpu time spent up to now is      186.2 secs

     total energy              =   -5887.13484271 Ry
     estimated scf accuracy    <          9.9E-10 Ry

     iteration # 54     ecut=    60.00 Ry     beta= 0.30
     Davidson diagonalization with overlap
     ethr =  1.10E-13,  avg # of iterations =  5.0

     total cpu time spent up to now is      190.3 secs

     total energy              =   -5887.13484271 Ry
     estimated scf accuracy    <          8.4E-10 Ry

     iteration # 55     ecut=    60.00 Ry     beta= 0.30
     Davidson diagonalization with overlap
     ethr =  1.10E-13,  avg # of iterations =  2.0

     total cpu time spent up to now is      193.0 secs

     total energy              =   -5887.13484271 Ry
     estimated scf accuracy    <          2.4E-10 Ry

     iteration # 56     ecut=    60.00 Ry     beta= 0.30
     Davidson diagonalization with overlap
     ethr =  1.00E-13,  avg # of iterations =  2.0

     total cpu time spent up to now is      195.5 secs

     total energy              =   -5887.13484271 Ry
     estimated scf accuracy    <          1.5E-10 Ry

     iteration # 57     ecut=    60.00 Ry     beta= 0.30
     Davidson diagonalization with overlap
     ethr =  1.00E-13,  avg # of iterations =  2.0

     total cpu time spent up to now is      198.0 secs

     End of self-consistent calculation

          k = 0.0000 0.0000 0.0000 ( 27305 PWs)   bands (ev):

   -45.9848 -45.9839 -45.9838 -45.9838 -45.9829 -45.9829 -45.9827 -45.9818
   -22.4341 -22.4303 -22.4303 -22.4276 -22.3845 -22.3823 -22.3823 -22.3802
   -22.3791 -22.3791 -22.3757 -22.3757 -22.3754 -22.3754 -22.3730 -22.3730
   -22.3235 -22.3235 -22.3215 -22.3215 -22.3213 -22.3213 -22.3194 -22.3194
   -14.5420 -14.4272 -14.4176 -14.4176 -14.3466 -14.3466 -14.3384 -14.2762
    -6.8476  -6.8476  -6.7981  -6.5962  -6.3064  -6.1986  -6.1986  -5.9541
    -5.9541  -5.9520  -5.8905  -5.8905  -5.8602  -5.8265  -5.7992  -5.7992
    -5.7960  -5.7960  -5.7751  -5.7083  -5.6204  -5.6204  -5.5579  -5.5578
    -0.4722  -0.4722  -0.4097   0.2095   0.2095   0.2259   0.2259   0.2730
     0.2824   0.2824   0.2838   0.2838   0.4424   0.4424   0.4466   0.4466
     0.4649   0.4649   0.6613   0.6665   0.6665   0.6893   0.6893   0.7334
     5.7141   5.8859   5.9131   5.9131   6.0828   6.0828   6.1347   6.1605
     6.2318   6.2318   6.3967   6.3967   6.3978   6.4167   6.4330   7.3363
     7.3363   7.3923   7.3923   7.4396   7.4396   7.4399   7.4399   7.4471
     7.4471   7.5451   7.5451   7.7695   7.7695   7.7960   7.8905   7.9104
     7.9104   7.9221   7.9221   8.2196   8.2196   8.2652   8.2753   8.2818
     8.2819   8.3809   8.3809   8.4565   8.5260   8.5260   8.5437   8.5437
     8.8895   8.8895   9.0676   9.1903   9.1904   9.2308   9.2308   9.3243
     9.3243   9.3354   9.3354   9.3506   9.3506   9.5644   9.5644   9.8570
     9.9155   9.9155  10.0342  10.0342  10.1053  10.1053  10.1947  10.2662
    12.0430  12.1961  12.3679  12.3679  12.4897  12.4897  13.8069  13.8069
    13.8372  13.8372  13.8639  13.8639  13.8705  13.8705  13.8863  13.8863
    13.8883  13.8883  14.2259  14.2259  14.2552  14.3565  14.3569  14.4387
    14.4387  14.4840  14.4840  14.4908  14.5035  14.9707  15.0679  15.1832
    15.1832  15.2149  16.1744  16.1744  16.3766  16.6785  16.8761  16.8761

          k = 0.0000 0.0000 0.1649 ( 27269 PWs)   bands (ev):

   -45.9848 -45.9840 -45.9837 -45.9837 -45.9829 -45.9829 -45.9826 -45.9818
   -22.4308 -22.4271 -22.4271 -22.4244 -22.3879 -22.3855 -22.3855 -22.3834
   -22.3789 -22.3789 -22.3759 -22.3759 -22.3752 -22.3752 -22.3731 -22.3731
   -22.3233 -22.3233 -22.3216 -22.3216 -22.3211 -22.3211 -22.3195 -22.3195
   -14.5345 -14.4351 -14.4130 -14.4129 -14.3514 -14.3514 -14.3343 -14.2804
    -6.8137  -6.8137  -6.7754  -6.5947  -6.2731  -6.2687  -6.2687  -5.9540
    -5.9248  -5.9248  -5.8866  -5.8866  -5.8580  -5.8288  -5.8133  -5.7850
    -5.7850  -5.7828  -5.7828  -5.7372  -5.6329  -5.6329  -5.5738  -5.5738
    -0.4289  -0.4289  -0.3502   0.1608   0.1608   0.2539   0.2539   0.2906
     0.2906   0.2940   0.2940   0.3044   0.4312   0.4312   0.4325   0.4325
     0.4776   0.4776   0.5724   0.6522   0.6522   0.6553   0.6553   0.7028
     5.7598   5.8869   5.9696   5.9696   6.1553   6.1553   6.2184   6.2184
     6.2625   6.2686   6.4178   6.4320   6.4539   6.4539   6.4758   7.3415
     7.3415   7.3897   7.3897   7.4222   7.4222   7.4814   7.4814   7.4859
     7.4859   7.5978   7.5978   7.6013   7.6013   7.6965   7.7619   7.7619
     7.7664   7.9016   7.9016   8.2430   8.2430   8.2630   8.3108   8.3208
     8.3208   8.3489   8.3489   8.3542   8.5591   8.5591   8.8124   8.8124
     8.8463   8.8463   9.0030   9.1298   9.1298   9.2287   9.2287   9.2662
     9.2662   9.2748   9.2748   9.2799   9.2800   9.5855   9.5855   9.7010
     9.8909   9.8909   9.9949   9.9949  10.0235  10.0235  10.1994  10.2613
    12.0528  12.1855  12.4837  12.4837  12.5944  12.5944  13.7783  13.7783
    13.7983  13.7983  13.8093  13.8093  13.8354  13.8354  13.8673  13.8673
    13.9237  13.9237  14.1802  14.1802  14.2703  14.3560  14.3563  14.4356
    14.4356  14.4743  14.5719  14.5719  14.6842  15.1747  15.1747  15.1837
    15.2026  15.3469  16.2563  16.2563  16.2830  16.6785  16.9640  17.0487

          k = 0.0000 0.0000 0.3297 ( 27266 PWs)   bands (ev):

   -45.9846 -45.9842 -45.9835 -45.9835 -45.9831 -45.9831 -45.9825 -45.9820
   -22.4218 -22.4184 -22.4184 -22.4158 -22.3970 -22.3944 -22.3944 -22.3921
   -22.3782 -22.3782 -22.3765 -22.3765 -22.3748 -22.3748 -22.3736 -22.3736
   -22.3230 -22.3230 -22.3220 -22.3220 -22.3208 -22.3208 -22.3198 -22.3198
   -14.5138 -14.4565 -14.4001 -14.4001 -14.3646 -14.3646 -14.3231 -14.2919
    -6.7178  -6.7178  -6.7167  -6.6049  -6.4150  -6.4150  -6.1806  -5.9428
    -5.9154  -5.8887  -5.8887  -5.8785  -5.8785  -5.8518  -5.8350  -5.8102
    -5.7543  -5.7543  -5.7383  -5.7383  -5.6667  -5.6667  -5.6176  -5.6176
    -0.3094  -0.3094  -0.1809   0.0304   0.0304   0.3149   0.3149   0.3220
     0.3220   0.3327   0.3327   0.3463   0.3895   0.3965   0.3965   0.4012
     0.4012   0.5130   0.5130   0.5645   0.5645   0.6137   0.6137   0.6193
     5.8364   5.8872   6.0703   6.0703   6.1850   6.1850   6.3671   6.3671
     6.4208   6.4289   6.5693   6.5955   6.6636   6.6636   6.7486   7.1295
     7.1295   7.3001   7.3001   7.3543   7.3543   7.3819   7.3819   7.4182
     7.4335   7.5780   7.5780   7.5912   7.5912   7.7331   7.7331   7.7436
     7.7436   7.7851   7.8370   7.8370   8.1601   8.1601   8.3165   8.3165
     8.4402   8.5486   8.5486   8.5810   8.6335   8.6335   8.6560   8.6560
     8.8370   8.9805   8.9805   9.0594   9.0594   9.0864   9.0864   9.1531
     9.1531   9.2754   9.2754   9.3349   9.3797   9.3797   9.6450   9.6450
     9.8171   9.8171   9.8228   9.8228   9.8660   9.8660  10.2123  10.2480
    12.0800  12.1565  12.7831  12.7831  12.8672  12.8672  13.5232  13.5232
    13.5562  13.5562  13.8153  13.8153  13.8303  13.8303  13.8917  13.8917
    14.0223  14.0223  14.0715  14.0715  14.3121  14.3135  14.3135  14.3551
    14.3556  14.4299  14.8378  14.8378  15.1138  15.1377  15.1377  15.5672
    15.7049  15.7222  16.0127  16.5247  16.5247  16.5755  16.6068  16.9112

          k = 0.0000 0.0000-0.4946 ( 27198 PWs)   bands (ev):

   -45.9844 -45.9844 -45.9833 -45.9833 -45.9833 -45.9833 -45.9822 -45.9822
   -22.4095 -22.4094 -22.4064 -22.4064 -22.4064 -22.4064 -22.4040 -22.4039
   -22.3774 -22.3774 -22.3774 -22.3774 -22.3742 -22.3742 -22.3742 -22.3742
   -22.3225 -22.3225 -22.3224 -22.3224 -22.3203 -22.3203 -22.3203 -22.3203
   -14.4854 -14.4853 -14.3825 -14.3825 -14.3824 -14.3824 -14.3076 -14.3075
    -6.6490  -6.6488  -6.5764  -6.5764  -6.5763  -6.5763  -6.0505  -6.0503
    -5.8918  -5.8917  -5.8752  -5.8752  -5.8752  -5.8752  -5.8435  -5.8433
    -5.7114  -5.7114  -5.7112  -5.7112  -5.6778  -5.6778  -5.6777  -5.6777
    -0.1422  -0.1422  -0.1421  -0.1421   0.0689   0.0691   0.3527   0.3528
     0.3529   0.3529   0.3611   0.3611   0.3612   0.3612   0.4456   0.4456
     0.4456   0.4456   0.5048   0.5049   0.5626   0.5626   0.5626   0.5626
     5.8767   5.8768   6.1388   6.1388   6.1389   6.1389   6.4248   6.4249
     6.7012   6.7012   6.7014   6.7014   6.9933   6.9934   7.0043   7.0043
     7.0044   7.0044   7.0200   7.0201   7.2220   7.2221   7.3692   7.3692
     7.3693   7.3693   7.6716   7.6716   7.6716   7.6716   7.7262   7.7262
     7.7263   7.7263   7.9481   7.9481   7.9482   7.9482   8.4489   8.4489
     8.4490   8.4490   8.6296   8.6297   8.8056   8.8056   8.8056   8.8056
     8.8194   8.8194   8.8195   8.8195   8.9263   8.9263   9.0408   9.0408
     9.0409   9.0409   9.5752   9.5752   9.5752   9.5752   9.6274   9.6274
     9.6274   9.6274   9.7314   9.7314   9.7315   9.7315  10.2300  10.2302
    12.1178  12.1179  13.1636  13.1636  13.1637  13.1637  13.2188  13.2188
    13.2189  13.2189  13.8230  13.8230  13.8231  13.8231  13.9606  13.9606
    13.9606  13.9606  14.1628  14.1628  14.1628  14.1628  14.3552  14.3552
    14.3704  14.3704  15.0391  15.0391  15.0392  15.0392  15.5999  15.6000
    16.0653  16.0656  16.2725  16.2727  16.2795  16.2796  16.9646  16.9647

          k = 0.0000 0.1667 0.0000 ( 27283 PWs)   bands (ev):

   -45.9848 -45.9839 -45.9839 -45.9837 -45.9829 -45.9828 -45.9828 -45.9819
   -22.4338 -22.4306 -22.4302 -22.4278 -22.3844 -22.3825 -22.3822 -22.3803
   -22.3788 -22.3756 -22.3755 -22.3754 -22.3732 -22.3721 -22.3718 -22.3694
   -22.3272 -22.3252 -22.3249 -22.3233 -22.3230 -22.3214 -22.3213 -22.3195
   -14.5339 -14.4262 -14.4219 -14.4124 -14.3521 -14.3439 -14.3419 -14.2810
    -6.8235  -6.8153  -6.7640  -6.6003  -6.3489  -6.2503  -6.1626  -5.9469
    -5.9426  -5.9385  -5.8932  -5.8819  -5.8571  -5.8202  -5.7979  -5.7900
    -5.7883  -5.7879  -5.7797  -5.7245  -5.6616  -5.6332  -5.5905  -5.5734
    -0.4281  -0.4154  -0.3596   0.1759   0.2224   0.2318   0.2371   0.2382
     0.2839   0.2953   0.3093   0.3118   0.4242   0.4343   0.4345   0.4521
     0.4565   0.4693   0.5723   0.6466   0.6505   0.6538   0.6627   0.7000
     5.7636   5.9128   5.9448   5.9661   6.1335   6.1494   6.2092   6.2146
     6.2159   6.3387   6.3970   6.4040   6.4739   6.4838   6.5012   7.3762
     7.3816   7.3858   7.3924   7.4397   7.4436   7.4441   7.4515   7.4802
     7.4995   7.5420   7.5776   7.6675   7.7326   7.7378   7.7606   7.7937
     7.7977   7.8780   7.9033   7.9652   7.9900   8.1579   8.3348   8.3416
     8.3420   8.3919   8.4946   8.5079   8.5799   8.5808   8.7752   8.7765
     8.8246   8.8892   8.9598   9.0303   9.1655   9.1916   9.2272   9.2513
     9.3140   9.3615   9.3701   9.3915   9.3993   9.4385   9.4660   9.6827
     9.8394   9.9193   9.9934  10.0315  10.0389  10.0989  10.1513  10.1864
    12.1940  12.3327  12.3785  12.4290  12.4799  12.5454  13.7070  13.7401
    13.7499  13.7741  13.8143  13.8489  13.8662  13.8714  13.8748  13.8851
    13.8862  13.9040  14.1718  14.2022  14.2432  14.4284  14.4334  14.4455
    14.4458  14.4684  14.5112  14.5746  14.6243  14.9871  15.1725  15.2071
    15.3525  15.4052  16.1049  16.2755  16.4609  16.7392  16.9889  17.0894

          k = 0.0000 0.1667 0.1649 ( 27282 PWs)   bands (ev):

   -45.9847 -45.9839 -45.9838 -45.9836 -45.9830 -45.9828 -45.9827 -45.9819
   -22.4306 -22.4274 -22.4270 -22.4246 -22.3877 -22.3857 -22.3854 -22.3835
   -22.3786 -22.3757 -22.3755 -22.3752 -22.3733 -22.3723 -22.3716 -22.3696
   -22.3270 -22.3253 -22.3248 -22.3232 -22.3231 -22.3215 -22.3213 -22.3197
   -14.5265 -14.4296 -14.4213 -14.4078 -14.3572 -14.3467 -14.3397 -14.2853
    -6.7910  -6.7814  -6.7430  -6.5959  -6.3155  -6.3002  -6.2348  -5.9505
    -5.9266  -5.9118  -5.8900  -5.8778  -5.8547  -5.8350  -5.8230  -5.7875
    -5.7756  -5.7732  -5.7703  -5.7525  -5.6648  -5.6434  -5.6056  -5.5874
    -0.3991  -0.3860  -0.2787   0.1689   0.1905   0.2048   0.2336   0.2472
     0.2777   0.3057   0.3316   0.3541   0.3845   0.4108   0.4167   0.4452
     0.4646   0.5100   0.5730   0.5751   0.6187   0.6364   0.6388   0.6786
     5.8133   5.9459   5.9692   6.0284   6.2037   6.2087   6.2557   6.2724
     6.3214   6.3234   6.4540   6.4593   6.4750   6.5165   6.5321   7.3686
     7.3780   7.3909   7.4222   7.4372   7.4384   7.4510   7.4763   7.4852
     7.5249   7.5328   7.5929   7.5947   7.6226   7.6812   7.7018   7.7580
     7.7711   7.7985   7.8287   7.8853   7.9317   8.1804   8.3064   8.3297
     8.3669   8.3957   8.4071   8.6136   8.6587   8.7483   8.7613   8.7967
     8.8500   8.8811   8.9162   9.0337   9.1480   9.1689   9.2104   9.2239
     9.2813   9.3084   9.3124   9.3133   9.3322   9.4679   9.4880   9.5773
     9.8122   9.8564   9.9520   9.9609   9.9966  10.0150  10.1539  10.1911
    12.2027  12.3229  12.4934  12.5292  12.5851  12.6467  13.7096  13.7349
    13.7561  13.7568  13.7794  13.7998  13.8150  13.8168  13.8191  13.8711
    13.8720  13.9199  14.1198  14.1972  14.2170  14.3761  14.4109  14.4260
    14.4851  14.5108  14.5771  14.7224  14.7671  15.1638  15.1996  15.3360
    15.3993  15.4827  16.1864  16.3411  16.3667  16.7736  17.0385  17.1094

          k = 0.0000 0.1667 0.3297 ( 27264 PWs)   bands (ev):

   -45.9845 -45.9841 -45.9836 -45.9835 -45.9831 -45.9830 -45.9825 -45.9821
   -22.4216 -22.4186 -22.4182 -22.4160 -22.3969 -22.3946 -22.3942 -22.3922
   -22.3780 -22.3763 -22.3750 -22.3746 -22.3738 -22.3729 -22.3712 -22.3700
   -22.3267 -22.3257 -22.3244 -22.3235 -22.3228 -22.3218 -22.3209 -22.3200
   -14.5064 -14.4505 -14.4079 -14.3950 -14.3709 -14.3598 -14.3283 -14.2969
    -6.6995  -6.6894  -6.6854  -6.5976  -6.4213  -6.3822  -6.2222  -5.9485
    -5.9445  -5.9023  -5.8843  -5.8760  -5.8687  -5.8479  -5.8336  -5.8194
    -5.7592  -5.7444  -5.7420  -5.7332  -5.6850  -5.6711  -5.6456  -5.6259
    -0.3073  -0.2694  -0.0973   0.0282   0.0628   0.2442   0.2761   0.2862
     0.2940   0.3223   0.3341   0.3727   0.3756   0.3821   0.3944   0.4146
     0.4357   0.4995   0.5252   0.5491   0.5730   0.5781   0.5986   0.6182
     5.8956   5.9464   6.0676   6.1454   6.1733   6.2846   6.4261   6.4459
     6.4779   6.4844   6.5504   6.6157   6.6657   6.7188   6.7482   7.1097
     7.1611   7.2894   7.3510   7.3609   7.3830   7.3886   7.4033   7.4135
     7.4297   7.5081   7.5161   7.5939   7.6095   7.7370   7.7383   7.7412
     7.7450   7.7455   7.8274   7.8757   7.9346   7.9615   8.1643   8.2520
     8.4284   8.4554   8.5507   8.5695   8.5772   8.7089   8.7137   8.8667
     8.8690   8.9589   8.9609   9.0249   9.0352   9.1548   9.1767   9.1964
     9.2261   9.2575   9.2883   9.3296   9.3457   9.3471   9.5472   9.5504
     9.7384   9.7512   9.7595   9.8126   9.8511   9.8602  10.1618  10.1858
    12.2271  12.2966  12.7903  12.7979  12.8594  12.9103  13.5043  13.5255
    13.5500  13.5790  13.7166  13.7356  13.7877  13.8313  13.8609  13.9016
    13.9258  13.9963  14.0139  14.0877  14.2445  14.2582  14.2965  14.3751
    14.5027  14.5095  14.8378  15.0257  15.1275  15.1861  15.3653  15.6842
    15.7243  15.8543  16.0941  16.4543  16.5685  16.6559  16.6946  17.0396

          k = 0.0000 0.1667-0.4946 ( 27244 PWs)   bands (ev):

   -45.9843 -45.9843 -45.9834 -45.9834 -45.9832 -45.9832 -45.9823 -45.9823
   -22.4093 -22.4093 -22.4066 -22.4066 -22.4062 -22.4062 -22.4041 -22.4041
   -22.3772 -22.3772 -22.3744 -22.3744 -22.3737 -22.3737 -22.3706 -22.3706
   -22.3262 -22.3261 -22.3240 -22.3240 -22.3223 -22.3223 -22.3205 -22.3205
   -14.4787 -14.4786 -14.3895 -14.3895 -14.3776 -14.3775 -14.3127 -14.3126
    -6.6305  -6.6303  -6.5670  -6.5669  -6.5439  -6.5437  -6.0897  -6.0895
    -5.9007  -5.9006  -5.8856  -5.8856  -5.8639  -5.8639  -5.8383  -5.8382
    -5.7209  -5.7208  -5.7083  -5.7081  -5.6965  -5.6963  -5.6793  -5.6791
    -0.1499  -0.1498  -0.1061  -0.1060   0.1384   0.1385   0.2729   0.2730
     0.3206   0.3206   0.3314   0.3314   0.3739   0.3739   0.4027   0.4027
     0.4829   0.4830   0.5309   0.5310   0.5483   0.5483   0.5715   0.5715
     5.9366   5.9367   6.1316   6.1317   6.2293   6.2294   6.4818   6.4819
     6.7309   6.7310   6.7559   6.7560   6.9634   6.9635   6.9944   6.9944
     7.0092   7.0093   7.0478   7.0480   7.1943   7.1945   7.3913   7.3915
     7.4177   7.4178   7.6293   7.6294   7.6856   7.6856   7.7186   7.7187
     7.7244   7.7245   7.8683   7.8684   7.9480   7.9482   8.1841   8.1842
     8.3838   8.3839   8.5745   8.5745   8.7654   8.7655   8.7738   8.7739
     8.8552   8.8552   8.9910   8.9911   9.0177   9.0177   9.0883   9.0884
     9.1073   9.1074   9.5165   9.5166   9.5642   9.5643   9.6126   9.6126
     9.6413   9.6414   9.6420   9.6420   9.6533   9.6534  10.1736  10.1738
    12.2614  12.2615  13.1551  13.1552  13.1679  13.1680  13.2124  13.2125
    13.2506  13.2507  13.7258  13.7259  13.8464  13.8465  13.8690  13.8691
    13.9749  13.9749  14.0802  14.0803  14.1493  14.1493  14.3157  14.3158
    14.5073  14.5073  15.0326  15.0327  15.2582  15.2582  15.6767  15.6769
    16.1615  16.1618  16.3137  16.3139  16.4088  16.8921  16.8923  16.9735

          k = 0.0000 0.3333 0.0000 ( 27251 PWs)   bands (ev):

   -45.9846 -45.9841 -45.9836 -45.9835 -45.9831 -45.9830 -45.9826 -45.9821
   -22.4332 -22.4313 -22.4296 -22.4283 -22.3840 -22.3829 -22.3818 -22.3807
   -22.3782 -22.3763 -22.3750 -22.3737 -22.3653 -22.3622 -22.3619 -22.3596
   -22.3374 -22.3351 -22.3349 -22.3329 -22.3229 -22.3218 -22.3209 -22.3199
   -14.5115 -14.4494 -14.4074 -14.3981 -14.3671 -14.3586 -14.3292 -14.2940
    -6.7602  -6.7251  -6.6682  -6.6248  -6.4582  -6.3768  -6.0629  -5.9311
    -5.9108  -5.9009  -5.8940  -5.8594  -5.8350  -5.8251  -5.8086  -5.8053
    -5.7807  -5.7707  -5.7684  -5.7567  -5.7354  -5.6739  -5.6675  -5.6163
    -0.3060  -0.2688  -0.2056   0.0420   0.0960   0.2601   0.2700   0.3144
     0.3192   0.3272   0.3343   0.3775   0.3829   0.3855   0.3872   0.4012
     0.4177   0.4956   0.5039   0.5592   0.5897   0.6071   0.6075   0.6112
     5.8485   5.9100   6.0447   6.0521   6.1227   6.1775   6.3218   6.3982
     6.4034   6.4274   6.5561   6.6346   6.6845   6.7500   6.7639   7.0807
     7.2247   7.3066   7.3886   7.4287   7.4374   7.4388   7.4465   7.4550
     7.4725   7.4763   7.5648   7.5866   7.5871   7.6420   7.6528   7.7292
     7.7736   7.8206   7.8390   7.8933   7.9710   7.9932   8.1084   8.4328
     8.5040   8.5403   8.5436   8.5529   8.5783   8.6725   8.7036   8.7132
     8.7358   8.8952   8.9868   9.0634   9.1223   9.2160   9.2171   9.2325
     9.2461   9.3119   9.3317   9.3606   9.3719   9.4645   9.4697   9.5185
     9.6705   9.7912   9.8471   9.8606   9.9748  10.0110  10.0518  10.0899
    12.3840  12.4538  12.5834  12.6696  12.6723  12.7578  13.4275  13.4499
    13.4708  13.4807  13.8463  13.8501  13.8738  13.8759  13.8806  13.8818
    13.9797  13.9825  14.0445  14.0756  14.2899  14.2906  14.2967  14.4206
    14.4565  14.4628  14.7984  14.8149  15.0031  15.0647  15.1280  15.5963
    15.7319  15.8905  15.9306  16.5936  16.6873  16.7232  16.7630  16.9346

          k = 0.0000 0.3333 0.1649 ( 27222 PWs)   bands (ev):

   -45.9845 -45.9840 -45.9837 -45.9834 -45.9832 -45.9829 -45.9826 -45.9821
   -22.4299 -22.4281 -22.4265 -22.4251 -22.3873 -22.3861 -22.3850 -22.3839
   -22.3780 -22.3761 -22.3752 -22.3738 -22.3650 -22.3624 -22.3618 -22.3598
   -22.3373 -22.3353 -22.3347 -22.3330 -22.3227 -22.3217 -22.3211 -22.3200
   -14.5047 -14.4440 -14.4145 -14.3936 -14.3727 -14.3543 -14.3339 -14.2984
    -6.7318  -6.6911  -6.6527  -6.6126  -6.4244  -6.3941  -6.1421  -5.9368
    -5.9074  -5.9037  -5.9000  -5.8744  -5.8543  -5.8343  -5.8166  -5.7999
    -5.7855  -5.7709  -5.7466  -5.7398  -5.7306  -5.6859  -5.6717  -5.6250
    -0.2898  -0.2669  -0.1032   0.0736   0.0820   0.1959   0.2620   0.2741
     0.2904   0.3122   0.3380   0.3604   0.3765   0.3780   0.4143   0.4297
     0.4321   0.4838   0.5214   0.5428   0.5717   0.5907   0.5941   0.6106
     5.9045   5.9665   6.0511   6.1261   6.1682   6.2240   6.3889   6.4551
     6.4612   6.4985   6.5777   6.6128   6.6874   6.7636   6.7859   7.1231
     7.1726   7.3010   7.3326   7.4220   7.4290   7.4471   7.4554   7.4719
     7.4922   7.4960   7.5076   7.5621   7.6248   7.6518   7.6787   7.7312
     7.7416   7.7630   7.8275   7.8447   7.8758   7.9390   8.0138   8.3654
     8.3943   8.4060   8.5700   8.5720   8.5976   8.6044   8.7670   8.7981
     8.8904   8.9628   8.9763   9.0645   9.1391   9.1394   9.2401   9.2536
     9.2573   9.2795   9.2920   9.3576   9.3609   9.4097   9.4121   9.4855
     9.6361   9.7397   9.7735   9.8473   9.9456  10.0029  10.0079  10.0522
    12.4794  12.5604  12.6071  12.6644  12.7326  12.8465  13.4313  13.4635
    13.4657  13.5343  13.7598  13.7829  13.7943  13.8570  13.8873  13.9000
    13.9091  13.9715  13.9780  14.0899  14.2284  14.2439  14.2804  14.3729
    14.5708  14.5845  14.7969  14.9958  15.1198  15.1467  15.2142  15.7083
    15.8595  15.9332  15.9705  16.6229  16.6275  16.7522  16.8374  17.0686

          k = 0.0000 0.3333 0.3297 ( 27256 PWs)   bands (ev):

   -45.9844 -45.9839 -45.9838 -45.9833 -45.9833 -45.9828 -45.9827 -45.9823
   -22.4210 -22.4193 -22.4178 -22.4164 -22.3964 -22.3951 -22.3938 -22.3927
   -22.3774 -22.3758 -22.3756 -22.3743 -22.3645 -22.3630 -22.3614 -22.3602
   -22.3369 -22.3357 -22.3344 -22.3334 -22.3224 -22.3214 -22.3213 -22.3204
   -14.4860 -14.4339 -14.4291 -14.3880 -14.3811 -14.3467 -14.3426 -14.3103
    -6.6544  -6.6166  -6.5950  -6.5899  -6.4532  -6.3297  -6.2918  -6.0402
    -5.9427  -5.9189  -5.9013  -5.8661  -5.8422  -5.8401  -5.8293  -5.8050
    -5.7770  -5.7560  -5.7313  -5.7196  -5.7177  -5.7138  -5.6837  -5.6493
    -0.2444  -0.1582   0.0440   0.0779   0.0794   0.1537   0.1621   0.2037
     0.2601   0.2751   0.3227   0.3259   0.3677   0.4206   0.4518   0.4595
     0.4631   0.4634   0.4745   0.5031   0.5579   0.5656   0.5770   0.5990
     5.9947   6.0480   6.0606   6.1458   6.3091   6.5011   6.5540   6.5827
     6.6469   6.6531   6.6722   6.6881   6.6949   6.8050   6.9276   7.0008
     7.1712   7.2239   7.2313   7.2419   7.2679   7.3946   7.4016   7.4327
     7.5204   7.5440   7.5482   7.5541   7.5996   7.6134   7.6765   7.7317
     7.7380   7.7574   7.7689   7.7715   7.7889   8.0312   8.0503   8.0833
     8.1300   8.1890   8.3781   8.4162   8.6541   8.6573   8.8064   8.8574
     8.9959   9.0327   9.1026   9.1269   9.1418   9.1495   9.2038   9.2154
     9.2426   9.2727   9.2770   9.3282   9.3378   9.4090   9.4764   9.4962
     9.5462   9.5879   9.6787   9.7920   9.7982   9.8489  10.0020  10.0124
    12.5777  12.6429  12.8189  12.8377  12.9211  13.0782  13.4402  13.4420
    13.5191  13.5197  13.5325  13.5653  13.6766  13.6791  13.8160  13.8834
    13.9295  13.9487  13.9903  14.0707  14.1293  14.1322  14.2312  14.2607
    14.7128  14.7899  14.8309  15.0873  15.4034  15.4633  15.7411  15.9048
    16.0072  16.2297  16.2378  16.3508  16.7396  16.7963  16.8723  16.9347

          k = 0.0000 0.3333-0.4946 ( 27264 PWs)   bands (ev):

   -45.9841 -45.9841 -45.9836 -45.9836 -45.9830 -45.9830 -45.9825 -45.9825
   -22.4087 -22.4087 -22.4072 -22.4072 -22.4058 -22.4058 -22.4046 -22.4046
   -22.3766 -22.3766 -22.3750 -22.3750 -22.3637 -22.3637 -22.3608 -22.3608
   -22.3363 -22.3363 -22.3339 -22.3339 -22.3219 -22.3219 -22.3209 -22.3208
   -14.4601 -14.4601 -14.4087 -14.4086 -14.3640 -14.3639 -14.3266 -14.3265
    -6.5877  -6.5876  -6.5502  -6.5501  -6.4535  -6.4534  -6.1925  -6.1924
    -5.9213  -5.9212  -5.9108  -5.9107  -5.8330  -5.8329  -5.8188  -5.8187
    -5.7493  -5.7492  -5.7397  -5.7396  -5.7005  -5.7004  -5.6838  -5.6837
    -0.1220  -0.1220  -0.0052  -0.0052   0.1182   0.1183   0.2818   0.2818
     0.2824   0.2824   0.2882   0.2882   0.2883   0.2883   0.4092   0.4093
     0.5098   0.5099   0.5355   0.5355   0.5360   0.5360   0.5633   0.5633
     6.0365   6.0366   6.1146   6.1147   6.4612   6.4613   6.7011   6.7012
     6.7986   6.7986   6.8753   6.8754   6.8853   6.8854   6.9363   6.9363
     7.0246   7.0247   7.1428   7.1430   7.2156   7.2157   7.3698   7.3699
     7.3739   7.3740   7.5403   7.5405   7.7074   7.7075   7.7124   7.7125
     7.7635   7.7635   7.8223   7.8223   7.8513   7.8514   7.9643   7.9644
     8.1910   8.1910   8.2205   8.2206   8.6972   8.6972   8.7991   8.7992
     8.9940   8.9940   9.1070   9.1070   9.1478   9.1479   9.1550   9.1550
     9.3433   9.3435   9.3745   9.3745   9.4324   9.4325   9.5454   9.5454
     9.5808   9.5808   9.6077   9.6077   9.6648   9.6648  10.0010  10.0011
    12.6131  12.6132  13.1817  13.1818  13.1903  13.1904  13.2081  13.2082
    13.3811  13.3812  13.4600  13.4600  13.6410  13.6410  13.8699  13.8700
    13.9166  13.9167  14.0138  14.0138  14.1107  14.1108  14.1853  14.1854
    14.7695  14.7695  15.0050  15.0051  15.7543  15.7543  15.9303  15.9304
    16.3553  16.3554  16.4231  16.4233  16.6714  16.6715  16.7845  16.7846

          k = 0.0000-0.5000 0.0000 ( 27234 PWs)   bands (ev):

   -45.9843 -45.9843 -45.9834 -45.9834 -45.9832 -45.9832 -45.9823 -45.9823
   -22.4322 -22.4322 -22.4290 -22.4290 -22.3835 -22.3835 -22.3812 -22.3812
   -22.3772 -22.3772 -22.3743 -22.3743 -22.3514 -22.3514 -22.3487 -22.3487
   -22.3484 -22.3484 -22.3463 -22.3463 -22.3223 -22.3223 -22.3204 -22.3204
   -14.4807 -14.4807 -14.3873 -14.3873 -14.3785 -14.3784 -14.3117 -14.3117
    -6.6832  -6.6832  -6.5960  -6.5960  -6.5293  -6.5293  -5.9238  -5.9238
    -5.9133  -5.9133  -5.8645  -5.8645  -5.8329  -5.8329  -5.8314  -5.8314
    -5.7860  -5.7860  -5.7700  -5.7700  -5.7129  -5.7129  -5.6754  -5.6754
    -0.1349  -0.1349  -0.0856  -0.0856   0.0459   0.0459   0.3177   0.3177
     0.3203   0.3203   0.3572   0.3572   0.3718   0.3718   0.4359   0.4359
     0.4890   0.4890   0.4952   0.4952   0.5506   0.5506   0.5546   0.5546
     5.8952   5.8952   6.0892   6.0892   6.1266   6.1266   6.4007   6.4007
     6.6582   6.6583   6.7743   6.7743   6.9875   6.9875   7.0286   7.0286
     7.0488   7.0488   7.1189   7.1189   7.2053   7.2054   7.4319   7.4319
     7.4708   7.4709   7.6839   7.6839   7.7175   7.7176   7.7181   7.7181
     7.7269   7.7269   7.7774   7.7774   7.8284   7.8284   8.3062   8.3062
     8.5238   8.5238   8.6237   8.6237   8.7030   8.7030   8.7484   8.7484
     8.8051   8.8051   8.9662   8.9662   8.9932   8.9932   9.1416   9.1416
     9.1593   9.1593   9.4877   9.4877   9.6144   9.6144   9.6192   9.6192
     9.6343   9.6343   9.7274   9.7274   9.7536   9.7536  10.0701  10.0701
    12.4196  12.4196  13.0242  13.0242  13.0522  13.0522  13.0872  13.0872
    13.1056  13.1056  13.8718  13.8718  13.8776  13.8776  13.9185  13.9185
    13.9448  13.9448  14.1240  14.1240  14.1311  14.1311  14.3555  14.3555
    14.4625  14.4625  14.9622  14.9622  15.0161  15.0161  15.5311  15.5311
    16.1438  16.1439  16.2841  16.2841  16.4869  16.4869  17.0746  17.0746

          k = 0.0000-0.5000 0.1649 ( 27230 PWs)   bands (ev):

   -45.9843 -45.9843 -45.9834 -45.9834 -45.9832 -45.9832 -45.9824 -45.9824
   -22.4290 -22.4290 -22.4258 -22.4258 -22.3867 -22.3867 -22.3845 -22.3845
   -22.3770 -22.3770 -22.3745 -22.3745 -22.3512 -22.3512 -22.3489 -22.3489
   -22.3483 -22.3483 -22.3464 -22.3464 -22.3222 -22.3222 -22.3206 -22.3206
   -14.4746 -14.4746 -14.3937 -14.3937 -14.3741 -14.3740 -14.3162 -14.3162
    -6.6619  -6.6619  -6.5621  -6.5621  -6.5253  -6.5253  -6.0174  -6.0174
    -5.9163  -5.9163  -5.8600  -5.8600  -5.8246  -5.8246  -5.8159  -5.8159
    -5.7800  -5.7799  -5.7760  -5.7759  -5.7096  -5.7096  -5.6773  -5.6773
    -0.1133  -0.1133  -0.0997  -0.0997   0.1312   0.1312   0.2449   0.2449
     0.3037   0.3037   0.3282   0.3282   0.3832   0.3832   0.3944   0.3944
     0.5148   0.5148   0.5171   0.5171   0.5380   0.5380   0.5630   0.5630
     5.9524   5.9524   6.1215   6.1215   6.1833   6.1833   6.4579   6.4579
     6.7154   6.7154   6.7901   6.7901   6.9669   6.9669   7.0143   7.0144
     7.0340   7.0341   7.1513   7.1513   7.1865   7.1865   7.4388   7.4388
     7.5090   7.5091   7.6198   7.6198   7.7130   7.7130   7.7231   7.7231
     7.7317   7.7318   7.7807   7.7807   7.7985   7.7985   8.1251   8.1252
     8.4513   8.4513   8.4893   8.4893   8.7664   8.7664   8.8014   8.8014
     8.8950   8.8950   8.9946   8.9946   9.0217   9.0217   9.1312   9.1312
     9.1622   9.1622   9.4440   9.4440   9.5695   9.5695   9.5774   9.5774
     9.6323   9.6323   9.7152   9.7152   9.7429   9.7429  10.0159  10.0159
    12.5273  12.5273  13.0309  13.0309  13.0810  13.0811  13.0830  13.0830
    13.1760  13.1760  13.7883  13.7883  13.8371  13.8371  13.8929  13.8929
    13.9576  13.9576  14.0510  14.0510  14.1180  14.1180  14.3082  14.3082
    14.5852  14.5852  15.0107  15.0107  15.1661  15.1661  15.6085  15.6085
    16.2272  16.2272  16.4165  16.4165  16.5138  16.5138  17.0279  17.0279

          k = 0.0000-0.5000 0.3297 ( 27248 PWs)   bands (ev):

   -45.9841 -45.9841 -45.9836 -45.9836 -45.9830 -45.9830 -45.9825 -45.9825
   -22.4201 -22.4201 -22.4171 -22.4171 -22.3957 -22.3957 -22.3933 -22.3933
   -22.3765 -22.3765 -22.3751 -22.3751 -22.3507 -22.3507 -22.3494 -22.3494
   -22.3479 -22.3479 -22.3468 -22.3468 -22.3219 -22.3219 -22.3209 -22.3209
   -14.4578 -14.4577 -14.4111 -14.4111 -14.3620 -14.3620 -14.3286 -14.3286
    -6.6087  -6.6087  -6.5252  -6.5252  -6.4663  -6.4663  -6.1666  -6.1666
    -5.9254  -5.9254  -5.9051  -5.9051  -5.8077  -5.8077  -5.7881  -5.7881
    -5.7846  -5.7846  -5.7795  -5.7795  -5.7013  -5.7013  -5.6827  -5.6827
    -0.1052  -0.1052  -0.0013  -0.0012   0.1029   0.1029   0.2776   0.2777
     0.2832   0.2832   0.2837   0.2837   0.2875   0.2875   0.4147   0.4147
     0.5040   0.5040   0.5313   0.5313   0.5486   0.5486   0.5545   0.5545
     6.0441   6.0441   6.1091   6.1091   6.4292   6.4292   6.6799   6.6799
     6.8264   6.8264   6.8664   6.8664   6.9100   6.9101   6.9197   6.9197
     7.0478   7.0478   7.1491   7.1491   7.2725   7.2725   7.3668   7.3668
     7.3786   7.3787   7.5937   7.5937   7.6961   7.6961   7.7260   7.7260
     7.7332   7.7332   7.8180   7.8180   7.8273   7.8273   7.8794   7.8794
     8.1786   8.1786   8.2674   8.2674   8.7057   8.7057   8.8033   8.8033
     9.0713   9.0713   9.0762   9.0762   9.1316   9.1316   9.1831   9.1832
     9.2139   9.2139   9.3333   9.3333   9.4076   9.4076   9.5959   9.5959
     9.6613   9.6613   9.6853   9.6853   9.7211   9.7211   9.8567   9.8567
    12.8005  12.8005  13.0558  13.0558  13.0630  13.0631  13.1897  13.1897
    13.3618  13.3618  13.5437  13.5437  13.6298  13.6298  13.8599  13.8599
    13.9535  13.9535  13.9946  13.9946  14.0814  14.0814  14.1937  14.1937
    14.8018  14.8018  14.9890  14.9890  15.6653  15.6653  15.8806  15.8807
    16.4569  16.4569  16.4922  16.4922  16.7417  16.7427  16.7949  16.7949

          k = 0.0000-0.5000-0.4946 ( 27248 PWs)   bands (ev):

   -45.9838 -45.9838 -45.9838 -45.9838 -45.9828 -45.9828 -45.9828 -45.9828
   -22.4080 -22.4080 -22.4079 -22.4079 -22.4052 -22.4052 -22.4052 -22.4052
   -22.3758 -22.3758 -22.3758 -22.3758 -22.3500 -22.3500 -22.3500 -22.3500
   -22.3474 -22.3474 -22.3474 -22.3474 -22.3214 -22.3214 -22.3214 -22.3214
   -14.4346 -14.4346 -14.4345 -14.4345 -14.3454 -14.3454 -14.3453 -14.3453
    -6.5530  -6.5530  -6.5528  -6.5528  -6.3260  -6.3260  -6.3259  -6.3258
    -5.9292  -5.9292  -5.9291  -5.9291  -5.7907  -5.7907  -5.7906  -5.7905
    -5.7846  -5.7846  -5.7845  -5.7845  -5.6914  -5.6914  -5.6912  -5.6912
    -0.0279  -0.0279  -0.0278  -0.0278   0.1381   0.1381   0.1382   0.1383
     0.2689   0.2689   0.2689   0.2689   0.4306   0.4306   0.4306   0.4306
     0.4587   0.4587   0.4588   0.4588   0.5663   0.5663   0.5663   0.5663
     6.0894   6.0894   6.0895   6.0895   6.7146   6.7146   6.7147   6.7147
     6.8698   6.8699   6.8699   6.8699   7.0070   7.0070   7.0071   7.0071
     7.0811   7.0811   7.0811   7.0812   7.1580   7.1580   7.1581   7.1582
     7.5176   7.5176   7.5177   7.5177   7.6609   7.6609   7.6610   7.6610
     7.7215   7.7215   7.7216   7.7216   7.9479   7.9479   7.9479   7.9479
     8.0489   8.0489   8.0490   8.0490   8.7067   8.7067   8.7067   8.7067
     9.1554   9.1554   9.1554   9.1554   9.1978   9.1978   9.1979   9.1979
     9.2322   9.2322   9.2322   9.2323   9.5426   9.5426   9.5426   9.5426
     9.6538   9.6538   9.6538   9.6538   9.7181   9.7181   9.7182   9.7182
    13.0235  13.0235  13.0236  13.0236  13.2163  13.2163  13.2164  13.2164
    13.3847  13.3848  13.3848  13.3848  13.6095  13.6095  13.6096  13.6096
    14.0284  14.0284  14.0284  14.0284  14.0701  14.0701  14.0701  14.0701
    14.9328  14.9328  14.9328  14.9328  16.2034  16.2035  16.2036  16.2036
    16.3166  16.3167  16.3168  16.3168  16.7894  16.7895  16.7896  16.7897

          k = 0.1667 0.1667 0.0000 ( 27266 PWs)   bands (ev):

   -45.9847 -45.9838 -45.9838 -45.9838 -45.9829 -45.9828 -45.9828 -45.9819
   -22.4336 -22.4304 -22.4304 -22.4279 -22.3842 -22.3823 -22.3823 -22.3805
   -22.3751 -22.3751 -22.3721 -22.3719 -22.3719 -22.3719 -22.3696 -22.3695
   -22.3271 -22.3269 -22.3251 -22.3251 -22.3251 -22.3250 -22.3232 -22.3232
   -14.5259 -14.4208 -14.4208 -14.4167 -14.3495 -14.3474 -14.3474 -14.2858
    -6.7929  -6.7929  -6.7299  -6.6016  -6.3809  -6.2148  -6.2148  -5.9407
    -5.9288  -5.9288  -5.8846  -5.8846  -5.8564  -5.8136  -5.8008  -5.7992
    -5.7789  -5.7789  -5.7719  -5.7388  -5.7128  -5.6351  -5.6057  -5.6057
    -0.4187  -0.3432  -0.2972   0.1815   0.1815   0.2148   0.2601   0.2601
     0.2797   0.2834   0.2952   0.3609   0.3717   0.4194   0.4194   0.4546
     0.4546   0.4967   0.5727   0.5727   0.6322   0.6390   0.6390   0.6656
     5.8159   5.9663   5.9663   6.0075   6.1401   6.2402   6.2402   6.2910
     6.3208   6.3208   6.4425   6.4916   6.4916   6.5196   6.5317   7.3381
     7.4154   7.4154   7.4191   7.4191   7.4479   7.4718   7.4849   7.4849
     7.5233   7.5710   7.5710   7.5734   7.6146   7.7132   7.7583   7.7934
     7.8140   7.8140   7.8509   7.8620   7.9340   8.0270   8.0270   8.3905
     8.3905   8.5222   8.5333   8.5333   8.6583   8.6924   8.7488   8.8298
     8.8305   8.8305   9.0445   9.0699   9.0817   9.0817   9.2081   9.2602
     9.2957   9.2957   9.3564   9.3565   9.4305   9.4305   9.4316   9.4670
     9.8592   9.8869   9.9960   9.9960   9.9982  10.0565  10.1114  10.1144
    12.3029  12.4251  12.4534  12.4637  12.5357  12.5357  13.7141  13.7141
    13.7411  13.7539  13.7539  13.7793  13.7793  13.8037  13.8432  13.8663
    13.9010  13.9010  14.1439  14.1891  14.1891  14.3730  14.4106  14.4156
    14.5833  14.5833  14.5975  14.6749  14.6838  15.0011  15.3461  15.3970
    15.3970  15.4810  16.2037  16.2037  16.5306  16.8533  17.0194  17.1691

          k = 0.1667 0.1667 0.1649 ( 27270 PWs)   bands (ev):

   -45.9846 -45.9838 -45.9837 -45.9837 -45.9829 -45.9829 -45.9828 -45.9820
   -22.4303 -22.4272 -22.4272 -22.4248 -22.3876 -22.3856 -22.3856 -22.3837
   -22.3749 -22.3749 -22.3721 -22.3721 -22.3720 -22.3718 -22.3698 -22.3697
   -22.3270 -22.3268 -22.3252 -22.3251 -22.3249 -22.3249 -22.3233 -22.3233
   -14.5188 -14.4242 -14.4160 -14.4159 -14.3524 -14.3524 -14.3453 -14.2902
    -6.7603  -6.7603  -6.7104  -6.5946  -6.3475  -6.2661  -6.2661  -5.9457
    -5.9156  -5.9156  -5.8812  -5.8812  -5.8559  -5.8536  -5.8165  -5.7904
    -5.7664  -5.7664  -5.7663  -5.7647  -5.7015  -5.6469  -5.6189  -5.6189
    -0.3782  -0.3461  -0.2018   0.1699   0.1985   0.1985   0.2208   0.2667
     0.2668   0.2845   0.2858   0.3654   0.3770   0.3770   0.4064   0.4686
     0.4725   0.4725   0.5759   0.5784   0.5784   0.6259   0.6259   0.6607
     5.8714   6.0095   6.0292   6.0292   6.2443   6.3002   6.3002   6.3065
     6.3065   6.3871   6.5057   6.5201   6.5307   6.5396   6.5396   7.3583
     7.3739   7.3740   7.4225   7.4225   7.4691   7.4691   7.4792   7.4991
     7.5166   7.5516   7.6161   7.6161   7.6249   7.6474   7.6474   7.6977
     7.7522   7.7689   7.8051   7.8331   7.9629   7.9639   7.9639   8.3377
     8.4174   8.4175   8.5923   8.6155   8.7271   8.7702   8.7702   8.7954
     8.7954   8.8274   9.0674   9.0674   9.0800   9.1121   9.2030   9.2030
     9.2488   9.3073   9.3464   9.3464   9.3605   9.3605   9.3942   9.4558
     9.8070   9.8243   9.9228   9.9605   9.9605   9.9687  10.1151  10.1287
    12.3180  12.4439  12.5283  12.5556  12.6373  12.6373  13.7195  13.7195
    13.7508  13.7622  13.7622  13.7701  13.7701  13.7750  13.7840  13.8186
    13.8186  13.8385  14.1373  14.1373  14.1589  14.3470  14.3585  14.3723
    14.6755  14.6821  14.7297  14.7297  14.7835  15.2131  15.3905  15.3905
    15.4683  15.6078  16.2684  16.2684  16.4352  16.8720  17.1142  17.1588

          k = 0.1667 0.1667 0.3297 ( 27254 PWs)   bands (ev):

   -45.9845 -45.9840 -45.9835 -45.9835 -45.9831 -45.9831 -45.9826 -45.9821
   -22.4214 -22.4185 -22.4185 -22.4161 -22.3967 -22.3944 -22.3944 -22.3924
   -22.3743 -22.3743 -22.3727 -22.3727 -22.3715 -22.3713 -22.3703 -22.3701
   -22.3266 -22.3264 -22.3256 -22.3254 -22.3246 -22.3246 -22.3236 -22.3236
   -14.4991 -14.4445 -14.4027 -14.4027 -14.3660 -14.3660 -14.3337 -14.3019
    -6.6685  -6.6685  -6.6618  -6.5886  -6.3889  -6.3889  -6.2541  -5.9768
    -5.9442  -5.8904  -5.8904  -5.8745  -5.8745  -5.8458  -5.8344  -5.8244
    -5.7614  -5.7455  -5.7376  -5.7375  -5.7027  -5.6787  -5.6540  -5.6540
    -0.2714  -0.2665  -0.0167   0.0494   0.0638   0.2316   0.2316   0.2955
     0.3024   0.3054   0.3055   0.3171   0.3171   0.3484   0.4055   0.4211
     0.4525   0.4525   0.4898   0.5899   0.5899   0.6064   0.6064   0.6330
     5.9629   6.0122   6.1425   6.1425   6.2702   6.2702   6.4847   6.4847
     6.5218   6.5281   6.5318   6.6426   6.7245   6.7245   6.7454   7.1214
     7.1214   7.3143   7.3361   7.3580   7.3580   7.4302   7.4302   7.4361
     7.4668   7.4668   7.5119   7.5656   7.6178   7.6988   7.7303   7.7350
     7.7350   7.7462   7.7765   7.9062   7.9254   7.9563   7.9563   8.0459
     8.3848   8.4169   8.4848   8.4848   8.6579   8.6579   8.8237   8.8507
     8.9433   8.9433   9.0587   9.0612   9.0612   9.1556   9.1556   9.1756
     9.2465   9.2861   9.2861   9.3296   9.3296   9.3709   9.4203   9.5245
     9.6784   9.7227   9.7353   9.7831   9.8431   9.8431  10.1182  10.1311
    12.3471  12.4181  12.8086  12.8088  12.9016  12.9016  13.4989  13.5237
    13.5709  13.5709  13.7330  13.7330  13.7676  13.7676  13.7991  13.7991
    13.8986  13.9357  14.0135  14.0135  14.2001  14.2235  14.2303  14.3177
    14.6768  14.6795  15.0287  15.0287  15.2287  15.3568  15.3568  15.7402
    15.7998  15.9714  16.1586  16.4948  16.4948  16.7373  16.7649  17.1409

          k = 0.1667 0.1667-0.4946 ( 27244 PWs)   bands (ev):

   -45.9842 -45.9842 -45.9833 -45.9833 -45.9833 -45.9833 -45.9824 -45.9824
   -22.4091 -22.4091 -22.4065 -22.4065 -22.4064 -22.4064 -22.4043 -22.4043
   -22.3735 -22.3735 -22.3735 -22.3735 -22.3709 -22.3709 -22.3707 -22.3707
   -22.3261 -22.3261 -22.3259 -22.3259 -22.3241 -22.3241 -22.3241 -22.3241
   -14.4720 -14.4720 -14.3845 -14.3845 -14.3844 -14.3844 -14.3179 -14.3179
    -6.6112  -6.6111  -6.5355  -6.5355  -6.5354  -6.5354  -6.1208  -6.1206
    -5.9064  -5.9063  -5.8746  -5.8746  -5.8745  -5.8745  -5.8352  -5.8351
    -5.7213  -5.7212  -5.7208  -5.7206  -5.6984  -5.6984  -5.6983  -5.6983
    -0.1211  -0.1211  -0.1108  -0.1107   0.2067   0.2068   0.2670   0.2671
     0.2671   0.2671   0.3253   0.3254   0.3401   0.3401   0.3818   0.3819
     0.3819   0.3819   0.5727   0.5728   0.5985   0.5985   0.5986   0.5986
     6.0049   6.0050   6.2194   6.2194   6.2195   6.2195   6.5247   6.5247
     6.7700   6.7700   6.7701   6.7701   6.9310   6.9311   6.9622   6.9622
     7.0549   7.0549   7.0550   7.0550   7.2098   7.2100   7.4414   7.4414
     7.4415   7.4415   7.5646   7.5647   7.6793   7.6794   7.6851   7.6851
     7.7461   7.7462   7.8744   7.8744   7.8745   7.8745   8.1707   8.1708
     8.1842   8.1843   8.5576   8.5576   8.5576   8.5576   8.9530   8.9530
     8.9574   8.9575   8.9848   8.9849   8.9849   8.9849   9.1664   9.1664
     9.1664   9.1664   9.4685   9.4685   9.5530   9.5531   9.5627   9.5627
     9.6249   9.6249   9.6249   9.6249   9.6250   9.6251  10.1243  10.1245
    12.3828  12.3829  13.1544  13.1545  13.1734  13.1735  13.2426  13.2426
    13.2427  13.2427  13.7502  13.7502  13.7503  13.7503  13.8846  13.8847
    13.8847  13.8847  14.0567  14.0568  14.0759  14.0759  14.2577  14.2577
    14.6779  14.6779  15.2540  15.2540  15.2540  15.2540  15.7330  15.7331
    16.2578  16.2580  16.3452  16.3454  16.5176  16.5177  16.8993  16.8993

          k = 0.1667 0.3333 0.0000 ( 27257 PWs)   bands (ev):

   -45.9845 -45.9840 -45.9836 -45.9836 -45.9831 -45.9830 -45.9826 -45.9821
   -22.4329 -22.4311 -22.4299 -22.4285 -22.3838 -22.3828 -22.3819 -22.3809
   -22.3745 -22.3727 -22.3714 -22.3701 -22.3650 -22.3622 -22.3620 -22.3598
   -22.3373 -22.3350 -22.3350 -22.3330 -22.3266 -22.3255 -22.3246 -22.3236
   -14.5041 -14.4434 -14.4059 -14.4022 -14.3648 -14.3623 -14.3345 -14.2990
    -6.7347  -6.7082  -6.6338  -6.6180  -6.4695  -6.3418  -6.1161  -5.9223
    -5.9018  -5.8921  -5.8888  -5.8619  -5.8407  -5.8383  -5.8180  -5.8104
    -5.7978  -5.7773  -5.7706  -5.7481  -5.7466  -5.6877  -5.6625  -5.6465
    -0.3208  -0.2154  -0.1195   0.0342   0.1284   0.2020   0.2373   0.2918
     0.3028   0.3264   0.3394   0.3593   0.3674   0.3728   0.3793   0.4174
     0.4396   0.4875   0.5344   0.5705   0.5723   0.5743   0.5934   0.5943
     5.9038   5.9635   6.0491   6.1181   6.1283   6.2768   6.3787   6.4276
     6.4634   6.5168   6.6049   6.6099   6.7079   6.7583   6.7605   7.0404
     7.2453   7.3219   7.3796   7.4087   7.4188   7.4502   7.4575   7.4782
     7.4782   7.4837   7.5061   7.5890   7.6136   7.6310   7.6580   7.7353
     7.7626   7.7887   7.8125   7.8714   7.9766   8.0006   8.0164   8.1332
     8.4377   8.4952   8.5380   8.5552   8.5648   8.6192   8.7924   8.7931
     8.8264   8.9635   8.9706   8.9908   9.1275   9.1348   9.1537   9.2351
     9.2648   9.2783   9.2886   9.3046   9.4231   9.4411   9.4746   9.5181
     9.7293   9.7800   9.8357   9.8575   9.9051   9.9927  10.0041  10.0367
    12.4319  12.5095  12.6467  12.6913  12.7488  12.7623  13.4358  13.4592
    13.4699  13.5178  13.7440  13.7718  13.7764  13.8494  13.8790  13.8898
    13.8917  13.9761  14.0044  14.0621  14.2275  14.2363  14.2759  14.3655
    14.5978  14.6118  14.8246  14.9921  15.0133  15.1345  15.3553  15.7347
    15.8383  15.9311  15.9829  16.5167  16.7575  16.7783  16.8743  17.0456

          k = 0.1667 0.3333 0.1649 ( 27237 PWs)   bands (ev):

   -45.9844 -45.9839 -45.9836 -45.9835 -45.9831 -45.9830 -45.9827 -45.9822
   -22.4297 -22.4279 -22.4267 -22.4253 -22.3872 -22.3860 -22.3852 -22.3841
   -22.3743 -22.3725 -22.3716 -22.3702 -22.3648 -22.3622 -22.3620 -22.3600
   -22.3371 -22.3351 -22.3349 -22.3332 -22.3265 -22.3253 -22.3247 -22.3237
   -14.4975 -14.4381 -14.4092 -14.4012 -14.3678 -14.3604 -14.3394 -14.3035
    -6.7061  -6.6753  -6.6197  -6.6042  -6.4361  -6.3602  -6.1724  -5.9291
    -5.9260  -5.9006  -5.8909  -5.8840  -5.8574  -5.8388  -5.8122  -5.8017
    -5.7912  -5.7719  -5.7633  -5.7434  -5.7411  -5.6982  -5.6705  -5.6548
    -0.2877  -0.2307  -0.0227   0.0616   0.1106   0.1912   0.2080   0.2890
     0.2902   0.2996   0.3048   0.3062   0.3356   0.3565   0.4006   0.4197
     0.4487   0.4682   0.4897   0.5823   0.5860   0.6023   0.6144   0.6220
     5.9689   6.0281   6.1272   6.1287   6.2167   6.2650   6.4338   6.4665
     6.5078   6.5709   6.5878   6.6374   6.7123   6.7589   6.7936   7.0736
     7.1757   7.2938   7.3579   7.3815   7.4325   7.4395   7.4516   7.4950
     7.4976   7.5013   7.5155   7.5579   7.6436   7.6579   7.6651   7.7089
     7.7350   7.7685   7.7708   7.8715   7.8925   7.8960   8.0037   8.0575
     8.3569   8.3954   8.4602   8.5359   8.5437   8.7293   8.7617   8.8687
     8.8879   8.9991   9.0097   9.0455   9.0592   9.0920   9.1937   9.2468
     9.2572   9.2662   9.3088   9.3409   9.3481   9.4157   9.4495   9.4903
     9.6842   9.7251   9.7637   9.8410   9.8848   9.9617   9.9878  10.0087
    12.5248  12.6117  12.6710  12.7506  12.7536  12.8371  13.4438  13.4742
    13.5106  13.5229  13.7569  13.7580  13.7844  13.7900  13.8051  13.8077
    13.8697  13.9045  13.9963  14.0192  14.1845  14.2008  14.2239  14.3140
    14.7427  14.7545  14.9930  15.0053  15.1822  15.2238  15.3489  15.8380
    15.9311  15.9595  16.0445  16.5444  16.6599  16.8433  16.9239  17.1538

          k = 0.1667 0.3333 0.3297 ( 27259 PWs)   bands (ev):

   -45.9843 -45.9838 -45.9837 -45.9833 -45.9833 -45.9829 -45.9828 -45.9823
   -22.4207 -22.4191 -22.4180 -22.4166 -22.3962 -22.3949 -22.3940 -22.3928
   -22.3737 -22.3722 -22.3720 -22.3707 -22.3643 -22.3628 -22.3616 -22.3604
   -22.3367 -22.3355 -22.3345 -22.3335 -22.3261 -22.3251 -22.3250 -22.3240
   -14.4791 -14.4282 -14.4234 -14.3883 -14.3829 -14.3526 -14.3485 -14.3156
    -6.6276  -6.5880  -6.5829  -6.5763  -6.4219  -6.3426  -6.3000  -6.0592
    -5.9380  -5.9100  -5.8916  -5.8669  -5.8569  -5.8477  -5.8314  -5.8051
    -5.7789  -5.7530  -5.7508  -5.7345  -5.7256  -5.7220  -5.6925  -5.6769
    -0.2135  -0.1644   0.0626   0.0971   0.1374   0.1411   0.1567   0.2088
     0.2239   0.2704   0.2898   0.3006   0.3120   0.3379   0.3615   0.3792
     0.3908   0.5044   0.5102   0.5696   0.6169   0.6200   0.6388   0.6485
     6.0754   6.1259   6.1370   6.2362   6.2991   6.4832   6.5284   6.6088
     6.6143   6.6637   6.6804   6.7620   6.7699   6.7934   6.9290   7.0016
     7.1577   7.1767   7.1926   7.1978   7.3582   7.4311   7.4344   7.4690
     7.4768   7.5075   7.5339   7.5384   7.6499   7.6838   7.6853   7.7115
     7.7230   7.7348   7.7499   7.7501   7.7858   7.9714   8.0228   8.0234
     8.0702   8.1408   8.2971   8.3492   8.5363   8.6077   8.7198   8.8909
     9.0025   9.0538   9.0674   9.1468   9.1518   9.1586   9.2251   9.2329
     9.2427   9.3130   9.3291   9.3312   9.3866   9.4511   9.4583   9.4656
     9.5673   9.5915   9.6556   9.7584   9.7778   9.8262   9.9776   9.9786
    12.6484  12.7292  12.8470  12.8771  12.9367  13.0678  13.4629  13.4752
    13.5137  13.5339  13.5480  13.5848  13.6634  13.6669  13.7879  13.8315
    13.8352  13.8611  13.8963  14.0527  14.0599  14.0600  14.1610  14.1948
    14.9354  14.9922  15.0303  15.3192  15.4123  15.4626  15.7515  15.9014
    16.1196  16.2682  16.3118  16.3766  16.6574  16.8381  16.9545  17.1111

          k = 0.1667 0.3333-0.4946 ( 27264 PWs)   bands (ev):

   -45.9840 -45.9840 -45.9835 -45.9835 -45.9831 -45.9831 -45.9826 -45.9826
   -22.4085 -22.4085 -22.4070 -22.4070 -22.4060 -22.4060 -22.4048 -22.4048
   -22.3730 -22.3729 -22.3714 -22.3714 -22.3635 -22.3635 -22.3610 -22.3610
   -22.3361 -22.3361 -22.3340 -22.3340 -22.3256 -22.3256 -22.3245 -22.3245
   -14.4538 -14.4538 -14.4033 -14.4032 -14.3706 -14.3705 -14.3322 -14.3321
    -6.5663  -6.5662  -6.5216  -6.5214  -6.4487  -6.4486  -6.2079  -6.2078
    -5.9204  -5.9203  -5.9010  -5.9010  -5.8438  -5.8437  -5.8190  -5.8189
    -5.7553  -5.7552  -5.7423  -5.7422  -5.7184  -5.7182  -5.7040  -5.7038
    -0.0949  -0.0949  -0.0228  -0.0227   0.1305   0.1306   0.2491   0.2492
     0.2526   0.2526   0.2750   0.2750   0.3381   0.3381   0.3493   0.3493
     0.3558   0.3558   0.5869   0.5870   0.6294   0.6294   0.6393   0.6394
     6.1187   6.1188   6.1982   6.1983   6.4375   6.4376   6.7032   6.7033
     6.8005   6.8005   6.8346   6.8347   6.8852   6.8853   6.9262   6.9262
     7.0832   7.0833   7.2037   7.2038   7.2078   7.2079   7.3407   7.3408
     7.4177   7.4178   7.5712   7.5713   7.6171   7.6172   7.7091   7.7092
     7.7701   7.7701   7.7999   7.8000   7.9045   7.9046   7.9069   7.9069
     8.1114   8.1115   8.1725   8.1725   8.5228   8.5228   8.7463   8.7464
     9.0531   9.0531   9.1344   9.1344   9.1542   9.1543   9.2441   9.2441
     9.3706   9.3706   9.3870   9.3871   9.4430   9.4431   9.5434   9.5434
     9.5754   9.5754   9.5860   9.5860   9.6425   9.6425   9.9716   9.9718
    12.6940  12.6941  13.1844  13.1844  13.2164  13.2165  13.2270  13.2271
    13.3698  13.3699  13.4901  13.4902  13.6591  13.6591  13.8250  13.8251
    13.8542  13.8543  13.9267  13.9268  14.0273  14.0274  14.1179  14.1179
    14.9820  14.9820  15.2320  15.2321  15.7573  15.7574  15.9435  15.9437
    16.3732  16.3734  16.5183  16.5185  16.6727  16.6727  16.8459  16.8461

          k = 0.1667-0.5000 0.0000 ( 27226 PWs)   bands (ev):

   -45.9842 -45.9842 -45.9833 -45.9833 -45.9833 -45.9833 -45.9824 -45.9824
   -22.4320 -22.4320 -22.4292 -22.4292 -22.3833 -22.3833 -22.3814 -22.3814
   -22.3736 -22.3736 -22.3707 -22.3707 -22.3512 -22.3512 -22.3486 -22.3486
   -22.3485 -22.3485 -22.3464 -22.3464 -22.3260 -22.3260 -22.3241 -22.3241
   -14.4740 -14.4740 -14.3855 -14.3854 -14.3824 -14.3824 -14.3168 -14.3168
    -6.6662  -6.6662  -6.5900  -6.5900  -6.4947  -6.4946  -5.9770  -5.9770
    -5.9039  -5.9039  -5.8640  -5.8639  -5.8339  -5.8338  -5.8333  -5.8333
    -5.7811  -5.7811  -5.7780  -5.7779  -5.7053  -5.7053  -5.6997  -5.6997
    -0.1536  -0.1536  -0.0458  -0.0458   0.1208   0.1208   0.2428   0.2428
     0.2902   0.2902   0.3303   0.3303   0.3706   0.3706   0.4531   0.4531
     0.4682   0.4682   0.5236   0.5236   0.5437   0.5437   0.5596   0.5596
     5.9496   5.9496   6.0908   6.0908   6.2170   6.2170   6.4587   6.4587
     6.6657   6.6658   6.8467   6.8468   6.9532   6.9532   7.0108   7.0108
     7.0539   7.0539   7.1196   7.1197   7.1967   7.1967   7.4657   7.4657
     7.4766   7.4766   7.6364   7.6364   7.6863   7.6863   7.7180   7.7180
     7.7580   7.7580   7.7858   7.7858   7.8486   7.8486   8.2334   8.2334
     8.3266   8.3266   8.5088   8.5088   8.7346   8.7346   8.8010   8.8010
     8.8765   8.8765   8.9069   8.9069   8.9404   8.9404   9.1712   9.1712
     9.2073   9.2073   9.5064   9.5064   9.6045   9.6045   9.6182   9.6182
     9.6439   9.6439   9.6684   9.6684   9.7640   9.7640  10.0179  10.0179
    12.4737  12.4737  13.0447  13.0447  13.0704  13.0704  13.0968  13.0968
    13.1511  13.1511  13.7642  13.7642  13.8589  13.8589  13.8764  13.8764
    13.9376  13.9376  14.0507  14.0508  14.1135  14.1135  14.3008  14.3008
    14.6076  14.6076  14.9711  14.9711  15.2357  15.2357  15.6136  15.6136
    16.2647  16.2648  16.3825  16.3825  16.5176  16.5176  16.9901  16.9901

          k = 0.1667-0.5000 0.1649 ( 27244 PWs)   bands (ev):

   -45.9842 -45.9842 -45.9834 -45.9834 -45.9832 -45.9832 -45.9824 -45.9824
   -22.4288 -22.4288 -22.4260 -22.4260 -22.3866 -22.3866 -22.3846 -22.3846
   -22.3734 -22.3734 -22.3709 -22.3709 -22.3510 -22.3510 -22.3487 -22.3487
   -22.3485 -22.3485 -22.3466 -22.3466 -22.3259 -22.3259 -22.3242 -22.3242
   -14.4680 -14.4680 -14.3886 -14.3886 -14.3809 -14.3809 -14.3215 -14.3215
    -6.6441  -6.6441  -6.5569  -6.5569  -6.4918  -6.4918  -6.0449  -6.0449
    -5.9070  -5.9070  -5.8582  -5.8582  -5.8356  -5.8356  -5.8270  -5.8270
    -5.7858  -5.7857  -5.7751  -5.7751  -5.7059  -5.7059  -5.7020  -5.7020
    -0.1254  -0.1253  -0.0673  -0.0673   0.2017   0.2017   0.2385   0.2385
     0.2427   0.2427   0.3253   0.3253   0.3368   0.3368   0.3773   0.3773
     0.4155   0.4155   0.5661   0.5661   0.5894   0.5894   0.5967   0.5967
     6.0163   6.0163   6.1819   6.1819   6.2095   6.2095   6.4999   6.4999
     6.7134   6.7134   6.8432   6.8432   6.9353   6.9354   6.9730   6.9731
     7.0661   7.0661   7.1497   7.1497   7.2055   7.2056   7.4860   7.4860
     7.5073   7.5074   7.5696   7.5696   7.6754   7.6754   7.6967   7.6967
     7.7780   7.7780   7.7923   7.7923   7.8002   7.8002   8.1395   8.1396
     8.2397   8.2397   8.4251   8.4251   8.6771   8.6771   8.8086   8.8086
     8.9611   8.9611   8.9812   8.9812   8.9814   8.9814   9.1529   9.1529
     9.2352   9.2352   9.4817   9.4817   9.5430   9.5430   9.5880   9.5880
     9.6180   9.6180   9.6856   9.6856   9.7514   9.7514   9.9708   9.9708
    12.5758  12.5758  13.0589  13.0589  13.0984  13.0985  13.1433  13.1433
    13.1663  13.1664  13.7874  13.7874  13.7877  13.7878  13.8573  13.8573
    13.8726  13.8726  14.0235  14.0235  14.0534  14.0534  14.2489  14.2489
    14.7518  14.7518  15.1748  15.1748  15.2326  15.2326  15.6687  15.6688
    16.3418  16.3418  16.5018  16.5018  16.5338  16.5338  17.0299  17.0307

          k = 0.1667-0.5000 0.3297 ( 27258 PWs)   bands (ev):

   -45.9840 -45.9840 -45.9835 -45.9835 -45.9831 -45.9831 -45.9826 -45.9826
   -22.4199 -22.4199 -22.4173 -22.4173 -22.3956 -22.3956 -22.3934 -22.3934
   -22.3729 -22.3729 -22.3714 -22.3714 -22.3505 -22.3505 -22.3492 -22.3492
   -22.3481 -22.3481 -22.3470 -22.3470 -22.3255 -22.3255 -22.3246 -22.3246
   -14.4515 -14.4515 -14.4057 -14.4056 -14.3685 -14.3685 -14.3342 -14.3342
    -6.5882  -6.5882  -6.4953  -6.4953  -6.4637  -6.4637  -6.1784  -6.1783
    -5.9172  -5.9172  -5.9009  -5.9009  -5.8119  -5.8119  -5.8073  -5.8073
    -5.7909  -5.7909  -5.7781  -5.7781  -5.7093  -5.7093  -5.7075  -5.7075
    -0.0815  -0.0815  -0.0172  -0.0172   0.1143   0.1143   0.2424   0.2424
     0.2473   0.2474   0.2766   0.2766   0.3350   0.3350   0.3510   0.3510
     0.3684   0.3684   0.5817   0.5817   0.6255   0.6255   0.6416   0.6416
     6.1248   6.1248   6.1931   6.1931   6.4128   6.4128   6.6754   6.6754
     6.8359   6.8359   6.8552   6.8552   6.8605   6.8605   6.9216   6.9216
     7.0991   7.0991   7.2061   7.2061   7.2529   7.2529   7.3474   7.3474
     7.4275   7.4275   7.6079   7.6079   7.6087   7.6087   7.7228   7.7228
     7.7381   7.7381   7.8175   7.8175   7.8499   7.8499   7.8942   7.8942
     8.1413   8.1413   8.1467   8.1467   8.5847   8.5847   8.6623   8.6623
     9.0720   9.0720   9.1316   9.1316   9.1391   9.1391   9.2597   9.2597
     9.2777   9.2777   9.3922   9.3922   9.4062   9.4062   9.5751   9.5751
     9.6385   9.6385   9.6724   9.6724   9.7249   9.7249   9.8327   9.8327
    12.8362  12.8362  13.0924  13.0924  13.1199  13.1199  13.2063  13.2063
    13.3500  13.3500  13.5479  13.5479  13.6504  13.6504  13.8438  13.8438
    13.8558  13.8558  13.9120  13.9120  14.0032  14.0032  14.1235  14.1235
    15.0146  15.0146  15.2160  15.2160  15.6752  15.6752  15.8940  15.8941
    16.5035  16.5035  16.5586  16.5586  16.7410  16.7410  16.8472  16.8472

          k = 0.1667-0.5000-0.4946 ( 27272 PWs)   bands (ev):

   -45.9838 -45.9838 -45.9838 -45.9838 -45.9828 -45.9828 -45.9828 -45.9828
   -22.4078 -22.4078 -22.4078 -22.4078 -22.4054 -22.4054 -22.4054 -22.4054
   -22.3722 -22.3722 -22.3722 -22.3722 -22.3499 -22.3499 -22.3498 -22.3498
   -22.3475 -22.3475 -22.3475 -22.3475 -22.3251 -22.3251 -22.3251 -22.3251
   -14.4287 -14.4287 -14.4287 -14.4286 -14.3515 -14.3515 -14.3514 -14.3514
    -6.5281  -6.5281  -6.5280  -6.5280  -6.3286  -6.3286  -6.3285  -6.3285
    -5.9228  -5.9228  -5.9227  -5.9227  -5.8004  -5.8004  -5.8003  -5.8003
    -5.7867  -5.7867  -5.7866  -5.7866  -5.7117  -5.7117  -5.7115  -5.7115
    -0.0082  -0.0082  -0.0082  -0.0081   0.1083   0.1083   0.1083   0.1084
     0.2485   0.2486   0.2486   0.2486   0.3436   0.3436   0.3436   0.3436
     0.4930   0.4930   0.4930   0.4930   0.6541   0.6541   0.6541   0.6541
     6.1727   6.1727   6.1728   6.1728   6.6702   6.6702   6.6703   6.6703
     6.8221   6.8221   6.8221   6.8221   7.0787   7.0787   7.0787   7.0787
     7.0797   7.0798   7.0798   7.0798   7.2175   7.2175   7.2176   7.2176
     7.4426   7.4426   7.4427   7.4427   7.7201   7.7202   7.7202   7.7202
     7.7243   7.7243   7.7244   7.7244   7.9150   7.9150   7.9151   7.9151
     7.9918   7.9918   7.9918   7.9919   8.5566   8.5566   8.5566   8.5567
     9.1661   9.1661   9.1661   9.1662   9.2565   9.2565   9.2565   9.2565
     9.3028   9.3028   9.3029   9.3029   9.5416   9.5416   9.5416   9.5416
     9.6256   9.6256   9.6256   9.6256   9.7170   9.7170   9.7172   9.7172
    13.0695  13.0695  13.0695  13.0696  13.2358  13.2358  13.2359  13.2359
    13.4037  13.4037  13.4038  13.4038  13.5954  13.5954  13.5954  13.5954
    13.9437  13.9437  13.9438  13.9438  13.9889  13.9890  13.9890  13.9890
    15.1629  15.1629  15.1629  15.1629  16.2171  16.2171  16.2172  16.2172
    16.3133  16.3133  16.3134  16.3134  16.8771  16.8771  16.8772  16.8773

          k = 0.3333 0.3333 0.0000 ( 27246 PWs)   bands (ev):

   -45.9843 -45.9838 -45.9838 -45.9834 -45.9832 -45.9828 -45.9828 -45.9823
   -22.4323 -22.4305 -22.4305 -22.4290 -22.3834 -22.3824 -22.3824 -22.3813
   -22.3644 -22.3644 -22.3631 -22.3625 -22.3616 -22.3616 -22.3604 -22.3601
   -22.3371 -22.3364 -22.3355 -22.3355 -22.3347 -22.3344 -22.3334 -22.3334
   -14.4838 -14.4271 -14.4270 -14.3881 -14.3817 -14.3491 -14.3490 -14.3125
    -6.6671  -6.6671  -6.6107  -6.5373  -6.5095  -6.2442  -6.2442  -5.9550
    -5.8956  -5.8749  -5.8749  -5.8680  -5.8679  -5.8458  -5.8387  -5.8137
    -5.8028  -5.7777  -5.7682  -5.7431  -5.7431  -5.7224  -5.7224  -5.6747
    -0.2676  -0.1018   0.0411   0.0411   0.0622   0.1868   0.2165   0.2165
     0.2293   0.2674   0.3130   0.3130   0.3583   0.4456   0.4501   0.4501
     0.4534   0.4534   0.4726   0.5106   0.5571   0.5581   0.5816   0.5816
     5.9927   6.0497   6.0497   6.1074   6.2978   6.5252   6.5252   6.5448
     6.5448   6.6397   6.7816   6.7979   6.7979   6.7991   6.8058   6.8909
     7.1564   7.2217   7.3150   7.3150   7.3719   7.3791   7.4334   7.4334
     7.5505   7.5712   7.5712   7.6028   7.6125   7.6125   7.6713   7.6714
     7.7376   7.7410   7.7813   7.7971   7.8252   8.0866   8.0866   8.1422
     8.1423   8.1803   8.4200   8.4503   8.4503   8.4671   8.6139   8.7552
     8.9283   8.9283   9.0178   9.0579   9.1547   9.1836   9.2425   9.2592
     9.3194   9.3194   9.3620   9.3620   9.3747   9.3747   9.5596   9.5596
     9.6704   9.7282   9.7402   9.7792   9.8528   9.8528   9.9139   9.9244
    12.5903  12.7231  12.7231  12.7749  12.8601  13.0060  13.3863  13.4606
    13.4606  13.5080  13.5080  13.5592  13.6526  13.6526  13.8295  13.8701
    13.9085  13.9529  13.9529  14.0590  14.1082  14.1082  14.2215  14.2397
    14.7889  14.8391  14.8391  15.0199  15.4015  15.4455  15.8965  15.8965
    16.1289  16.1326  16.2833  16.2833  16.8840  16.9633  17.0028  17.0029

          k = 0.3333 0.3333 0.1649 ( 27255 PWs)   bands (ev):

   -45.9843 -45.9837 -45.9837 -45.9834 -45.9832 -45.9829 -45.9829 -45.9824
   -22.4290 -22.4273 -22.4273 -22.4259 -22.3868 -22.3856 -22.3856 -22.3845
   -22.3642 -22.3642 -22.3629 -22.3623 -22.3618 -22.3618 -22.3606 -22.3603
   -22.3370 -22.3363 -22.3354 -22.3354 -22.3349 -22.3345 -22.3336 -22.3336
   -14.4775 -14.4220 -14.4219 -14.3947 -14.3771 -14.3544 -14.3544 -14.3172
    -6.6375  -6.6375  -6.5922  -6.5281  -6.4772  -6.2663  -6.2663  -6.0068
    -5.9050  -5.8820  -5.8820  -5.8657  -5.8657  -5.8413  -5.8254  -5.8208
    -5.8048  -5.7824  -5.7694  -5.7421  -5.7421  -5.7292  -5.7292  -5.6845
    -0.2353  -0.1256   0.0614   0.0614   0.1515   0.1861   0.1861   0.1926
     0.1949   0.2624   0.2878   0.2878   0.3116   0.3229   0.3784   0.3784
     0.3967   0.5064   0.5064   0.5709   0.6074   0.6254   0.6370   0.6370
     6.0736   6.1292   6.1292   6.1997   6.2891   6.5221   6.5221   6.5482
     6.5482   6.6499   6.7987   6.8043   6.8080   6.8337   6.8337   6.9160
     7.1560   7.1783   7.2512   7.2512   7.3913   7.4449   7.4598   7.4598
     7.5010   7.5010   7.5638   7.5906   7.6847   7.6847   7.6854   7.6854
     7.6968   7.7359   7.7374   7.7897   7.8155   7.9529   7.9529   8.1347
     8.1347   8.1656   8.3104   8.3463   8.4603   8.4603   8.5652   8.7025
     9.0210   9.0234   9.0234   9.1395   9.2030   9.2112   9.2429   9.2429
     9.2915   9.2968   9.3133   9.3133   9.4400   9.4400   9.5306   9.5306
     9.6107   9.7063   9.7104   9.7324   9.8288   9.8288   9.9021   9.9143
    12.6764  12.8101  12.8101  12.8277  12.8789  12.9956  13.4429  13.4811
    13.4811  13.5224  13.5224  13.5925  13.6405  13.6405  13.7800  13.8230
    13.8453  13.8708  13.8708  14.0405  14.0438  14.0438  14.1591  14.1793
    14.9853  15.0216  15.0216  15.2295  15.4062  15.4425  15.8948  15.8948
    16.2112  16.2394  16.3053  16.3053  16.7821  16.9950  17.0741  17.0742

          k = 0.3333 0.3333 0.3297 ( 27256 PWs)   bands (ev):

   -45.9841 -45.9836 -45.9835 -45.9835 -45.9831 -45.9831 -45.9830 -45.9825
   -22.4202 -22.4186 -22.4186 -22.4172 -22.3957 -22.3945 -22.3945 -22.3933
   -22.3637 -22.3637 -22.3624 -22.3623 -22.3623 -22.3619 -22.3611 -22.3607
   -22.3365 -22.3359 -22.3353 -22.3350 -22.3350 -22.3349 -22.3340 -22.3340
   -14.4603 -14.4125 -14.4079 -14.4078 -14.3689 -14.3688 -14.3646 -14.3300
    -6.5561  -6.5561  -6.5493  -6.5116  -6.3871  -6.3367  -6.3367  -6.1212
    -5.9218  -5.8848  -5.8848  -5.8768  -5.8641  -5.8641  -5.8291  -5.7977
    -5.7950  -5.7803  -5.7735  -5.7443  -5.7442  -5.7427  -5.7427  -5.7109
    -0.1463  -0.1104   0.1019   0.1165   0.1165   0.1391   0.1546   0.1547
     0.2083   0.2219   0.2220   0.2486   0.2627   0.2838   0.2839   0.3094
     0.3190   0.5926   0.6000   0.6000   0.6553   0.6830   0.6830   0.6894
     6.2175   6.2760   6.2826   6.2826   6.4367   6.4633   6.4633   6.6731
     6.6731   6.7597   6.7981   6.8011   6.8844   6.9498   6.9498   6.9728
     7.0238   7.0872   7.0872   7.2132   7.4298   7.4299   7.4305   7.5017
     7.5122   7.5122   7.5329   7.5524   7.6338   7.6414   7.6414   7.7312
     7.7313   7.7321   7.7360   7.7360   7.8366   7.8366   7.8696   8.0015
     8.0805   8.1132   8.1132   8.1190   8.2937   8.2937   8.4768   8.5408
     9.1445   9.1911   9.1911   9.2052   9.2052   9.2479   9.2483   9.3248
     9.3248   9.3537   9.3790   9.4015   9.4712   9.4712   9.4884   9.4884
     9.5361   9.5906   9.6162   9.6468   9.7453   9.7454   9.8791   9.8914
    12.8473  12.9659  12.9853  12.9907  13.0379  13.0379  13.5322  13.5322
    13.5450  13.5783  13.5783  13.5873  13.5873  13.5911  13.5919  13.6719
    13.6719  13.6881  13.8846  13.8846  13.8887  13.9736  14.0075  14.0387
    15.4163  15.4307  15.4307  15.4358  15.4641  15.7574  15.8708  15.8708
    16.4048  16.4048  16.4434  16.4831  16.5547  16.9141  17.0632  17.0875

          k = 0.3333 0.3333-0.4946 ( 27302 PWs)   bands (ev):

   -45.9839 -45.9839 -45.9833 -45.9833 -45.9833 -45.9833 -45.9828 -45.9828
   -22.4080 -22.4080 -22.4065 -22.4065 -22.4065 -22.4065 -22.4053 -22.4052
   -22.3630 -22.3630 -22.3630 -22.3630 -22.3618 -22.3618 -22.3613 -22.3613
   -22.3359 -22.3359 -22.3354 -22.3354 -22.3345 -22.3345 -22.3345 -22.3345
   -14.4365 -14.4365 -14.3885 -14.3885 -14.3884 -14.3884 -14.3474 -14.3473
    -6.5144  -6.5143  -6.4447  -6.4447  -6.4446  -6.4446  -6.2588  -6.2587
    -5.9176  -5.9175  -5.8730  -5.8730  -5.8730  -5.8729  -5.8122  -5.8121
    -5.7823  -5.7822  -5.7483  -5.7483  -5.7482  -5.7482  -5.7461  -5.7460
    -0.0233  -0.0232  -0.0181  -0.0180   0.1631   0.1632   0.1632   0.1632
     0.1984   0.1984   0.1985   0.1985   0.2289   0.2289   0.2604   0.2604
     0.4841   0.4841   0.6690   0.6690   0.6691   0.6691   0.7010   0.7010
     6.2679   6.2680   6.3862   6.3862   6.3863   6.3863   6.7192   6.7193
     6.7986   6.7987   6.8894   6.8894   6.8895   6.8895   6.9332   6.9332
     7.1948   7.1948   7.1948   7.1948   7.2444   7.2444   7.3223   7.3224
     7.4918   7.4919   7.5592   7.5592   7.5592   7.5593   7.7293   7.7293
     7.7576   7.7577   7.8028   7.8028   7.8028   7.8028   7.8796   7.8797
     7.9658   7.9659   8.1343   8.1343   8.1343   8.1343   8.4396   8.4397
     9.1987   9.1988   9.1988   9.1988   9.2799   9.2800   9.3715   9.3715
     9.4491   9.4491   9.4492   9.4492   9.4845   9.4845   9.4969   9.4970
     9.5197   9.5197   9.5864   9.5864   9.5864   9.5864   9.8737   9.8739
    12.9204  12.9205  13.2503  13.2504  13.2777  13.2777  13.3351  13.3351
    13.3352  13.3352  13.5842  13.5842  13.5842  13.5842  13.7071  13.7072
    13.7072  13.7072  13.7914  13.7915  13.8343  13.8343  13.9507  13.9507
    15.4269  15.4269  15.7549  15.7549  15.7550  15.7550  16.0166  16.0167
    16.3904  16.3906  16.6846  16.6846  16.6847  16.6847  16.7865  16.7867

          k = 0.3333-0.5000 0.0000 ( 27206 PWs)   bands (ev):

   -45.9840 -45.9840 -45.9835 -45.9835 -45.9831 -45.9831 -45.9826 -45.9826
   -22.4314 -22.4314 -22.4298 -22.4298 -22.3829 -22.3829 -22.3818 -22.3818
   -22.3636 -22.3636 -22.3609 -22.3609 -22.3506 -22.3506 -22.3491 -22.3491
   -22.3481 -22.3481 -22.3469 -22.3469 -22.3361 -22.3361 -22.3340 -22.3340
   -14.4556 -14.4556 -14.4045 -14.4045 -14.3687 -14.3687 -14.3309 -14.3309
    -6.6265  -6.6265  -6.5817  -6.5817  -6.3976  -6.3976  -6.1049  -6.1048
    -5.8751  -5.8751  -5.8565  -5.8565  -5.8382  -5.8382  -5.8354  -5.8354
    -5.8062  -5.8062  -5.7593  -5.7593  -5.7556  -5.7556  -5.7066  -5.7066
    -0.1357  -0.1357   0.0546   0.0546   0.0919   0.0919   0.2561   0.2561
     0.2699   0.2699   0.2763   0.2763   0.3416   0.3416   0.4032   0.4032
     0.4889   0.4889   0.5254   0.5254   0.5410   0.5410   0.5620   0.5620
     6.0363   6.0363   6.0909   6.0909   6.4469   6.4469   6.6461   6.6461
     6.6885   6.6885   6.8977   6.8978   6.9196   6.9196   7.0213   7.0213
     7.1236   7.1237   7.1687   7.1687   7.1827   7.1827   7.3897   7.3897
     7.4396   7.4396   7.5826   7.5827   7.7084   7.7084   7.7174   7.7174
     7.7488   7.7488   7.8903   7.8903   7.8971   7.8971   7.9185   7.9185
     8.2326   8.2326   8.3387   8.3387   8.3868   8.3869   8.5107   8.5107
     9.0298   9.0298   9.0430   9.0430   9.2062   9.2063   9.2273   9.2273
     9.2829   9.2830   9.5019   9.5019   9.5199   9.5199   9.5852   9.5852
     9.5863   9.5863   9.6712   9.6713   9.7772   9.7772   9.8593   9.8593
    12.6813  12.6813  13.0665  13.0666  13.0854  13.0854  13.1708  13.1708
    13.3314  13.3314  13.4874  13.4874  13.6390  13.6390  13.8484  13.8484
    13.9164  13.9165  13.9801  13.9801  14.0751  14.0751  14.1705  14.1705
    14.8373  14.8373  14.9787  14.9787  15.7421  15.7421  15.9023  15.9024
    16.5096  16.5096  16.5499  16.5499  16.7197  16.7197  16.7375  16.7375

          k = 0.3333-0.5000 0.1649 ( 27230 PWs)   bands (ev):

   -45.9840 -45.9840 -45.9834 -45.9834 -45.9832 -45.9832 -45.9826 -45.9826
   -22.4282 -22.4282 -22.4266 -22.4266 -22.3862 -22.3862 -22.3851 -22.3851
   -22.3634 -22.3634 -22.3611 -22.3611 -22.3505 -22.3505 -22.3490 -22.3490
   -22.3483 -22.3483 -22.3470 -22.3470 -22.3360 -22.3360 -22.3341 -22.3341
   -14.4499 -14.4499 -14.3996 -14.3996 -14.3746 -14.3746 -14.3359 -14.3359
    -6.6021  -6.6021  -6.5508  -6.5507  -6.3989  -6.3989  -6.1357  -6.1357
    -5.8786  -5.8785  -5.8566  -5.8566  -5.8555  -5.8554  -5.8305  -5.8305
    -5.8077  -5.8077  -5.7625  -5.7625  -5.7590  -5.7590  -5.7126  -5.7126
    -0.1093  -0.1093   0.0238   0.0238   0.1047   0.1047   0.2261   0.2262
     0.2647   0.2647   0.2910   0.2910   0.3353   0.3353   0.3468   0.3468
     0.3548   0.3548   0.5853   0.5854   0.6259   0.6259   0.6316   0.6316
     6.1189   6.1189   6.1769   6.1769   6.4265   6.4265   6.6456   6.6456
     6.7137   6.7137   6.8521   6.8521   6.9316   6.9316   6.9980   6.9980
     7.1549   7.1550   7.1823   7.1823   7.2119   7.2120   7.4084   7.4084
     7.4328   7.4328   7.6016   7.6016   7.6158   7.6158   7.7187   7.7187
     7.7615   7.7615   7.8704   7.8704   7.8707   7.8707   7.9354   7.9354
     8.1172   8.1173   8.3008   8.3008   8.3164   8.3164   8.4766   8.4766
     9.1005   9.1005   9.1181   9.1182   9.1947   9.1947   9.2093   9.2093
     9.3476   9.3476   9.4543   9.4543   9.4800   9.4800   9.5894   9.5894
     9.6094   9.6095   9.6401   9.6401   9.7596   9.7596   9.8328   9.8328
    12.7667  12.7667  13.1202  13.1202  13.1345  13.1345  13.1871  13.1871
    13.3199  13.3199  13.5176  13.5176  13.6546  13.6546  13.8307  13.8307
    13.8321  13.8321  13.9023  13.9023  14.0019  14.0019  14.1076  14.1076
    15.0261  15.0261  15.1832  15.1832  15.7447  15.7447  15.9125  15.9126
    16.5168  16.5168  16.6348  16.6349  16.7371  16.7371  16.7850  16.7850

          k = 0.3333-0.5000 0.3297 ( 27246 PWs)   bands (ev):

   -45.9838 -45.9838 -45.9833 -45.9833 -45.9833 -45.9833 -45.9828 -45.9828
   -22.4194 -22.4194 -22.4179 -22.4179 -22.3951 -22.3951 -22.3939 -22.3939
   -22.3629 -22.3629 -22.3616 -22.3616 -22.3500 -22.3500 -22.3487 -22.3487
   -22.3486 -22.3486 -22.3475 -22.3475 -22.3356 -22.3356 -22.3345 -22.3345
   -14.4342 -14.4342 -14.3908 -14.3908 -14.3863 -14.3863 -14.3495 -14.3495
    -6.5386  -6.5386  -6.4651  -6.4651  -6.4148  -6.4147  -6.2237  -6.2237
    -5.8921  -5.8921  -5.8905  -5.8905  -5.8463  -5.8463  -5.8232  -5.8232
    -5.8034  -5.8034  -5.7710  -5.7710  -5.7653  -5.7653  -5.7297  -5.7297
    -0.0389  -0.0389   0.0129   0.0129   0.1392   0.1392   0.1428   0.1428
     0.2043   0.2043   0.2291   0.2291   0.2333   0.2333   0.2495   0.2495
     0.4866   0.4866   0.6639   0.6639   0.6710   0.6710   0.6982   0.6982
     6.2703   6.2704   6.3746   6.3746   6.3817   6.3817   6.7280   6.7280
     6.7316   6.7316   6.8363   6.8363   6.9505   6.9505   6.9707   6.9707
     7.1880   7.1880   7.2291   7.2291   7.2978   7.2978   7.3082   7.3082
     7.4824   7.4824   7.5584   7.5584   7.5727   7.5727   7.7287   7.7287
     7.7871   7.7871   7.8052   7.8052   7.8173   7.8173   7.9214   7.9214
     7.9471   7.9471   8.0562   8.0562   8.2164   8.2164   8.2982   8.2982
     9.2041   9.2041   9.2380   9.2380   9.2640   9.2640   9.3213   9.3213
     9.4190   9.4190   9.4258   9.4259   9.4290   9.4290   9.5745   9.5745
     9.5843   9.5843   9.6098   9.6098   9.7198   9.7198   9.7548   9.7548
    12.9882  12.9882  13.2072  13.2072  13.2594  13.2594  13.2859  13.2859
    13.3140  13.3140  13.6062  13.6063  13.6072  13.6073  13.6989  13.6989
    13.6995  13.6995  13.7699  13.7699  13.8296  13.8296  13.9511  13.9512
    15.4471  15.4471  15.6897  15.6897  15.7437  15.7437  15.9822  15.9823
    16.5006  16.5007  16.7401  16.7401  16.7429  16.7430  16.8553  17.0359

          k = 0.3333-0.5000-0.4946 ( 27236 PWs)   bands (ev):

   -45.9836 -45.9836 -45.9836 -45.9836 -45.9830 -45.9830 -45.9830 -45.9830
   -22.4073 -22.4073 -22.4073 -22.4073 -22.4059 -22.4059 -22.4059 -22.4059
   -22.3623 -22.3623 -22.3623 -22.3623 -22.3494 -22.3494 -22.3494 -22.3494
   -22.3480 -22.3480 -22.3480 -22.3480 -22.3351 -22.3351 -22.3351 -22.3351
   -14.4126 -14.4126 -14.4126 -14.4125 -14.3681 -14.3681 -14.3680 -14.3680
    -6.4645  -6.4645  -6.4644  -6.4644  -6.3455  -6.3455  -6.3454  -6.3454
    -5.9041  -5.9041  -5.9040  -5.9040  -5.8305  -5.8305  -5.8305  -5.8304
    -5.7886  -5.7885  -5.7884  -5.7884  -5.7523  -5.7523  -5.7521  -5.7521
     0.0435   0.0435   0.0435   0.0435   0.0837   0.0837   0.0837   0.0837
     0.1862   0.1862   0.1863   0.1863   0.2115   0.2115   0.2116   0.2116
     0.6079   0.6079   0.6079   0.6080   0.7156   0.7156   0.7157   0.7157
     6.3391   6.3391   6.3392   6.3392   6.5646   6.5646   6.5647   6.5647
     6.8871   6.8871   6.8871   6.8871   7.0852   7.0852   7.0852   7.0852
     7.1061   7.1061   7.1062   7.1062   7.3388   7.3388   7.3389   7.3389
     7.4237   7.4237   7.4237   7.4237   7.7335   7.7335   7.7335   7.7335
     7.7400   7.7401   7.7401   7.7401   7.8437   7.8437   7.8437   7.8437
     7.8883   7.8883   7.8884   7.8884   8.1695   8.1695   8.1696   8.1696
     9.2900   9.2900   9.2900   9.2900   9.3269   9.3269   9.3269   9.3270
     9.4613   9.4613   9.4614   9.4614   9.5158   9.5158   9.5158   9.5158
     9.5528   9.5528   9.5528   9.5528   9.6962   9.6962   9.6964   9.6964
    13.2168  13.2168  13.2169  13.2169  13.3334  13.3334  13.3335  13.3335
    13.4531  13.4531  13.4532  13.4532  13.5529  13.5529  13.5530  13.5530
    13.7296  13.7296  13.7296  13.7296  13.7826  13.7826  13.7826  13.7826
    15.7010  15.7010  15.7010  15.7010  16.2477  16.2478  16.2479  16.2479
    16.3018  16.3018  16.3019  16.3019  16.7856  16.7856  16.7856  16.7856

          k =-0.5000-0.5000 0.0000 ( 27260 PWs)   bands (ev):

   -45.9838 -45.9838 -45.9838 -45.9838 -45.9828 -45.9828 -45.9828 -45.9828
   -22.4306 -22.4306 -22.4306 -22.4306 -22.3824 -22.3824 -22.3824 -22.3824
   -22.3503 -22.3503 -22.3503 -22.3503 -22.3495 -22.3495 -22.3495 -22.3495
   -22.3477 -22.3477 -22.3477 -22.3477 -22.3473 -22.3473 -22.3473 -22.3473
   -14.4302 -14.4302 -14.4302 -14.4302 -14.3499 -14.3499 -14.3499 -14.3499
    -6.5915  -6.5915  -6.5915  -6.5915  -6.2577  -6.2577  -6.2577  -6.2577
    -5.8465  -5.8465  -5.8465  -5.8465  -5.8303  -5.8303  -5.8303  -5.8303
    -5.8228  -5.8227  -5.8227  -5.8227  -5.7272  -5.7272  -5.7272  -5.7272
    -0.0488  -0.0488  -0.0488  -0.0488   0.1951   0.1951   0.1952   0.1952
     0.2489   0.2489   0.2489   0.2489   0.4203   0.4203   0.4203   0.4203
     0.4484   0.4484   0.4484   0.4484   0.5666   0.5666   0.5667   0.5667
     6.0787   6.0787   6.0787   6.0787   6.7061   6.7061   6.7061   6.7061
     6.7198   6.7198   6.7198   6.7199   7.1363   7.1364   7.1364   7.1364
     7.1416   7.1416   7.1416   7.1416   7.2071   7.2072   7.2072   7.2072
     7.5067   7.5067   7.5067   7.5067   7.6755   7.6755   7.6755   7.6755
     7.7425   7.7425   7.7425   7.7425   8.0507   8.0507   8.0507   8.0507
     8.0617   8.0617   8.0617   8.0617   8.3557   8.3557   8.3557   8.3557
     9.1001   9.1001   9.1001   9.1001   9.3320   9.3320   9.3320   9.3320
     9.3608   9.3608   9.3608   9.3608   9.5362   9.5362   9.5362   9.5362
     9.6244   9.6244   9.6244   9.6245   9.7530   9.7530   9.7530   9.7530
    12.9613  12.9613  12.9613  12.9613  13.1891  13.1891  13.1891  13.1892
    13.3774  13.3774  13.3774  13.3774  13.5852  13.5852  13.5852  13.5852
    14.0077  14.0077  14.0077  14.0077  14.0441  14.0441  14.0441  14.0441
    14.9504  14.9504  14.9504  14.9504  16.2530  16.2531  16.2531  16.2531
    16.3401  16.3401  16.3401  16.3402  16.9007  16.9008  16.9008  16.9008

          k =-0.5000-0.5000 0.1649 ( 27232 PWs)   bands (ev):

   -45.9837 -45.9837 -45.9837 -45.9837 -45.9829 -45.9829 -45.9829 -45.9829
   -22.4274 -22.4274 -22.4274 -22.4274 -22.3856 -22.3856 -22.3856 -22.3856
   -22.3502 -22.3502 -22.3502 -22.3502 -22.3493 -22.3493 -22.3493 -22.3493
   -22.3479 -22.3479 -22.3479 -22.3479 -22.3474 -22.3474 -22.3474 -22.3474
   -14.4250 -14.4249 -14.4249 -14.4249 -14.3554 -14.3554 -14.3553 -14.3553
    -6.5638  -6.5638  -6.5638  -6.5638  -6.2684  -6.2684  -6.2684  -6.2684
    -5.8580  -5.8580  -5.8580  -5.8580  -5.8310  -5.8310  -5.8310  -5.8309
    -5.8236  -5.8236  -5.8236  -5.8236  -5.7344  -5.7343  -5.7343  -5.7343
    -0.0287  -0.0287  -0.0287  -0.0287   0.1529   0.1529   0.1529   0.1529
     0.2291   0.2291   0.2291   0.2291   0.3423   0.3423   0.3423   0.3423
     0.4915   0.4915   0.4916   0.4916   0.6492   0.6492   0.6492   0.6492
     6.1636   6.1636   6.1636   6.1637   6.6639   6.6639   6.6639   6.6639
     6.7169   6.7169   6.7169   6.7169   7.1389   7.1389   7.1389   7.1389
     7.2011   7.2012   7.2012   7.2012   7.2204   7.2204   7.2204   7.2204
     7.4251   7.4251   7.4251   7.4251   7.7290   7.7290   7.7290   7.7290
     7.7479   7.7480   7.7480   7.7480   8.0073   8.0073   8.0073   8.0073
     8.0077   8.0077   8.0078   8.0078   8.2833   8.2833   8.2833   8.2833
     9.1777   9.1777   9.1777   9.1777   9.2960   9.2960   9.2960   9.2960
     9.3771   9.3771   9.3771   9.3771   9.5351   9.5351   9.5351   9.5351
     9.6276   9.6276   9.6276   9.6276   9.7288   9.7288   9.7288   9.7288
    13.0337  13.0338  13.0338  13.0338  13.2244  13.2244  13.2244  13.2244
    13.3940  13.3940  13.3940  13.3940  13.5707  13.5707  13.5707  13.5707
    13.9297  13.9297  13.9297  13.9297  13.9702  13.9702  13.9702  13.9702
    15.1551  15.1551  15.1551  15.1551  16.2625  16.2625  16.2625  16.2625
    16.3366  16.3366  16.3366  16.3366  16.9806  16.9806  16.9807  16.9807

          k =-0.5000-0.5000 0.3297 ( 27280 PWs)   bands (ev):

   -45.9836 -45.9836 -45.9836 -45.9836 -45.9831 -45.9831 -45.9831 -45.9831
   -22.4186 -22.4186 -22.4186 -22.4186 -22.3945 -22.3945 -22.3945 -22.3945
   -22.3497 -22.3497 -22.3497 -22.3497 -22.3489 -22.3489 -22.3489 -22.3489
   -22.3484 -22.3484 -22.3484 -22.3484 -22.3478 -22.3478 -22.3478 -22.3478
   -14.4104 -14.4104 -14.4104 -14.4104 -14.3703 -14.3703 -14.3702 -14.3702
    -6.4891  -6.4891  -6.4891  -6.4891  -6.3110  -6.3110  -6.3110  -6.3110
    -5.8750  -5.8750  -5.8750  -5.8750  -5.8515  -5.8515  -5.8515  -5.8515
    -5.8052  -5.8052  -5.8052  -5.8052  -5.7537  -5.7537  -5.7537  -5.7537
     0.0260   0.0260   0.0260   0.0260   0.1122   0.1122   0.1122   0.1122
     0.1748   0.1748   0.1749   0.1749   0.2123   0.2123   0.2123   0.2123
     0.6104   0.6104   0.6104   0.6104   0.7117   0.7117   0.7117   0.7118
     6.3363   6.3363   6.3363   6.3363   6.5630   6.5630   6.5630   6.5630
     6.8097   6.8097   6.8097   6.8097   7.1479   7.1479   7.1479   7.1479
     7.1849   7.1850   7.1850   7.1850   7.3000   7.3000   7.3000   7.3000
     7.4079   7.4079   7.4079   7.4080   7.7590   7.7591   7.7591   7.7591
     7.7693   7.7693   7.7693   7.7693   7.9037   7.9037   7.9037   7.9037
     7.9052   7.9052   7.9052   7.9052   8.0171   8.0171   8.0171   8.0171
     9.3199   9.3199   9.3199   9.3199   9.3312   9.3312   9.3312   9.3312
     9.4176   9.4176   9.4176   9.4176   9.5090   9.5090   9.5090   9.5090
     9.6248   9.6248   9.6248   9.6248   9.6697   9.6698   9.6698   9.6698
    13.2229  13.2230  13.2230  13.2230  13.3327  13.3327  13.3327  13.3327
    13.4415  13.4415  13.4415  13.4415  13.5277  13.5277  13.5277  13.5278
    13.7361  13.7361  13.7361  13.7361  13.7750  13.7750  13.7750  13.7750
    15.6654  15.6654  15.6654  15.6654  16.2843  16.2843  16.2843  16.2843
    16.3257  16.3258  16.3258  16.3258  16.7883  16.7883  16.7883  16.7883

          k =-0.5000-0.5000-0.4946 ( 27256 PWs)   bands (ev):

   -45.9833 -45.9833 -45.9833 -45.9833 -45.9833 -45.9833 -45.9833 -45.9833
   -22.4066 -22.4066 -22.4066 -22.4066 -22.4066 -22.4066 -22.4066 -22.4066
   -22.3490 -22.3490 -22.3490 -22.3490 -22.3490 -22.3490 -22.3490 -22.3490
   -22.3484 -22.3484 -22.3484 -22.3484 -22.3484 -22.3484 -22.3484 -22.3484
   -14.3905 -14.3905 -14.3904 -14.3904 -14.3904 -14.3904 -14.3904 -14.3904
    -6.3928  -6.3928  -6.3928  -6.3927  -6.3926  -6.3926  -6.3926  -6.3926
    -5.8720  -5.8720  -5.8720  -5.8720  -5.8719  -5.8719  -5.8719  -5.8719
    -5.7798  -5.7798  -5.7798  -5.7798  -5.7797  -5.7796  -5.7796  -5.7796
     0.1005   0.1005   0.1006   0.1006   0.1006   0.1006   0.1006   0.1006
     0.1296   0.1296   0.1297   0.1297   0.1297   0.1297   0.1297   0.1297
     0.6963   0.6963   0.6963   0.6964   0.6964   0.6964   0.6964   0.6964
     6.4568   6.4568   6.4568   6.4568   6.4568   6.4569   6.4569   6.4569
     7.0756   7.0756   7.0756   7.0756   7.0757   7.0757   7.0757   7.0758
     7.1645   7.1645   7.1645   7.1645   7.1646   7.1646   7.1646   7.1646
     7.6697   7.6697   7.6697   7.6698   7.6698   7.6698   7.6698   7.6698
     7.8082   7.8082   7.8083   7.8083   7.8083   7.8083   7.8083   7.8083
     7.8184   7.8184   7.8184   7.8184   7.8185   7.8185   7.8185   7.8185
     9.4273   9.4273   9.4273   9.4273   9.4273   9.4273   9.4273   9.4273
     9.4311   9.4311   9.4311   9.4311   9.4312   9.4312   9.4312   9.4312
     9.6213   9.6213   9.6213   9.6213   9.6214   9.6214   9.6214   9.6214
    13.4389  13.4390  13.4390  13.4390  13.4390  13.4390  13.4390  13.4390
    13.5130  13.5130  13.5130  13.5130  13.5131  13.5131  13.5131  13.5131
    13.5438  13.5439  13.5439  13.5439  13.5439  13.5439  13.5439  13.5439
    16.2714  16.2715  16.2715  16.2715  16.2716  16.2716  16.2716  16.2716
    16.3076  16.3076  16.3076  16.3076  16.3076  16.3076  16.3076  16.3076

     highest occupied, lowest unoccupied level (ev):    10.2662   12.0430

!    total energy              =   -5887.13484271 Ry
     total all-electron energy =   -147371.588415 Ry
     estimated scf accuracy    <          3.3E-11 Ry

     The total energy is the sum of the following terms:
     one-electron contribution =    -548.14852181 Ry
     hartree contribution      =     480.62857180 Ry
     xc contribution           =    -485.46305241 Ry
     ewald contribution        =   -1653.96634398 Ry
     one-center paw contrib.   =   -3680.18549631 Ry

     convergence has been achieved in  57 iterations

     Forces acting on atoms (cartesian axes, Ry/au):

     atom    1 type  1   force =     0.00000000    0.00000000   -0.00146042
     atom    2 type  1   force =     0.00000000    0.00000000   -0.00143108
     atom    3 type  1   force =     0.00000000    0.00000000   -0.00144982
     atom    4 type  1   force =     0.00000000    0.00000000   -0.00143678
     atom    5 type  1   force =     0.00000000    0.00000000   -0.00144982
     atom    6 type  1   force =     0.00000000    0.00000000   -0.00143678
     atom    7 type  1   force =     0.00000000    0.00000000   -0.00146431
     atom    8 type  1   force =     0.00000000    0.00000000   -0.00142893
     atom    9 type  2   force =    -0.00000070   -0.00000070   -0.00152762
     atom   10 type  2   force =    -0.00000123   -0.00000123   -0.00151962
     atom   11 type  2   force =    -0.00000070    0.00000070   -0.00152762
     atom   12 type  2   force =    -0.00000123    0.00000123   -0.00151962
     atom   13 type  2   force =     0.00000070   -0.00000070   -0.00152762
     atom   14 type  2   force =     0.00000123   -0.00000123   -0.00151962
     atom   15 type  2   force =     0.00000070    0.00000070   -0.00152762
     atom   16 type  2   force =     0.00000123    0.00000123   -0.00151962
     atom   17 type  3   force =    -0.00000139   -0.00000139    0.00277212
     atom   18 type  3   force =    -0.00000228   -0.00000228    0.00278011
     atom   19 type  3   force =    -0.00000139    0.00000139    0.00277212
     atom   20 type  3   force =    -0.00000228    0.00000228    0.00278011
     atom   21 type  3   force =     0.00000139   -0.00000139    0.00277212
     atom   22 type  3   force =     0.00000228   -0.00000228    0.00278011
     atom   23 type  3   force =     0.00000139    0.00000139    0.00277212
     atom   24 type  3   force =     0.00000228    0.00000228    0.00278011
     atom   25 type  3   force =    -0.00000194    0.00000000    0.00009068
     atom   26 type  3   force =    -0.00000526    0.00000000    0.00009480
     atom   27 type  3   force =     0.00000093    0.00000000    0.00009513
     atom   28 type  3   force =     0.00000284    0.00000000    0.00010389
     atom   29 type  3   force =     0.00000194    0.00000000    0.00009068
     atom   30 type  3   force =     0.00000526    0.00000000    0.00009480
     atom   31 type  3   force =    -0.00000093   -0.00000000    0.00009513
     atom   32 type  3   force =    -0.00000284    0.00000000    0.00010389
     atom   33 type  3   force =     0.00000000   -0.00000194    0.00009068
     atom   34 type  3   force =     0.00000000   -0.00000526    0.00009480
     atom   35 type  3   force =     0.00000000    0.00000194    0.00009068
     atom   36 type  3   force =     0.00000000    0.00000526    0.00009480
     atom   37 type  3   force =     0.00000000    0.00000093    0.00009513
     atom   38 type  3   force =     0.00000000    0.00000284    0.00010389
     atom   39 type  3   force =     0.00000000   -0.00000093    0.00009513
     atom   40 type  3   force =     0.00000000   -0.00000284    0.00010389

     Total force =     0.009853     Total SCF correction =     0.000003


     Computing stress (Cartesian axis) and pressure

          total   stress  (Ry/bohr**3)                   (kbar)     P=      -23.10
  -0.00018753   0.00000000   0.00000000          -27.59        0.00        0.00
   0.00000000  -0.00018753   0.00000000            0.00      -27.59        0.00
   0.00000000   0.00000000  -0.00009596            0.00        0.00      -14.12


     Writing all to output data dir ./tmp/60_ecut_6_kmesh_PBE.save/ :
     XML data file, charge density, pseudopotentials, collected wavefunctions

     init_run     :      2.21s CPU      2.40s WALL (       1 calls)
     electrons    :    189.20s CPU    194.33s WALL (       1 calls)
     forces       :      0.61s CPU      0.63s WALL (       1 calls)
     stress       :      1.55s CPU      1.60s WALL (       1 calls)

     Called by init_run:
     wfcinit      :      1.06s CPU      1.14s WALL (       1 calls)
     potinit      :      0.21s CPU      0.22s WALL (       1 calls)
     hinit0       :      0.67s CPU      0.75s WALL (       1 calls)

     Called by electrons:
     c_bands      :    166.59s CPU    170.72s WALL (      57 calls)
     sum_band     :     17.16s CPU     17.70s WALL (      57 calls)
     v_of_rho     :      1.34s CPU      1.55s WALL (      58 calls)
     newd         :      0.99s CPU      1.03s WALL (      58 calls)
     PAW_pot      :      2.55s CPU      2.60s WALL (      58 calls)
     mix_rho      :      0.24s CPU      0.25s WALL (      57 calls)

     Called by c_bands:
     init_us_2    :      3.29s CPU      3.32s WALL (     585 calls)
     cegterg      :    147.07s CPU    150.97s WALL (     290 calls)

     Called by *egterg:
     cdiaghg      :     27.14s CPU     28.54s WALL (    1581 calls)
     h_psi        :     72.66s CPU     74.09s WALL (    1591 calls)
     s_psi        :     10.34s CPU     10.45s WALL (    1591 calls)
     g_psi        :      0.13s CPU      0.13s WALL (    1296 calls)

     Called by h_psi:
     h_psi:calbec :     13.66s CPU     14.31s WALL (    1591 calls)
     vloc_psi     :     48.06s CPU     48.62s WALL (    1591 calls)
                                        0.00s GPU  (    1591 calls)
     add_vuspsi   :     10.38s CPU     10.54s WALL (    1591 calls)

     General routines
     calbec       :     19.69s CPU     20.66s WALL (    1961 calls)
     fft          :      1.16s CPU      1.49s WALL (     777 calls)
     ffts         :      0.18s CPU      0.19s WALL (     115 calls)
     fftw         :     53.82s CPU     54.43s WALL (  364326 calls)
     interpolate  :      0.23s CPU      0.27s WALL (      58 calls)

     Parallel routines

     PWSCF        :    195.02s CPU    202.80s WALL


   This run was terminated on:   4: 4:27  21May2026            

=------------------------------------------------------------------------------=
   JOB DONE.
=------------------------------------------------------------------------------=
