
     Program PWSCF v.7.5 starts on 21May2026 at  3:33: 7 

     This program is part of the open-source Quantum ESPRESSO suite
     for quantum simulation of materials; please cite
         "P. Giannozzi et al., J. Phys.:Condens. Matter 21 395502 (2009);
         "P. Giannozzi et al., J. Phys.:Condens. Matter 29 465901 (2017);
         "P. Giannozzi et al., J. Chem. Phys. 152 154105 (2020);
          URL http://www.quantum-espresso.org", 
     in publications or presentations arising from this work. More details at
     http://www.quantum-espresso.org/quote

     Parallel version (MPI & OpenMP), running on     192 processor cores
     Number of MPI processes:               192
     Threads/MPI process:                     1

     MPI processes distributed on     1 nodes
     749459 MiB available memory on the printing compute node when the environment starts

     Waiting for input...
     Reading input from standard input

     Current dimensions of program PWSCF are:
     Max number of different atomic species (ntypx) = 10
     Max number of k-points (npk) =  40000
     Max angular momentum in pseudopotentials (lmaxx) =  4
     file Ba.pbe-spn-kjpaw_psl.1.0.0.UPF: wavefunction(s)  5S 6S renormalized
     file Ti.pbe-spn-kjpaw_psl.1.0.0.UPF: wavefunction(s)  3S 3P 3D renormalized
     file O.pbe-n-kjpaw_psl.1.0.0.UPF: wavefunction(s)  2S 2P renormalized

     IMPORTANT: XC functional enforced from input :
     Exchange-correlation= PBESOL
                           (   1   4  10   8   0   0   0)
     Any further DFT definition will be discarded
     Please, verify this is what you really want

     Found identity + ( -0.5000 -0.5000  0.0000) symmetry
     This is a supercell, fractional translations are disabled

     K-points division:     npool     =       8
     R & G space division:  proc/nbgrp/npool/nimage =      24
     Subspace diagonalization in iterative solution of the eigenvalue problem:
     one sub-group per band group will be used
     ELPA distributed-memory algorithm (size of sub-group:  2*  2 procs)


     Parallelization info
     --------------------
     sticks:   dense  smooth     PW     G-vecs:    dense   smooth      PW
     Min         240     120     33                13981     4944     727
     Max         242     122     34                13987     4947     732
     Sum        5785    2893    805               335575   118681   17493

     Using Slab Decomposition



     bravais-lattice index     =            6
     lattice parameter (alat)  =      15.0876  a.u.
     unit-cell volume          =    3472.3239 (a.u.)^3
     number of atoms/cell      =           40
     number of atomic types    =            3
     number of electrons       =       320.00
     number of Kohn-Sham states=          200
     kinetic-energy cutoff     =      40.0000  Ry
     charge density cutoff     =     320.0000  Ry
     scf convergence threshold =      1.0E-10
     mixing beta               =       0.3000
     number of iterations used =           16  plain     mixing
     Exchange-correlation= PBESOL
                           (   1   4  10   8   0   0   0)

     celldm(1)=  15.087600  celldm(2)=   0.000000  celldm(3)=   1.011020
     celldm(4)=   0.000000  celldm(5)=   0.000000  celldm(6)=   0.000000

     crystal axes: (cart. coord. in units of alat)
               a(1) = (   1.000000   0.000000   0.000000 )  
               a(2) = (   0.000000   1.000000   0.000000 )  
               a(3) = (   0.000000   0.000000   1.011020 )  

     reciprocal axes: (cart. coord. in units 2 pi/alat)
               b(1) = (  1.000000  0.000000  0.000000 )  
               b(2) = (  0.000000  1.000000  0.000000 )  
               b(3) = (  0.000000  0.000000  0.989100 )  


     PseudoPot. # 1 for Ba read from file:
     /home/kylay/scratch/BTO/pseuds/Ba.pbe-spn-kjpaw_psl.1.0.0.UPF
     MD5 check sum: 7cfe25f1fe7574a4710541d5a11d6531
     Pseudo is Projector augmented-wave + core cor, Zval = 10.0
     Generated using &quot;atomic&quot; code by A. Dal Corso  v.6.2.2
     Shape of augmentation charge: PSQ
     Using radial grid of 1251 points,  7 beta functions with: 
                l(1) =   0
                l(2) =   0
                l(3) =   0
                l(4) =   1
                l(5) =   1
                l(6) =   2
                l(7) =   2
     Q(r) pseudized with 0 coefficients 


     PseudoPot. # 2 for Ti read from file:
     /home/kylay/scratch/BTO/pseuds/Ti.pbe-spn-kjpaw_psl.1.0.0.UPF
     MD5 check sum: 01f69b0d8ba4438b2e03ac6ea4af1c0b
     Pseudo is Projector augmented-wave + core cor, Zval = 12.0
     Generated using &quot;atomic&quot; code by A. Dal Corso  v.6.2.2
     Shape of augmentation charge: PSQ
     Using radial grid of 1177 points,  6 beta functions with: 
                l(1) =   0
                l(2) =   0
                l(3) =   1
                l(4) =   1
                l(5) =   2
                l(6) =   2
     Q(r) pseudized with 0 coefficients 


     PseudoPot. # 3 for O  read from file:
     /home/kylay/scratch/BTO/pseuds/O.pbe-n-kjpaw_psl.1.0.0.UPF
     MD5 check sum: e99d9cef9b487d1ca56f5b95ecd0fd7a
     Pseudo is Projector augmented-wave + core cor, Zval =  6.0
     Generated using &quot;atomic&quot; code by A. Dal Corso  v.6.3
     Shape of augmentation charge: PSQ
     Using radial grid of 1095 points,  4 beta functions with: 
                l(1) =   0
                l(2) =   0
                l(3) =   1
                l(4) =   1
     Q(r) pseudized with 0 coefficients 


     atomic species   valence    mass     pseudopotential
     Ba               10.00   137.32700     Ba( 1.00)
     Ti               12.00    47.86700     Ti( 1.00)
     O                 6.00    15.99900     O ( 1.00)

      8 Sym. Ops. (no inversion) found



   Cartesian axes

     site n.     atom                  positions (alat units)
         1        Ba     tau(   1) = (   0.0000000   0.0000000  -0.0010787  )
         2        Ba     tau(   2) = (   0.0000000   0.0000000   0.5044220  )
         3        Ba     tau(   3) = (   0.0000000   0.5000000  -0.0010832  )
         4        Ba     tau(   4) = (   0.0000000   0.5000000   0.5044235  )
         5        Ba     tau(   5) = (   0.5000000   0.0000000  -0.0010832  )
         6        Ba     tau(   6) = (   0.5000000   0.0000000   0.5044235  )
         7        Ba     tau(   7) = (   0.5000000   0.5000000  -0.0010766  )
         8        Ba     tau(   8) = (   0.5000000   0.5000000   0.5044202  )
         9        Ti     tau(   9) = (   0.2500002   0.2500002   0.2436990  )
        10        Ti     tau(  10) = (   0.2500007   0.2500007   0.7492042  )
        11        Ti     tau(  11) = (   0.2500002   0.7499998   0.2436990  )
        12        Ti     tau(  12) = (   0.2500007   0.7499993   0.7492042  )
        13        Ti     tau(  13) = (   0.7499998   0.2500002   0.2436990  )
        14        Ti     tau(  14) = (   0.7499993   0.2500007   0.7492042  )
        15        Ti     tau(  15) = (   0.7499998   0.7499998   0.2436990  )
        16        Ti     tau(  16) = (   0.7499993   0.7499993   0.7492042  )
        17        O      tau(  17) = (   0.2500011   0.2500011   0.0113903  )
        18        O      tau(  18) = (   0.2500007   0.2500007   0.5168954  )
        19        O      tau(  19) = (   0.2500011   0.7499989   0.0113903  )
        20        O      tau(  20) = (   0.2500007   0.7499993   0.5168954  )
        21        O      tau(  21) = (   0.7499989   0.2500011   0.0113903  )
        22        O      tau(  22) = (   0.7499993   0.2500007   0.5168954  )
        23        O      tau(  23) = (   0.7499989   0.7499989   0.0113903  )
        24        O      tau(  24) = (   0.7499993   0.7499993   0.5168954  )
        25        O      tau(  25) = (   0.2500005   0.0000000   0.2592128  )
        26        O      tau(  26) = (   0.2500020   0.0000000   0.7647195  )
        27        O      tau(  27) = (   0.2499999   0.5000000   0.2592107  )
        28        O      tau(  28) = (   0.2499998   0.5000000   0.7647148  )
        29        O      tau(  29) = (   0.7499995   0.0000000   0.2592128  )
        30        O      tau(  30) = (   0.7499980   0.0000000   0.7647195  )
        31        O      tau(  31) = (   0.7500001   0.5000000   0.2592107  )
        32        O      tau(  32) = (   0.7500002   0.5000000   0.7647148  )
        33        O      tau(  33) = (   0.0000000   0.2500005   0.2592128  )
        34        O      tau(  34) = (   0.0000000   0.2500020   0.7647195  )
        35        O      tau(  35) = (   0.0000000   0.7499995   0.2592128  )
        36        O      tau(  36) = (   0.0000000   0.7499980   0.7647195  )
        37        O      tau(  37) = (   0.5000000   0.2499999   0.2592107  )
        38        O      tau(  38) = (   0.5000000   0.2499998   0.7647148  )
        39        O      tau(  39) = (   0.5000000   0.7500001   0.2592107  )
        40        O      tau(  40) = (   0.5000000   0.7500002   0.7647148  )

     number of k points=    18
                       cart. coord. in units 2pi/alat
        k(    1) = (   0.0000000   0.0000000   0.0000000), wk =   0.0312500
        k(    2) = (   0.0000000   0.0000000   0.2472750), wk =   0.0625000
        k(    3) = (   0.0000000   0.0000000  -0.4945501), wk =   0.0312500
        k(    4) = (   0.0000000   0.2500000   0.0000000), wk =   0.1250000
        k(    5) = (   0.0000000   0.2500000   0.2472750), wk =   0.2500000
        k(    6) = (   0.0000000   0.2500000  -0.4945501), wk =   0.1250000
        k(    7) = (   0.0000000  -0.5000000   0.0000000), wk =   0.0625000
        k(    8) = (   0.0000000  -0.5000000   0.2472750), wk =   0.1250000
        k(    9) = (   0.0000000  -0.5000000  -0.4945501), wk =   0.0625000
        k(   10) = (   0.2500000   0.2500000   0.0000000), wk =   0.1250000
        k(   11) = (   0.2500000   0.2500000   0.2472750), wk =   0.2500000
        k(   12) = (   0.2500000   0.2500000  -0.4945501), wk =   0.1250000
        k(   13) = (   0.2500000  -0.5000000   0.0000000), wk =   0.1250000
        k(   14) = (   0.2500000  -0.5000000   0.2472750), wk =   0.2500000
        k(   15) = (   0.2500000  -0.5000000  -0.4945501), wk =   0.1250000
        k(   16) = (  -0.5000000  -0.5000000   0.0000000), wk =   0.0312500
        k(   17) = (  -0.5000000  -0.5000000   0.2472750), wk =   0.0625000
        k(   18) = (  -0.5000000  -0.5000000  -0.4945501), wk =   0.0312500

     Dense  grid:   335575 G-vectors     FFT dimensions: (  90,  90,  90)

     Smooth grid:   118681 G-vectors     FFT dimensions: (  64,  64,  64)

     Estimated max dynamical RAM per process >      44.76 MB

     Estimated total dynamical RAM >       7.27 GB

     Check: negative core charge=   -0.000007
     Cannot read rho : file not found

     Initial potential from superposition of free atoms

     starting charge     319.8521, renormalised to     320.0000
     Message from routine qexsd_readschema :
     xml data file ./tmp/40_ecut_4_kmesh_PBE.save/data-file-schema.xml not found
     Cannot read wfcs: file not found
     Starting wfcs are  216 randomized atomic wfcs
     Checking if some PAW data can be deallocated... 

     total cpu time spent up to now is        3.0 secs

     per-process dynamical memory:   119.2 Mb

     Self-consistent Calculation

     iteration #  1     ecut=    40.00 Ry     beta= 0.30
     Davidson diagonalization with overlap
     ethr =  1.00E-05,  avg # of iterations = 37.9

     total cpu time spent up to now is        8.9 secs

     total energy              =   -5884.23502597 Ry
     estimated scf accuracy    <      13.66243791 Ry

     iteration #  2     ecut=    40.00 Ry     beta= 0.30
     Davidson diagonalization with overlap
     ethr =  4.27E-03,  avg # of iterations =  2.0

     total cpu time spent up to now is        9.8 secs

     total energy              =   -5886.12263559 Ry
     estimated scf accuracy    <       0.51035868 Ry

     iteration #  3     ecut=    40.00 Ry     beta= 0.30
     Davidson diagonalization with overlap
     ethr =  1.59E-04,  avg # of iterations = 13.2

     total cpu time spent up to now is       12.2 secs

     total energy              =   -5886.88901080 Ry
     estimated scf accuracy    <       0.80631758 Ry

     iteration #  4     ecut=    40.00 Ry     beta= 0.30
     Davidson diagonalization with overlap
     ethr =  1.59E-04,  avg # of iterations =  2.0

     total cpu time spent up to now is       13.0 secs

     total energy              =   -5886.96436869 Ry
     estimated scf accuracy    <       0.12954105 Ry

     iteration #  5     ecut=    40.00 Ry     beta= 0.30
     Davidson diagonalization with overlap
     c_bands:  2 eigenvalues not converged
     ethr =  4.05E-05,  avg # of iterations = 11.8

     total cpu time spent up to now is       14.9 secs

     total energy              =   -5886.88355315 Ry
     estimated scf accuracy    <       0.67122882 Ry

     iteration #  6     ecut=    40.00 Ry     beta= 0.30
     Davidson diagonalization with overlap
     ethr =  4.05E-05,  avg # of iterations =  5.7

     total cpu time spent up to now is       16.4 secs

     total energy              =   -5886.97486441 Ry
     estimated scf accuracy    <       0.09887327 Ry

     iteration #  7     ecut=    40.00 Ry     beta= 0.30
     Davidson diagonalization with overlap
     ethr =  3.09E-05,  avg # of iterations =  4.4

     total cpu time spent up to now is       17.6 secs

     total energy              =   -5886.99151101 Ry
     estimated scf accuracy    <       0.02309939 Ry

     iteration #  8     ecut=    40.00 Ry     beta= 0.30
     Davidson diagonalization with overlap
     c_bands:  1 eigenvalues not converged
     ethr =  7.22E-06,  avg # of iterations =  8.7

     total cpu time spent up to now is       19.9 secs

     total energy              =   -5886.99783916 Ry
     estimated scf accuracy    <       0.01267682 Ry

     iteration #  9     ecut=    40.00 Ry     beta= 0.30
     Davidson diagonalization with overlap
     ethr =  3.96E-06,  avg # of iterations =  1.7

     total cpu time spent up to now is       20.8 secs

     total energy              =   -5886.99731274 Ry
     estimated scf accuracy    <       0.00280100 Ry

     iteration # 10     ecut=    40.00 Ry     beta= 0.30
     Davidson diagonalization with overlap
     ethr =  8.75E-07,  avg # of iterations =  6.8

     total cpu time spent up to now is       22.5 secs

     total energy              =   -5886.99858319 Ry
     estimated scf accuracy    <       0.00084637 Ry

     iteration # 11     ecut=    40.00 Ry     beta= 0.30
     Davidson diagonalization with overlap
     ethr =  2.64E-07,  avg # of iterations =  3.3

     total cpu time spent up to now is       23.5 secs

     total energy              =   -5886.99880423 Ry
     estimated scf accuracy    <       0.00026710 Ry

     iteration # 12     ecut=    40.00 Ry     beta= 0.30
     Davidson diagonalization with overlap
     ethr =  8.35E-08,  avg # of iterations =  5.4

     total cpu time spent up to now is       25.1 secs

     total energy              =   -5886.99870325 Ry
     estimated scf accuracy    <       0.00079393 Ry

     iteration # 13     ecut=    40.00 Ry     beta= 0.30
     Davidson diagonalization with overlap
     ethr =  8.35E-08,  avg # of iterations =  3.7

     total cpu time spent up to now is       26.1 secs

     total energy              =   -5886.99876886 Ry
     estimated scf accuracy    <       0.00003965 Ry

     iteration # 14     ecut=    40.00 Ry     beta= 0.30
     Davidson diagonalization with overlap
     ethr =  1.24E-08,  avg # of iterations =  6.6

     total cpu time spent up to now is       27.6 secs

     total energy              =   -5886.99881140 Ry
     estimated scf accuracy    <       0.00005406 Ry

     iteration # 15     ecut=    40.00 Ry     beta= 0.30
     Davidson diagonalization with overlap
     ethr =  1.24E-08,  avg # of iterations =  1.3

     total cpu time spent up to now is       28.5 secs

     total energy              =   -5886.99880767 Ry
     estimated scf accuracy    <       0.00003702 Ry

     iteration # 16     ecut=    40.00 Ry     beta= 0.30
     Davidson diagonalization with overlap
     ethr =  1.16E-08,  avg # of iterations =  1.0

     total cpu time spent up to now is       29.3 secs

     total energy              =   -5886.99880435 Ry
     estimated scf accuracy    <       0.00001698 Ry

     iteration # 17     ecut=    40.00 Ry     beta= 0.30
     Davidson diagonalization with overlap
     ethr =  5.31E-09,  avg # of iterations =  1.8

     total cpu time spent up to now is       30.1 secs

     total energy              =   -5886.99880501 Ry
     estimated scf accuracy    <       0.00000226 Ry

     iteration # 18     ecut=    40.00 Ry     beta= 0.30
     Davidson diagonalization with overlap
     ethr =  7.06E-10,  avg # of iterations =  5.7

     total cpu time spent up to now is       31.5 secs

     total energy              =   -5886.99880595 Ry
     estimated scf accuracy    <       0.00000002 Ry

     iteration # 19     ecut=    40.00 Ry     beta= 0.30
     Davidson diagonalization with overlap
     ethr =  6.80E-12,  avg # of iterations =  8.4

     total cpu time spent up to now is       33.6 secs

     total energy              =   -5886.99880602 Ry
     estimated scf accuracy    <       0.00000036 Ry

     iteration # 20     ecut=    40.00 Ry     beta= 0.30
     Davidson diagonalization with overlap
     ethr =  6.80E-12,  avg # of iterations =  2.7

     total cpu time spent up to now is       34.6 secs

     total energy              =   -5886.99880596 Ry
     estimated scf accuracy    <       0.00000022 Ry

     iteration # 21     ecut=    40.00 Ry     beta= 0.30
     Davidson diagonalization with overlap
     ethr =  6.80E-12,  avg # of iterations =  5.0

     total cpu time spent up to now is       36.1 secs

     total energy              =   -5886.99880600 Ry
     estimated scf accuracy    <       0.00000001 Ry

     iteration # 22     ecut=    40.00 Ry     beta= 0.30
     Davidson diagonalization with overlap
     ethr =  3.59E-12,  avg # of iterations =  2.0

     total cpu time spent up to now is       37.0 secs

     total energy              =   -5886.99880600 Ry
     estimated scf accuracy    <          1.3E-09 Ry

     iteration # 23     ecut=    40.00 Ry     beta= 0.30
     Davidson diagonalization with overlap
     ethr =  4.00E-13,  avg # of iterations =  6.0

     total cpu time spent up to now is       38.2 secs

     total energy              =   -5886.99880600 Ry
     estimated scf accuracy    <          3.3E-09 Ry

     iteration # 24     ecut=    40.00 Ry     beta= 0.30
     Davidson diagonalization with overlap
     ethr =  4.00E-13,  avg # of iterations =  1.9

     total cpu time spent up to now is       39.1 secs

     total energy              =   -5886.99880600 Ry
     estimated scf accuracy    <          2.4E-09 Ry

     iteration # 25     ecut=    40.00 Ry     beta= 0.30
     Davidson diagonalization with overlap
     ethr =  4.00E-13,  avg # of iterations =  4.8

     total cpu time spent up to now is       40.3 secs

     total energy              =   -5886.99880600 Ry
     estimated scf accuracy    <          1.9E-10 Ry

     iteration # 26     ecut=    40.00 Ry     beta= 0.30
     Davidson diagonalization with overlap
     ethr =  1.00E-13,  avg # of iterations =  5.2

     total cpu time spent up to now is       41.9 secs

     total energy              =   -5886.99880600 Ry
     estimated scf accuracy    <          3.1E-09 Ry

     iteration # 27     ecut=    40.00 Ry     beta= 0.30
     Davidson diagonalization with overlap
     ethr =  1.00E-13,  avg # of iterations =  2.0

     total cpu time spent up to now is       42.8 secs

     total energy              =   -5886.99880600 Ry
     estimated scf accuracy    <          2.0E-09 Ry

     iteration # 28     ecut=    40.00 Ry     beta= 0.30
     Davidson diagonalization with overlap
     ethr =  1.00E-13,  avg # of iterations =  5.0

     total cpu time spent up to now is       44.2 secs

     End of self-consistent calculation

          k = 0.0000 0.0000 0.0000 ( 14883 PWs)   bands (ev):

   -46.0192 -46.0183 -46.0181 -46.0181 -46.0171 -46.0171 -46.0169 -46.0160
   -22.4624 -22.4587 -22.4587 -22.4559 -22.4128 -22.4106 -22.4106 -22.4085
   -22.4067 -22.4067 -22.4034 -22.4034 -22.4031 -22.4031 -22.4006 -22.4006
   -22.3513 -22.3513 -22.3494 -22.3494 -22.3492 -22.3492 -22.3475 -22.3475
   -14.5358 -14.4209 -14.4113 -14.4113 -14.3402 -14.3402 -14.3320 -14.2698
    -6.8518  -6.8518  -6.8020  -6.6006  -6.3114  -6.2031  -6.2031  -5.9593
    -5.9593  -5.9568  -5.8953  -5.8953  -5.8646  -5.8310  -5.8039  -5.8039
    -5.8007  -5.8007  -5.7808  -5.7139  -5.6255  -5.6255  -5.5629  -5.5629
    -0.4669  -0.4669  -0.4043   0.2147   0.2147   0.2310   0.2310   0.2787
     0.2876   0.2876   0.2895   0.2895   0.4483   0.4483   0.4525   0.4525
     0.4708   0.4708   0.6675   0.6726   0.6726   0.6945   0.6945   0.7386
     5.7130   5.8889   5.9137   5.9137   6.0855   6.0855   6.1369   6.1624
     6.2377   6.2377   6.4002   6.4007   6.4007   6.4247   6.4423   7.3387
     7.3387   7.3934   7.3934   7.4407   7.4407   7.4412   7.4412   7.4505
     7.4505   7.5484   7.5484   7.7732   7.7732   7.7995   7.8906   7.9146
     7.9146   7.9224   7.9224   8.2250   8.2250   8.2706   8.2782   8.2865
     8.2865   8.3865   8.3865   8.4571   8.5261   8.5262   8.5495   8.5495
     8.8954   8.8954   9.0716   9.1960   9.1960   9.2363   9.2363   9.3291
     9.3291   9.3383   9.3383   9.3562   9.3562   9.5700   9.5700   9.8636
     9.9267   9.9267  10.0402  10.0402  10.1091  10.1091  10.2020  10.2707
    12.0620  12.2187  12.3838  12.3838  12.5076  12.5076  13.8263  13.8263
    13.8584  13.8584  13.8857  13.8858  13.8921  13.8921  13.9074  13.9074
    13.9152  13.9152  14.2548  14.2548  14.2869  14.3762  14.3819  14.4578
    14.4578  14.5041  14.5041  14.5094  14.5315  14.9884  15.0725  15.1996
    15.1996  15.2194  16.2017  16.2017  16.4063  16.6835  16.8793  16.8794

          k = 0.0000 0.0000 0.2473 ( 14835 PWs)   bands (ev):

   -46.0191 -46.0184 -46.0179 -46.0179 -46.0172 -46.0172 -46.0167 -46.0161
   -22.4552 -22.4516 -22.4516 -22.4490 -22.4201 -22.4177 -22.4177 -22.4155
   -22.4062 -22.4062 -22.4038 -22.4038 -22.4027 -22.4027 -22.4010 -22.4010
   -22.3511 -22.3511 -22.3497 -22.3497 -22.3489 -22.3489 -22.3477 -22.3477
   -14.5194 -14.4381 -14.4011 -14.4010 -14.3508 -14.3507 -14.3230 -14.2790
    -6.7769  -6.7769  -6.7532  -6.6009  -6.3417  -6.3417  -6.2383  -5.9570
    -5.9094  -5.9094  -5.8875  -5.8875  -5.8636  -5.8598  -5.8359  -5.7765
    -5.7765  -5.7755  -5.7682  -5.7682  -5.6528  -5.6528  -5.5978  -5.5978
    -0.3720  -0.3720  -0.2725   0.1089   0.1089   0.2929   0.2929   0.3061
     0.3061   0.3118   0.3118   0.3470   0.4222   0.4222   0.4240   0.4240
     0.4774   0.4988   0.4988   0.6206   0.6206   0.6415   0.6415   0.6719
     5.8010   5.8909   6.0244   6.0244   6.2088   6.2088   6.2479   6.2479
     6.3996   6.4134   6.4307   6.4402   6.5407   6.5407   6.5868   7.3506
     7.3506   7.3691   7.3691   7.3832   7.3832   7.3883   7.3883   7.5314
     7.5314   7.5332   7.5332   7.5804   7.6225   7.6658   7.6658   7.7551
     7.7551   7.8756   7.8756   8.0486   8.2551   8.2551   8.2781   8.2781
     8.3712   8.4402   8.4402   8.4540   8.6021   8.6021   8.7350   8.7350
     8.9342   9.0659   9.0659   9.0713   9.0713   9.1382   9.1382   9.2017
     9.2017   9.2245   9.2245   9.3191   9.3191   9.5367   9.6154   9.6154
     9.8693   9.8693   9.9353   9.9353   9.9492   9.9492  10.2135  10.2603
    12.0832  12.1934  12.6333  12.6333  12.7335  12.7335  13.6892  13.6892
    13.7175  13.7175  13.8336  13.8336  13.8589  13.8589  13.8979  13.8979
    13.9931  13.9931  14.1568  14.1568  14.3193  14.3777  14.3784  14.4024
    14.4024  14.4741  14.7224  14.7224  14.9057  15.1822  15.1822  15.3663
    15.4453  15.5117  16.2012  16.3913  16.3913  16.6722  16.8010  17.2096

          k = 0.0000 0.0000-0.4946 ( 14774 PWs)   bands (ev):

   -46.0187 -46.0187 -46.0176 -46.0176 -46.0176 -46.0176 -46.0164 -46.0164
   -22.4377 -22.4377 -22.4347 -22.4347 -22.4347 -22.4347 -22.4323 -22.4322
   -22.4050 -22.4050 -22.4050 -22.4050 -22.4018 -22.4018 -22.4018 -22.4018
   -22.3504 -22.3504 -22.3504 -22.3504 -22.3483 -22.3483 -22.3483 -22.3483
   -14.4792 -14.4791 -14.3761 -14.3761 -14.3761 -14.3760 -14.3012 -14.3011
    -6.6531  -6.6529  -6.5808  -6.5808  -6.5806  -6.5806  -6.0558  -6.0557
    -5.8970  -5.8969  -5.8802  -5.8802  -5.8801  -5.8801  -5.8479  -5.8478
    -5.7163  -5.7163  -5.7161  -5.7161  -5.6827  -5.6827  -5.6826  -5.6826
    -0.1370  -0.1370  -0.1369  -0.1369   0.0746   0.0747   0.3583   0.3583
     0.3584   0.3584   0.3669   0.3669   0.3669   0.3669   0.4507   0.4507
     0.4508   0.4508   0.5102   0.5103   0.5686   0.5686   0.5686   0.5686
     5.8796   5.8797   6.1447   6.1447   6.1448   6.1448   6.4361   6.4362
     6.7056   6.7056   6.7058   6.7058   6.9945   6.9946   7.0063   7.0063
     7.0065   7.0065   7.0245   7.0246   7.2239   7.2241   7.3724   7.3724
     7.3725   7.3725   7.6770   7.6770   7.6770   7.6770   7.7277   7.7277
     7.7278   7.7278   7.9538   7.9538   7.9539   7.9539   8.4542   8.4542
     8.4543   8.4543   8.6325   8.6326   8.8086   8.8086   8.8086   8.8087
     8.8246   8.8246   8.8247   8.8247   8.9309   8.9310   9.0462   9.0462
     9.0463   9.0463   9.5820   9.5820   9.5820   9.5820   9.6341   9.6341
     9.6341   9.6341   9.7372   9.7372   9.7373   9.7373  10.2371  10.2373
    12.1380  12.1380  13.1846  13.1846  13.1847  13.1847  13.2399  13.2399
    13.2400  13.2400  13.8469  13.8469  13.8470  13.8470  13.9853  13.9853
    13.9853  13.9853  14.1883  14.1883  14.1883  14.1883  14.3798  14.3798
    14.3969  14.3970  15.0636  15.0636  15.0636  15.0636  15.6234  15.6235
    16.0708  16.0710  16.2845  16.2847  16.2957  16.2959  16.9975  16.9975

          k = 0.0000 0.2500 0.0000 ( 14854 PWs)   bands (ev):

   -46.0190 -46.0182 -46.0181 -46.0179 -46.0173 -46.0171 -46.0169 -46.0161
   -22.4619 -22.4592 -22.4582 -22.4563 -22.4125 -22.4110 -22.4103 -22.4089
   -22.4062 -22.4036 -22.4029 -22.4010 -22.3987 -22.3955 -22.3952 -22.3928
   -22.3596 -22.3574 -22.3571 -22.3552 -22.3510 -22.3495 -22.3491 -22.3477
   -14.5180 -14.4300 -14.4093 -14.3999 -14.3522 -14.3439 -14.3300 -14.2802
    -6.7996  -6.7807  -6.7269  -6.6131  -6.4023  -6.3118  -6.1242  -5.9450
    -5.9342  -5.9247  -5.9012  -5.8768  -5.8546  -5.8178  -5.8096  -5.8065
    -5.7886  -5.7792  -5.7652  -5.7493  -5.7149  -5.6532  -5.6328  -5.5970
    -0.3701  -0.3444  -0.2910   0.1224   0.1777   0.2436   0.2562   0.2781
     0.3028   0.3148   0.3472   0.3502   0.4092   0.4178   0.4257   0.4429
     0.4717   0.4792   0.4896   0.6175   0.6354   0.6363   0.6378   0.6663
     5.8076   5.9133   6.0025   6.0102   6.1382   6.2043   6.2102   6.3042
     6.3697   6.4046   6.4101   6.4723   6.5652   6.6024   6.6136   7.2794
     7.3638   7.4201   7.4406   7.4438   7.4503   7.4512   7.4819   7.4967
     7.5275   7.5504   7.5526   7.5583   7.5655   7.6173   7.6600   7.7533
     7.7909   7.8550   7.8787   7.9967   8.0314   8.0898   8.1297   8.4128
     8.4173   8.4327   8.5179   8.5363   8.6355   8.6487   8.6704   8.7590
     8.8195   8.9788   9.0257   9.0931   9.1465   9.1586   9.1747   9.2743
     9.2770   9.3267   9.3622   9.3790   9.4104   9.4158   9.4503   9.5386
     9.7693   9.8720   9.9469   9.9545  10.0521  10.0841  10.1011  10.1147
    12.3547  12.4320  12.4860  12.5032  12.5426  12.6490  13.6079  13.6339
    13.6464  13.6661  13.8500  13.8639  13.8926  13.8957  13.9066  13.9080
    13.9455  13.9595  14.1394  14.1689  14.2937  14.3922  14.3981  14.4700
    14.4703  14.4818  14.6739  14.7218  14.8450  15.0149  15.1773  15.3790
    15.5211  15.6681  16.0384  16.4342  16.5970  16.7782  16.9204  17.2488

          k = 0.0000 0.2500 0.2473 ( 14847 PWs)   bands (ev):

   -46.0189 -46.0182 -46.0181 -46.0178 -46.0174 -46.0171 -46.0169 -46.0163
   -22.4546 -22.4522 -22.4512 -22.4494 -22.4198 -22.4181 -22.4174 -22.4158
   -22.4057 -22.4034 -22.4032 -22.4014 -22.3982 -22.3960 -22.3949 -22.3932
   -22.3592 -22.3577 -22.3569 -22.3555 -22.3508 -22.3494 -22.3493 -22.3480
   -14.5024 -14.4256 -14.4188 -14.3898 -14.3638 -14.3404 -14.3347 -14.2897
    -6.7320  -6.7058  -6.6868  -6.5990  -6.3844  -6.3284  -6.2692  -5.9526
    -5.9261  -5.9242  -5.8973  -5.8804  -5.8674  -5.8497  -5.8295  -5.8012
    -5.7856  -5.7650  -5.7515  -5.7490  -5.7045  -5.6698  -5.6624  -5.6226
    -0.3257  -0.2805  -0.1101   0.1187   0.1702   0.1769   0.1888   0.2601
     0.2824   0.3106   0.3379   0.3764   0.3818   0.4042   0.4348   0.4541
     0.4700   0.5119   0.5144   0.5388   0.5558   0.6070   0.6077   0.6395
     5.9093   6.0041   6.0225   6.1539   6.1811   6.3671   6.3735   6.4344
     6.4640   6.5078   6.5338   6.5424   6.5690   6.6466   6.7040   7.2373
     7.3327   7.3467   7.3641   7.3975   7.4109   7.4487   7.4536   7.4835
     7.4866   7.4913   7.5394   7.5949   7.6165   7.6631   7.6855   7.6936
     7.7163   7.7590   7.7598   7.8374   7.8441   8.1400   8.1608   8.2074
     8.2726   8.4153   8.5368   8.5487   8.6005   8.6386   8.7208   8.9759
     8.9865   8.9910   9.0155   9.0360   9.1437   9.1582   9.2219   9.2229
     9.2236   9.2871   9.3028   9.3313   9.3390   9.3491   9.4143   9.4308
     9.7026   9.7670   9.7897   9.8874   9.9209   9.9463  10.1011  10.1201
    12.3933  12.4851  12.6566  12.7140  12.7282  12.8566  13.6139  13.6299
    13.6623  13.6633  13.6926  13.7209  13.7675  13.7708  13.8661  13.9134
    13.9310  13.9770  14.0144  14.1931  14.2013  14.2688  14.3538  14.3785
    14.6171  14.6729  14.7273  15.0538  15.1016  15.1545  15.4706  15.6446
    15.6583  15.8067  16.2302  16.3902  16.5493  16.8595  16.9671  17.0572

          k = 0.0000 0.2500-0.4946 ( 14814 PWs)   bands (ev):

   -46.0186 -46.0186 -46.0177 -46.0177 -46.0174 -46.0174 -46.0166 -46.0166
   -22.4373 -22.4373 -22.4351 -22.4351 -22.4344 -22.4343 -22.4326 -22.4326
   -22.4046 -22.4046 -22.4023 -22.4023 -22.3971 -22.3970 -22.3941 -22.3940
   -22.3585 -22.3585 -22.3562 -22.3562 -22.3501 -22.3501 -22.3486 -22.3486
   -14.4644 -14.4643 -14.3915 -14.3915 -14.3653 -14.3652 -14.3123 -14.3122
    -6.6146  -6.6144  -6.5624  -6.5622  -6.5094  -6.5092  -6.1401  -6.1400
    -5.9159  -5.9158  -5.9023  -5.9022  -5.8555  -5.8554  -5.8351  -5.8349
    -5.7380  -5.7378  -5.7214  -5.7212  -5.7097  -5.7096  -5.6861  -5.6859
    -0.1384  -0.1383  -0.0576  -0.0575   0.2040   0.2041   0.2119   0.2119
     0.3043   0.3044   0.3138   0.3138   0.3576   0.3577   0.3949   0.3950
     0.5160   0.5160   0.5374   0.5375   0.5551   0.5551   0.5686   0.5686
     5.9933   5.9934   6.1290   6.1291   6.3379   6.3379   6.5758   6.5759
     6.7665   6.7666   6.8187   6.8188   6.9275   6.9277   6.9714   6.9715
     7.0174   7.0176   7.1153   7.1155   7.1707   7.1709   7.4011   7.4012
     7.4760   7.4762   7.5186   7.5187   7.7024   7.7024   7.7222   7.7223
     7.7720   7.7720   7.8146   7.8147   7.9556   7.9557   8.0188   8.0189
     8.3148   8.3149   8.3843   8.3843   8.7311   8.7312   8.8167   8.8168
     8.9183   8.9183   9.0763   9.0763   9.1279   9.1280   9.1385   9.1385
     9.1638   9.1639   9.4573   9.4574   9.5519   9.5520   9.5609   9.5610
     9.6027   9.6027   9.6162   9.6163   9.6611   9.6611  10.1086  10.1087
    12.4406  12.4407  13.1845  13.1845  13.1954  13.1954  13.2247  13.2247
    13.3210  13.3211  13.6337  13.6338  13.7919  13.7919  13.8989  13.8990
    14.0112  14.0112  14.0159  14.0160  14.1589  14.1590  14.2821  14.2821
    14.6648  14.6648  15.0445  15.0445  15.5155  15.5155  15.8048  15.8049
    16.2812  16.2814  16.3710  16.3712  16.5728  16.5729  16.8313  16.8314

          k = 0.0000-0.5000 0.0000 ( 14814 PWs)   bands (ev):

   -46.0186 -46.0186 -46.0177 -46.0177 -46.0175 -46.0175 -46.0165 -46.0165
   -22.4605 -22.4605 -22.4573 -22.4573 -22.4118 -22.4118 -22.4096 -22.4096
   -22.4049 -22.4049 -22.4020 -22.4020 -22.3792 -22.3792 -22.3765 -22.3765
   -22.3762 -22.3762 -22.3741 -22.3741 -22.3503 -22.3503 -22.3484 -22.3484
   -14.4745 -14.4745 -14.3810 -14.3810 -14.3721 -14.3721 -14.3053 -14.3052
    -6.6875  -6.6875  -6.6005  -6.6005  -6.5334  -6.5334  -5.9286  -5.9286
    -5.9181  -5.9181  -5.8699  -5.8699  -5.8383  -5.8383  -5.8362  -5.8362
    -5.7907  -5.7907  -5.7747  -5.7747  -5.7178  -5.7178  -5.6803  -5.6803
    -0.1297  -0.1297  -0.0803  -0.0803   0.0515   0.0515   0.3232   0.3232
     0.3258   0.3258   0.3629   0.3629   0.3776   0.3776   0.4410   0.4410
     0.4944   0.4944   0.5004   0.5004   0.5566   0.5566   0.5606   0.5606
     5.8964   5.8964   6.0898   6.0898   6.1327   6.1327   6.4072   6.4072
     6.6620   6.6620   6.7785   6.7785   6.9922   6.9922   7.0338   7.0338
     7.0524   7.0524   7.1225   7.1226   7.2108   7.2108   7.4346   7.4347
     7.4731   7.4731   7.6893   7.6893   7.7188   7.7188   7.7204   7.7204
     7.7325   7.7325   7.7813   7.7813   7.8332   7.8332   8.3108   8.3108
     8.5295   8.5295   8.6276   8.6276   8.7081   8.7082   8.7540   8.7540
     8.8095   8.8095   8.9685   8.9685   8.9977   8.9977   9.1464   9.1465
     9.1632   9.1632   9.4945   9.4946   9.6194   9.6194   9.6227   9.6227
     9.6403   9.6403   9.7339   9.7340   9.7594   9.7594  10.0758  10.0758
    12.4378  12.4378  13.0480  13.0480  13.0740  13.0740  13.1086  13.1087
    13.1286  13.1286  13.8967  13.8967  13.8988  13.8988  13.9415  13.9415
    13.9697  13.9697  14.1489  14.1489  14.1590  14.1590  14.3795  14.3795
    14.4846  14.4846  14.9840  14.9841  15.0354  15.0354  15.5517  15.5518
    16.1495  16.1495  16.2894  16.2894  16.5084  16.5084  17.1027  17.1555

          k = 0.0000-0.5000 0.2473 ( 14840 PWs)   bands (ev):

   -46.0185 -46.0185 -46.0178 -46.0178 -46.0174 -46.0174 -46.0166 -46.0166
   -22.4534 -22.4534 -22.4503 -22.4503 -22.4189 -22.4189 -22.4166 -22.4166
   -22.4045 -22.4045 -22.4024 -22.4024 -22.3788 -22.3788 -22.3769 -22.3769
   -22.3759 -22.3759 -22.3744 -22.3744 -22.3500 -22.3500 -22.3487 -22.3487
   -14.4610 -14.4610 -14.3950 -14.3949 -14.3625 -14.3624 -14.3152 -14.3152
    -6.6421  -6.6421  -6.5274  -6.5274  -6.5257  -6.5256  -6.0938  -6.0938
    -5.9251  -5.9251  -5.8884  -5.8884  -5.8219  -5.8219  -5.8026  -5.8026
    -5.7856  -5.7856  -5.7833  -5.7833  -5.7108  -5.7108  -5.6844  -5.6844
    -0.1122  -0.1122  -0.0521  -0.0521   0.1819   0.1819   0.2102   0.2102
     0.2952   0.2952   0.3118   0.3118   0.3511   0.3511   0.4026   0.4026
     0.5291   0.5291   0.5376   0.5376   0.5433   0.5434   0.5616   0.5616
     6.0053   6.0053   6.1205   6.1205   6.2931   6.2931   6.5496   6.5496
     6.7857   6.7857   6.8102   6.8102   6.9494   6.9494   6.9742   6.9742
     7.0448   7.0448   7.1733   7.1734   7.2019   7.2019   7.4296   7.4296
     7.5084   7.5085   7.5521   7.5521   7.7081   7.7081   7.7393   7.7393
     7.7511   7.7511   7.7714   7.7714   7.8324   7.8324   7.9830   7.9830
     8.3429   8.3429   8.3735   8.3735   8.7378   8.7378   8.8384   8.8384
     9.0321   9.0321   9.0403   9.0403   9.0493   9.0493   9.1253   9.1253
     9.1815   9.1815   9.4009   9.4009   9.5020   9.5020   9.5779   9.5779
     9.6545   9.6545   9.7091   9.7091   9.7374   9.7374   9.9550   9.9550
    12.6695  12.6695  13.0619  13.0619  13.0950  13.0950  13.1437  13.1437
    13.2754  13.2754  13.7029  13.7029  13.7684  13.7684  13.9390  13.9390
    13.9921  13.9921  13.9984  13.9984  14.1322  14.1322  14.2821  14.2821
    14.7197  14.7197  15.0229  15.0229  15.4127  15.4127  15.7400  15.7401
    16.3325  16.3325  16.5476  16.5476  16.5830  16.5830  16.9370  16.9373

          k = 0.0000-0.5000-0.4946 ( 14836 PWs)   bands (ev):

   -46.0182 -46.0182 -46.0182 -46.0182 -46.0170 -46.0170 -46.0170 -46.0170
   -22.4362 -22.4362 -22.4362 -22.4362 -22.4335 -22.4335 -22.4335 -22.4335
   -22.4034 -22.4034 -22.4034 -22.4034 -22.3779 -22.3779 -22.3778 -22.3778
   -22.3752 -22.3752 -22.3751 -22.3751 -22.3494 -22.3494 -22.3494 -22.3494
   -14.4283 -14.4283 -14.4282 -14.4282 -14.3390 -14.3390 -14.3389 -14.3389
    -6.5573  -6.5573  -6.5572  -6.5571  -6.3307  -6.3307  -6.3306  -6.3306
    -5.9342  -5.9342  -5.9341  -5.9341  -5.7957  -5.7957  -5.7956  -5.7956
    -5.7893  -5.7893  -5.7892  -5.7891  -5.6963  -5.6963  -5.6962  -5.6962
    -0.0223  -0.0223  -0.0223  -0.0223   0.1433   0.1433   0.1434   0.1434
     0.2743   0.2743   0.2743   0.2743   0.4362   0.4362   0.4362   0.4362
     0.4646   0.4646   0.4646   0.4647   0.5717   0.5718   0.5718   0.5718
     6.0949   6.0949   6.0950   6.0950   6.7155   6.7155   6.7156   6.7156
     6.8739   6.8739   6.8739   6.8739   7.0113   7.0113   7.0114   7.0114
     7.0847   7.0847   7.0848   7.0848   7.1617   7.1618   7.1619   7.1619
     7.5207   7.5207   7.5208   7.5208   7.6626   7.6626   7.6627   7.6627
     7.7262   7.7262   7.7263   7.7263   7.9521   7.9521   7.9522   7.9522
     8.0526   8.0526   8.0527   8.0527   8.7104   8.7104   8.7104   8.7104
     9.1598   9.1599   9.1599   9.1599   9.2026   9.2026   9.2027   9.2027
     9.2376   9.2376   9.2376   9.2376   9.5488   9.5488   9.5488   9.5489
     9.6592   9.6593   9.6593   9.6593   9.7249   9.7249   9.7250   9.7250
    13.0418  13.0418  13.0418  13.0419  13.2361  13.2362  13.2362  13.2362
    13.4046  13.4046  13.4046  13.4046  13.6301  13.6301  13.6302  13.6302
    14.0565  14.0565  14.0566  14.0566  14.0976  14.0976  14.0976  14.0976
    14.9523  14.9523  14.9523  14.9523  16.2338  16.2339  16.2339  16.2340
    16.3409  16.3409  16.3410  16.3410  16.7966  16.7966  16.7967  16.7968

          k = 0.2500 0.2500 0.0000 ( 14825 PWs)   bands (ev):

   -46.0189 -46.0181 -46.0181 -46.0179 -46.0172 -46.0171 -46.0171 -46.0163
   -22.4613 -22.4587 -22.4587 -22.4567 -22.4122 -22.4107 -22.4107 -22.4092
   -22.3982 -22.3982 -22.3959 -22.3955 -22.3951 -22.3951 -22.3933 -22.3932
   -22.3594 -22.3590 -22.3575 -22.3575 -22.3572 -22.3570 -22.3556 -22.3555
   -14.5011 -14.4176 -14.4176 -14.3979 -14.3567 -14.3418 -14.3418 -14.2909
    -6.7376  -6.7376  -6.6514  -6.6115  -6.4517  -6.2344  -6.2344  -5.9280
    -5.9077  -5.9077  -5.8825  -5.8825  -5.8564  -5.8346  -5.8165  -5.8112
    -5.8027  -5.7755  -5.7674  -5.7651  -5.7651  -5.6643  -5.6643  -5.6575
    -0.3486  -0.2274  -0.1305   0.1248   0.1248   0.2263   0.2433   0.2434
     0.2801   0.2958   0.3279   0.3672   0.3772   0.3772   0.4426   0.4578
     0.4578   0.5081   0.5081   0.5441   0.5893   0.6047   0.6095   0.6095
     5.9094   6.0134   6.0134   6.1233   6.1404   6.3846   6.3846   6.4286
     6.4286   6.4997   6.5221   6.6319   6.6319   6.6525   6.6569   7.1263
     7.3743   7.3935   7.3935   7.4345   7.4622   7.4743   7.4743   7.4885
     7.5067   7.5292   7.5292   7.6108   7.6108   7.6193   7.6831   7.6831
     7.7517   7.7546   7.8025   7.8262   7.8525   8.0737   8.0737   8.2632
     8.2633   8.4390   8.5248   8.5248   8.5443   8.5994   8.8539   8.8539
     8.9465   8.9560   8.9811   9.0502   9.0617   9.1217   9.1895   9.2654
     9.2654   9.2944   9.2944   9.3273   9.3687   9.3687   9.4616   9.4616
     9.8031   9.8035   9.9003   9.9341   9.9469   9.9469  10.0119  10.0330
    12.4747  12.6137  12.6228  12.6281  12.6281  12.7331  13.6016  13.6274
    13.6274  13.6532  13.6532  13.7246  13.7423  13.7423  13.8672  13.9000
    13.9494  13.9494  14.0369  14.1775  14.1775  14.2620  14.3489  14.3652
    14.7119  14.7379  14.7379  15.0285  15.0377  15.0511  15.6521  15.6521
    15.6858  15.7812  16.2627  16.2627  16.7229  17.0530  17.0983  17.1058

          k = 0.2500 0.2500 0.2473 ( 14816 PWs)   bands (ev):

   -46.0187 -46.0181 -46.0179 -46.0179 -46.0172 -46.0172 -46.0171 -46.0165
   -22.4541 -22.4518 -22.4518 -22.4498 -22.4194 -22.4177 -22.4177 -22.4162
   -22.3977 -22.3977 -22.3956 -22.3955 -22.3955 -22.3952 -22.3938 -22.3935
   -22.3591 -22.3587 -22.3575 -22.3573 -22.3572 -22.3572 -22.3558 -22.3558
   -14.4863 -14.4133 -14.4067 -14.4067 -14.3531 -14.3531 -14.3472 -14.3007
    -6.6690  -6.6690  -6.6195  -6.5866  -6.3787  -6.3123  -6.3123  -5.9792
    -5.9415  -5.9020  -5.9020  -5.8769  -5.8769  -5.8486  -5.8293  -5.8107
    -5.7898  -5.7606  -5.7587  -5.7511  -5.7511  -5.6860  -5.6860  -5.6812
    -0.2675  -0.2318   0.0518   0.1385   0.1644   0.1645   0.1982   0.2248
     0.2249   0.2829   0.2887   0.2940   0.3065   0.3066   0.4050   0.4050
     0.4238   0.5387   0.5609   0.5670   0.5670   0.6467   0.6467   0.6606
     6.0407   6.1420   6.1535   6.1535   6.3400   6.3930   6.3930   6.4889
     6.4889   6.6325   6.6354   6.6523   6.6546   6.7300   6.7300   7.1805
     7.2251   7.2251   7.3087   7.3191   7.4782   7.4782   7.4827   7.4910
     7.4910   7.5321   7.6146   7.6147   7.6341   7.6521   7.6793   7.6822
     7.6822   7.7194   7.7422   7.7517   7.8927   7.8927   7.9069   8.1951
     8.2927   8.2927   8.3312   8.3583   8.5703   8.5703   8.8007   8.9890
     9.0116   9.0396   9.0396   9.0779   9.1488   9.1488   9.1567   9.2372
     9.2372   9.2764   9.2936   9.3561   9.3561   9.3894   9.4069   9.4069
     9.6725   9.7248   9.7574   9.8158   9.8752   9.8752  10.0165  10.0252
    12.5876  12.7116  12.7498  12.7752  12.8350  12.8350  13.6491  13.6491
    13.6649  13.6881  13.6881  13.7048  13.7087  13.7087  13.7099  13.7771
    13.7771  13.8022  14.0538  14.0538  14.0681  14.2094  14.2308  14.2522
    15.0310  15.0477  15.0685  15.0685  15.1157  15.4913  15.6389  15.6389
    15.9176  16.0457  16.3756  16.3756  16.5098  17.0125  17.1380  17.2404

          k = 0.2500 0.2500-0.4946 ( 14798 PWs)   bands (ev):

   -46.0184 -46.0184 -46.0176 -46.0176 -46.0176 -46.0176 -46.0167 -46.0167
   -22.4369 -22.4369 -22.4348 -22.4348 -22.4348 -22.4348 -22.4330 -22.4330
   -22.3966 -22.3966 -22.3966 -22.3966 -22.3946 -22.3946 -22.3943 -22.3943
   -22.3583 -22.3583 -22.3580 -22.3580 -22.3565 -22.3565 -22.3565 -22.3565
   -14.4502 -14.4501 -14.3802 -14.3801 -14.3801 -14.3800 -14.3241 -14.3240
    -6.5723  -6.5722  -6.4963  -6.4963  -6.4962  -6.4962  -6.1928  -6.1926
    -5.9214  -5.9213  -5.8788  -5.8788  -5.8787  -5.8787  -5.8299  -5.8297
    -5.7495  -5.7493  -5.7367  -5.7366  -5.7264  -5.7264  -5.7263  -5.7263
    -0.0740  -0.0740  -0.0678  -0.0677   0.2162   0.2162   0.2163   0.2163
     0.2889   0.2889   0.2952   0.2952   0.2953   0.2953   0.3133   0.3133
     0.3461   0.3461   0.6427   0.6427   0.6427   0.6427   0.6465   0.6465
     6.1399   6.1400   6.3081   6.3081   6.3082   6.3082   6.6532   6.6532
     6.8269   6.8269   6.8269   6.8270   6.8464   6.8465   6.9263   6.9263
     7.1259   7.1259   7.1260   7.1260   7.2478   7.2479   7.3975   7.3976
     7.5100   7.5100   7.5101   7.5101   7.6085   7.6086   7.7084   7.7084
     7.7734   7.7735   7.8346   7.8346   7.8347   7.8347   8.0113   8.0113
     8.0660   8.0661   8.3536   8.3536   8.3536   8.3537   8.7658   8.7658
     9.1010   9.1010   9.1010   9.1010   9.1385   9.1385   9.3043   9.3043
     9.3044   9.3044   9.4046   9.4046   9.5036   9.5036   9.5465   9.5466
     9.5526   9.5526   9.6198   9.6198   9.6198   9.6198  10.0155  10.0157
    12.6572  12.6573  13.1986  13.1987  13.2263  13.2264  13.3012  13.3012
    13.3013  13.3013  13.6947  13.6947  13.6948  13.6948  13.8277  13.8277
    13.8277  13.8277  13.9640  13.9640  13.9973  13.9974  14.1515  14.1515
    15.0384  15.0385  15.5110  15.5110  15.5110  15.5110  15.8919  15.8920
    16.4123  16.4125  16.4923  16.4924  16.7707  16.7709  16.8443  16.8443

          k = 0.2500-0.5000 0.0000 ( 14818 PWs)   bands (ev):

   -46.0185 -46.0185 -46.0176 -46.0176 -46.0175 -46.0175 -46.0167 -46.0167
   -22.4601 -22.4601 -22.4577 -22.4577 -22.4114 -22.4114 -22.4099 -22.4099
   -22.3969 -22.3969 -22.3942 -22.3942 -22.3787 -22.3787 -22.3766 -22.3766
   -22.3762 -22.3762 -22.3744 -22.3744 -22.3583 -22.3583 -22.3563 -22.3563
   -14.4598 -14.4598 -14.3874 -14.3874 -14.3701 -14.3701 -14.3165 -14.3165
    -6.6521  -6.6521  -6.5894  -6.5894  -6.4572  -6.4572  -6.0397  -6.0397
    -5.8968  -5.8968  -5.8664  -5.8664  -5.8409  -5.8409  -5.8397  -5.8397
    -5.7976  -5.7976  -5.7729  -5.7729  -5.7317  -5.7317  -5.7082  -5.7082
    -0.1475  -0.1475   0.0031   0.0031   0.1756   0.1756   0.1972   0.1972
     0.2763   0.2763   0.3069   0.3069   0.3904   0.3904   0.4094   0.4094
     0.4941   0.4942   0.5414   0.5414   0.5515   0.5515   0.5573   0.5573
     5.9966   5.9966   6.0923   6.0923   6.3246   6.3246   6.5468   6.5468
     6.6783   6.6783   6.9305   6.9305   6.9345   6.9345   6.9668   6.9668
     7.1018   7.1018   7.1237   7.1237   7.1892   7.1892   7.4465   7.4465
     7.5287   7.5287   7.5522   7.5522   7.7053   7.7053   7.7162   7.7162
     7.7546   7.7546   7.8433   7.8433   7.8805   7.8805   8.0707   8.0708
     8.2950   8.2951   8.4458   8.4459   8.5419   8.5419   8.6638   8.6638
     8.9681   8.9681   8.9754   8.9754   9.0849   9.0849   9.1885   9.1885
     9.2427   9.2427   9.5375   9.5376   9.5998   9.5998   9.6018   9.6018
     9.6140   9.6140   9.6475   9.6475   9.7795   9.7795   9.9580   9.9580
    12.5759  12.5759  13.0851  13.0851  13.1077  13.1078  13.1276  13.1276
    13.2474  13.2474  13.6647  13.6647  13.7862  13.7862  13.9108  13.9108
    13.9787  13.9787  13.9867  13.9867  14.1238  14.1238  14.2677  14.2677
    14.7547  14.7547  14.9992  14.9992  15.4929  15.4929  15.7520  15.7521
    16.4033  16.4034  16.5211  16.5211  16.5556  16.5556  16.9116  16.9116

          k = 0.2500-0.5000 0.2473 ( 14838 PWs)   bands (ev):

   -46.0184 -46.0184 -46.0176 -46.0176 -46.0175 -46.0175 -46.0168 -46.0168
   -22.4530 -22.4530 -22.4508 -22.4508 -22.4186 -22.4186 -22.4170 -22.4170
   -22.3965 -22.3965 -22.3946 -22.3946 -22.3784 -22.3784 -22.3765 -22.3765
   -22.3763 -22.3763 -22.3748 -22.3748 -22.3581 -22.3581 -22.3566 -22.3566
   -14.4469 -14.4469 -14.3835 -14.3835 -14.3772 -14.3772 -14.3271 -14.3271
    -6.6025  -6.6025  -6.5186  -6.5186  -6.4575  -6.4575  -6.1384  -6.1384
    -5.9050  -5.9050  -5.8824  -5.8824  -5.8424  -5.8424  -5.8279  -5.8279
    -5.8025  -5.8025  -5.7757  -5.7757  -5.7371  -5.7371  -5.7167  -5.7166
    -0.0874  -0.0874  -0.0282  -0.0282   0.1909   0.1909   0.1922   0.1922
     0.2915   0.2916   0.2968   0.2968   0.3043   0.3043   0.3271   0.3271
     0.3467   0.3467   0.6350   0.6350   0.6425   0.6425   0.6438   0.6438
     6.1441   6.1441   6.2797   6.2797   6.2997   6.2997   6.6127   6.6127
     6.7686   6.7686   6.8725   6.8725   6.8965   6.8965   6.9231   6.9231
     7.1306   7.1307   7.1917   7.1917   7.2423   7.2423   7.4294   7.4294
     7.5348   7.5348   7.5393   7.5393   7.6057   7.6057   7.7149   7.7150
     7.7926   7.7926   7.7952   7.7952   7.8250   7.8250   8.0283   8.0283
     8.0789   8.0789   8.2535   8.2535   8.4611   8.4611   8.5822   8.5822
     9.1041   9.1041   9.1135   9.1135   9.1431   9.1431   9.2086   9.2086
     9.3239   9.3239   9.4676   9.4676   9.4697   9.4697   9.5730   9.5730
     9.6161   9.6161   9.6627   9.6627   9.7485   9.7485   9.8713   9.8713
    12.7771  12.7771  13.1348  13.1348  13.1803  13.1804  13.2277  13.2278
    13.2519  13.2520  13.7216  13.7216  13.7220  13.7220  13.8111  13.8111
    13.8177  13.8177  13.9365  13.9365  13.9815  13.9815  14.1458  14.1458
    15.0878  15.0878  15.4311  15.4311  15.4911  15.4911  15.8346  15.8346
    16.5641  16.5641  16.5721  16.5721  16.9159  16.9160  16.9429  16.9429

          k = 0.2500-0.5000-0.4946 ( 14848 PWs)   bands (ev):

   -46.0180 -46.0180 -46.0180 -46.0180 -46.0172 -46.0172 -46.0172 -46.0172
   -22.4358 -22.4358 -22.4358 -22.4358 -22.4339 -22.4339 -22.4339 -22.4339
   -22.3956 -22.3956 -22.3955 -22.3955 -22.3775 -22.3775 -22.3775 -22.3775
   -22.3756 -22.3756 -22.3756 -22.3755 -22.3573 -22.3573 -22.3573 -22.3573
   -14.4155 -14.4155 -14.4154 -14.4154 -14.3523 -14.3523 -14.3523 -14.3522
    -6.5040  -6.5040  -6.5039  -6.5039  -6.3389  -6.3389  -6.3388  -6.3388
    -5.9200  -5.9200  -5.9199  -5.9199  -5.8179  -5.8179  -5.8178  -5.8178
    -5.7929  -5.7929  -5.7928  -5.7928  -5.7368  -5.7368  -5.7367  -5.7366
     0.0204   0.0204   0.0204   0.0204   0.0954   0.0954   0.0955   0.0955
     0.2289   0.2289   0.2289   0.2289   0.2770   0.2770   0.2770   0.2770
     0.5555   0.5555   0.5555   0.5555   0.6999   0.6999   0.6999   0.6999
     6.2595   6.2595   6.2596   6.2596   6.6221   6.6221   6.6221   6.6221
     6.8332   6.8332   6.8332   6.8332   7.0847   7.0847   7.0847   7.0847
     7.1016   7.1016   7.1017   7.1017   7.3114   7.3114   7.3114   7.3115
     7.3963   7.3963   7.3963   7.3963   7.7345   7.7345   7.7346   7.7346
     7.7406   7.7406   7.7406   7.7406   7.8847   7.8847   7.8847   7.8847
     7.9438   7.9438   7.9439   7.9439   8.3828   8.3828   8.3829   8.3829
     9.2249   9.2249   9.2250   9.2250   9.2914   9.2914   9.2914   9.2914
     9.3883   9.3883   9.3883   9.3883   9.5401   9.5401   9.5401   9.5401
     9.5975   9.5976   9.5976   9.5976   9.7174   9.7174   9.7175   9.7175
    13.1491  13.1491  13.1492  13.1492  13.2947  13.2947  13.2948  13.2948
    13.4463  13.4463  13.4464  13.4464  13.5983  13.5984  13.5984  13.5984
    13.8698  13.8698  13.8699  13.8699  13.9210  13.9210  13.9210  13.9210
    15.4326  15.4326  15.4327  15.4327  16.2585  16.2585  16.2586  16.2587
    16.3327  16.3328  16.3329  16.3329  16.9935  16.9935  16.9936  16.9937

          k =-0.5000-0.5000 0.0000 ( 14852 PWs)   bands (ev):

   -46.0181 -46.0181 -46.0181 -46.0181 -46.0171 -46.0171 -46.0171 -46.0171
   -22.4589 -22.4589 -22.4589 -22.4589 -22.4107 -22.4107 -22.4107 -22.4107
   -22.3781 -22.3781 -22.3781 -22.3781 -22.3773 -22.3773 -22.3773 -22.3773
   -22.3755 -22.3755 -22.3755 -22.3755 -22.3751 -22.3751 -22.3751 -22.3751
   -14.4239 -14.4239 -14.4239 -14.4239 -14.3435 -14.3435 -14.3435 -14.3435
    -6.5961  -6.5961  -6.5961  -6.5961  -6.2621  -6.2621  -6.2621  -6.2621
    -5.8519  -5.8519  -5.8519  -5.8519  -5.8349  -5.8349  -5.8349  -5.8349
    -5.8277  -5.8277  -5.8277  -5.8276  -5.7320  -5.7320  -5.7320  -5.7320
    -0.0432  -0.0432  -0.0432  -0.0432   0.2003   0.2004   0.2004   0.2004
     0.2543   0.2543   0.2543   0.2543   0.4258   0.4258   0.4259   0.4259
     0.4542   0.4543   0.4543   0.4543   0.5721   0.5721   0.5721   0.5721
     6.0789   6.0789   6.0789   6.0789   6.7075   6.7075   6.7075   6.7075
     6.7243   6.7243   6.7243   6.7243   7.1430   7.1430   7.1430   7.1430
     7.1448   7.1449   7.1449   7.1449   7.2121   7.2121   7.2121   7.2121
     7.5107   7.5107   7.5107   7.5108   7.6771   7.6771   7.6771   7.6771
     7.7474   7.7474   7.7474   7.7474   8.0554   8.0554   8.0554   8.0554
     8.0655   8.0655   8.0655   8.0655   8.3595   8.3595   8.3595   8.3595
     9.1045   9.1045   9.1045   9.1045   9.3353   9.3354   9.3354   9.3354
     9.3667   9.3667   9.3667   9.3667   9.5433   9.5433   9.5433   9.5433
     9.6292   9.6292   9.6292   9.6292   9.7580   9.7580   9.7580   9.7580
    12.9800  12.9800  12.9800  12.9800  13.2089  13.2089  13.2089  13.2089
    13.3959  13.3959  13.3959  13.3959  13.6071  13.6071  13.6071  13.6071
    14.0318  14.0318  14.0318  14.0318  14.0732  14.0732  14.0732  14.0732
    14.9708  14.9708  14.9708  14.9708  16.2801  16.2801  16.2801  16.2801
    16.3603  16.3603  16.3603  16.3603  16.9075  16.9076  16.9076  16.9076

          k =-0.5000-0.5000 0.2473 ( 14844 PWs)   bands (ev):

   -46.0179 -46.0179 -46.0179 -46.0179 -46.0172 -46.0172 -46.0172 -46.0172
   -22.4519 -22.4519 -22.4519 -22.4519 -22.4178 -22.4178 -22.4178 -22.4178
   -22.3778 -22.3778 -22.3778 -22.3778 -22.3770 -22.3770 -22.3770 -22.3770
   -22.3759 -22.3759 -22.3759 -22.3759 -22.3754 -22.3754 -22.3754 -22.3754
   -14.4124 -14.4123 -14.4123 -14.4123 -14.3555 -14.3555 -14.3554 -14.3554
    -6.5357  -6.5357  -6.5357  -6.5357  -6.2892  -6.2892  -6.2892  -6.2891
    -5.8731  -5.8731  -5.8731  -5.8731  -5.8452  -5.8452  -5.8452  -5.8452
    -5.8203  -5.8203  -5.8203  -5.8203  -5.7475  -5.7475  -5.7475  -5.7475
     0.0006   0.0006   0.0006   0.0006   0.1323   0.1323   0.1323   0.1323
     0.2110   0.2110   0.2110   0.2110   0.2791   0.2791   0.2791   0.2791
     0.5572   0.5572   0.5572   0.5572   0.6948   0.6948   0.6948   0.6949
     6.2509   6.2509   6.2509   6.2509   6.6184   6.6184   6.6184   6.6184
     6.7441   6.7441   6.7441   6.7441   7.1485   7.1485   7.1485   7.1485
     7.1988   7.1989   7.1989   7.1989   7.3077   7.3077   7.3077   7.3077
     7.3704   7.3704   7.3704   7.3704   7.7524   7.7524   7.7524   7.7525
     7.7612   7.7612   7.7612   7.7613   7.9604   7.9604   7.9604   7.9604
     7.9645   7.9645   7.9645   7.9646   8.1764   8.1764   8.1764   8.1764
     9.2585   9.2585   9.2585   9.2585   9.2964   9.2964   9.2964   9.2964
     9.4013   9.4013   9.4013   9.4013   9.5333   9.5333   9.5333   9.5333
     9.6342   9.6342   9.6342   9.6342   9.7071   9.7071   9.7071   9.7071
    13.1364  13.1364  13.1364  13.1364  13.2920  13.2920  13.2920  13.2920
    13.4344  13.4344  13.4344  13.4345  13.5740  13.5740  13.5740  13.5740
    13.8662  13.8662  13.8662  13.8662  13.9090  13.9090  13.9090  13.9090
    15.4070  15.4070  15.4070  15.4071  16.2981  16.2982  16.2982  16.2982
    16.3515  16.3515  16.3515  16.3515  17.0870  17.0871  17.0871  17.0871

          k =-0.5000-0.5000-0.4946 ( 14872 PWs)   bands (ev):

   -46.0176 -46.0176 -46.0176 -46.0176 -46.0176 -46.0176 -46.0176 -46.0176
   -22.4349 -22.4349 -22.4349 -22.4349 -22.4349 -22.4349 -22.4349 -22.4349
   -22.3768 -22.3768 -22.3768 -22.3768 -22.3768 -22.3768 -22.3768 -22.3768
   -22.3762 -22.3762 -22.3762 -22.3762 -22.3762 -22.3762 -22.3762 -22.3762
   -14.3842 -14.3841 -14.3841 -14.3841 -14.3841 -14.3840 -14.3840 -14.3840
    -6.3974  -6.3974  -6.3974  -6.3974  -6.3973  -6.3972  -6.3972  -6.3972
    -5.8770  -5.8770  -5.8770  -5.8770  -5.8770  -5.8770  -5.8770  -5.8769
    -5.7844  -5.7844  -5.7844  -5.7844  -5.7843  -5.7843  -5.7843  -5.7843
     0.1060   0.1060   0.1060   0.1061   0.1061   0.1061   0.1061   0.1061
     0.1351   0.1351   0.1352   0.1352   0.1352   0.1352   0.1352   0.1353
     0.7019   0.7019   0.7019   0.7019   0.7020   0.7020   0.7020   0.7020
     6.4575   6.4575   6.4575   6.4575   6.4576   6.4576   6.4576   6.4576
     7.0785   7.0785   7.0785   7.0785   7.0786   7.0786   7.0786   7.0786
     7.1703   7.1703   7.1703   7.1703   7.1703   7.1704   7.1704   7.1704
     7.6716   7.6716   7.6716   7.6716   7.6716   7.6716   7.6716   7.6717
     7.8139   7.8139   7.8140   7.8140   7.8140   7.8140   7.8140   7.8140
     7.8230   7.8230   7.8230   7.8230   7.8231   7.8231   7.8231   7.8231
     9.4316   9.4316   9.4316   9.4316   9.4316   9.4316   9.4316   9.4316
     9.4362   9.4362   9.4362   9.4362   9.4363   9.4363   9.4363   9.4363
     9.6270   9.6270   9.6270   9.6270   9.6271   9.6271   9.6271   9.6271
    13.4601  13.4601  13.4601  13.4601  13.4601  13.4602  13.4602  13.4602
    13.5311  13.5311  13.5311  13.5311  13.5311  13.5311  13.5311  13.5311
    13.5647  13.5647  13.5647  13.5647  13.5648  13.5648  13.5648  13.5648
    16.2982  16.2982  16.2982  16.2982  16.2983  16.2984  16.2984  16.2984
    16.3293  16.3293  16.3293  16.3293  16.3293  16.3293  16.3293  16.3293

     highest occupied, lowest unoccupied level (ev):    10.2707   12.0620

!    total energy              =   -5886.99880600 Ry
     total all-electron energy =   -147371.452379 Ry
     estimated scf accuracy    <          8.1E-11 Ry

     The total energy is the sum of the following terms:
     one-electron contribution =    -547.87112922 Ry
     hartree contribution      =     480.41844063 Ry
     xc contribution           =    -485.44666403 Ry
     ewald contribution        =   -1653.96634398 Ry
     one-center paw contrib.   =   -3680.13310940 Ry

     convergence has been achieved in  28 iterations

     Forces acting on atoms (cartesian axes, Ry/au):

     atom    1 type  1   force =     0.00000000    0.00000000   -0.00149045
     atom    2 type  1   force =     0.00000000    0.00000000   -0.00146114
     atom    3 type  1   force =     0.00000000    0.00000000   -0.00147985
     atom    4 type  1   force =     0.00000000    0.00000000   -0.00146696
     atom    5 type  1   force =     0.00000000    0.00000000   -0.00147985
     atom    6 type  1   force =     0.00000000    0.00000000   -0.00146696
     atom    7 type  1   force =     0.00000000    0.00000000   -0.00149421
     atom    8 type  1   force =     0.00000000    0.00000000   -0.00145918
     atom    9 type  2   force =    -0.00000067   -0.00000067   -0.00232862
     atom   10 type  2   force =    -0.00000111   -0.00000111   -0.00232058
     atom   11 type  2   force =    -0.00000067    0.00000067   -0.00232862
     atom   12 type  2   force =    -0.00000111    0.00000111   -0.00232058
     atom   13 type  2   force =     0.00000067   -0.00000067   -0.00232862
     atom   14 type  2   force =     0.00000111   -0.00000111   -0.00232058
     atom   15 type  2   force =     0.00000067    0.00000067   -0.00232862
     atom   16 type  2   force =     0.00000111    0.00000111   -0.00232058
     atom   17 type  3   force =    -0.00000138   -0.00000138    0.00362955
     atom   18 type  3   force =    -0.00000229   -0.00000229    0.00363802
     atom   19 type  3   force =    -0.00000138    0.00000138    0.00362955
     atom   20 type  3   force =    -0.00000229    0.00000229    0.00363802
     atom   21 type  3   force =     0.00000138   -0.00000138    0.00362955
     atom   22 type  3   force =     0.00000229   -0.00000229    0.00363802
     atom   23 type  3   force =     0.00000138    0.00000138    0.00362955
     atom   24 type  3   force =     0.00000229    0.00000229    0.00363802
     atom   25 type  3   force =    -0.00000195    0.00000000    0.00007732
     atom   26 type  3   force =    -0.00000530    0.00000000    0.00008150
     atom   27 type  3   force =     0.00000094    0.00000000    0.00008181
     atom   28 type  3   force =     0.00000287    0.00000000    0.00009065
     atom   29 type  3   force =     0.00000195    0.00000000    0.00007732
     atom   30 type  3   force =     0.00000530    0.00000000    0.00008150
     atom   31 type  3   force =    -0.00000094    0.00000000    0.00008181
     atom   32 type  3   force =    -0.00000287    0.00000000    0.00009065
     atom   33 type  3   force =     0.00000000   -0.00000195    0.00007732
     atom   34 type  3   force =     0.00000000   -0.00000530    0.00008150
     atom   35 type  3   force =     0.00000000    0.00000195    0.00007732
     atom   36 type  3   force =     0.00000000    0.00000530    0.00008150
     atom   37 type  3   force =    -0.00000000    0.00000094    0.00008181
     atom   38 type  3   force =     0.00000000    0.00000287    0.00009065
     atom   39 type  3   force =     0.00000000   -0.00000094    0.00008181
     atom   40 type  3   force =     0.00000000   -0.00000287    0.00009065

     Total force =     0.012899     Total SCF correction =     0.000004


     Computing stress (Cartesian axis) and pressure

          total   stress  (Ry/bohr**3)                   (kbar)     P=      -65.95
  -0.00048804   0.00000000   0.00000000          -71.79        0.00        0.00
   0.00000000  -0.00048804   0.00000000            0.00      -71.79        0.00
   0.00000000   0.00000000  -0.00036897            0.00        0.00      -54.28


     Writing all to output data dir ./tmp/40_ecut_4_kmesh_PBE.save/ :
     XML data file, charge density, pseudopotentials, collected wavefunctions

     init_run     :      1.58s CPU      1.77s WALL (       1 calls)
     electrons    :     39.71s CPU     41.28s WALL (       1 calls)
     forces       :      0.25s CPU      0.27s WALL (       1 calls)
     stress       :      0.57s CPU      0.60s WALL (       1 calls)

     Called by init_run:
     wfcinit      :      0.60s CPU      0.66s WALL (       1 calls)
     potinit      :      0.29s CPU      0.31s WALL (       1 calls)
     hinit0       :      0.54s CPU      0.62s WALL (       1 calls)

     Called by electrons:
     c_bands      :     34.91s CPU     36.19s WALL (      28 calls)
     sum_band     :      2.67s CPU      2.76s WALL (      28 calls)
     v_of_rho     :      0.26s CPU      0.33s WALL (      29 calls)
     newd         :      0.23s CPU      0.25s WALL (      29 calls)
     PAW_pot      :      1.31s CPU      1.35s WALL (      29 calls)
     mix_rho      :      0.07s CPU      0.07s WALL (      28 calls)

     Called by c_bands:
     init_us_2    :      0.33s CPU      0.33s WALL (     177 calls)
     cegterg      :     30.77s CPU     32.00s WALL (      87 calls)

     Called by *egterg:
     cdiaghg      :      9.89s CPU     10.58s WALL (     593 calls)
     h_psi        :     12.28s CPU     12.64s WALL (     599 calls)
     s_psi        :      1.75s CPU      1.77s WALL (     599 calls)
     g_psi        :      0.02s CPU      0.02s WALL (     509 calls)

     Called by h_psi:
     h_psi:calbec :      2.60s CPU      2.76s WALL (     599 calls)
     vloc_psi     :      7.86s CPU      8.03s WALL (     599 calls)
                                        0.00s GPU  (     599 calls)
     add_vuspsi   :      1.77s CPU      1.80s WALL (     599 calls)

     General routines
     calbec       :      3.90s CPU      4.15s WALL (     734 calls)
     fft          :      0.47s CPU      0.57s WALL (     400 calls)
     ffts         :      0.22s CPU      0.23s WALL (      57 calls)
     fftw         :      8.61s CPU      8.78s WALL (  118678 calls)
     interpolate  :      0.24s CPU      0.24s WALL (      29 calls)

     Parallel routines

     PWSCF        :     43.26s CPU     46.26s WALL


   This run was terminated on:   3:33:53  21May2026            

=------------------------------------------------------------------------------=
   JOB DONE.
=------------------------------------------------------------------------------=
